 Entering Gaussian System, Link 0=g09
 Initial command:
 /apps/z_install_tree/linux-rocky8-ivybridge/gcc-12.2.0/gaussian-09-D.01-wczn3gur5lpur3omlkzwa2l5ecyxp5ef/g09/l1.exe "/srv/scratch/z5112331/GMX/ligands/chlorotrifluoropropane/Gau-184714.inp" -scrdir="/srv/scratch/z5112331/GMX/ligands/chlorotrifluoropropane/"
 Entering Link 1 = /apps/z_install_tree/linux-rocky8-ivybridge/gcc-12.2.0/gaussian-09-D.01-wczn3gur5lpur3omlkzwa2l5ecyxp5ef/g09/l1.exe PID=    184715.
  
 Copyright (c) 1988,1990,1992,1993,1995,1998,2003,2009,2013,
            Gaussian, Inc.  All Rights Reserved.
  
 This is part of the Gaussian(R) 09 program.  It is based on
 the Gaussian(R) 03 system (copyright 2003, Gaussian, Inc.),
 the Gaussian(R) 98 system (copyright 1998, Gaussian, Inc.),
 the Gaussian(R) 94 system (copyright 1995, Gaussian, Inc.),
 the Gaussian 92(TM) system (copyright 1992, Gaussian, Inc.),
 the Gaussian 90(TM) system (copyright 1990, Gaussian, Inc.),
 the Gaussian 88(TM) system (copyright 1988, Gaussian, Inc.),
 the Gaussian 86(TM) system (copyright 1986, Carnegie Mellon
 University), and the Gaussian 82(TM) system (copyright 1983,
 Carnegie Mellon University). Gaussian is a federally registered
 trademark of Gaussian, Inc.
  
 This software contains proprietary and confidential information,
 including trade secrets, belonging to Gaussian, Inc.
  
 This software is provided under written license and may be
 used, copied, transmitted, or stored only in accord with that
 written license.
  
 The following legend is applicable only to US Government
 contracts under FAR:
  
                    RESTRICTED RIGHTS LEGEND
  
 Use, reproduction and disclosure by the US Government is
 subject to restrictions as set forth in subparagraphs (a)
 and (c) of the Commercial Computer Software - Restricted
 Rights clause in FAR 52.227-19.
  
 Gaussian, Inc.
 340 Quinnipiac St., Bldg. 40, Wallingford CT 06492
  
  
 ---------------------------------------------------------------
 Warning -- This program may not be used in any manner that
 competes with the business of Gaussian, Inc. or will provide
 assistance to any competitor of Gaussian, Inc.  The licensee
 of this program is prohibited from giving any competitor of
 Gaussian, Inc. access to this program.  By using this program,
 the user acknowledges that Gaussian, Inc. is engaged in the
 business of creating and licensing software in the field of
 computational chemistry and represents and warrants to the
 licensee that it is not a competitor of Gaussian, Inc. and that
 it will not use this program in any manner prohibited above.
 ---------------------------------------------------------------
  

 Cite this work as:
 Gaussian 09, Revision D.01,
 M. J. Frisch, G. W. Trucks, H. B. Schlegel, G. E. Scuseria, 
 M. A. Robb, J. R. Cheeseman, G. Scalmani, V. Barone, B. Mennucci, 
 G. A. Petersson, H. Nakatsuji, M. Caricato, X. Li, H. P. Hratchian, 
 A. F. Izmaylov, J. Bloino, G. Zheng, J. L. Sonnenberg, M. Hada, 
 M. Ehara, K. Toyota, R. Fukuda, J. Hasegawa, M. Ishida, T. Nakajima, 
 Y. Honda, O. Kitao, H. Nakai, T. Vreven, J. A. Montgomery, Jr., 
 J. E. Peralta, F. Ogliaro, M. Bearpark, J. J. Heyd, E. Brothers, 
 K. N. Kudin, V. N. Staroverov, T. Keith, R. Kobayashi, J. Normand, 
 K. Raghavachari, A. Rendell, J. C. Burant, S. S. Iyengar, J. Tomasi, 
 M. Cossi, N. Rega, J. M. Millam, M. Klene, J. E. Knox, J. B. Cross, 
 V. Bakken, C. Adamo, J. Jaramillo, R. Gomperts, R. E. Stratmann, 
 O. Yazyev, A. J. Austin, R. Cammi, C. Pomelli, J. W. Ochterski, 
 R. L. Martin, K. Morokuma, V. G. Zakrzewski, G. A. Voth, 
 P. Salvador, J. J. Dannenberg, S. Dapprich, A. D. Daniels, 
 O. Farkas, J. B. Foresman, J. V. Ortiz, J. Cioslowski, 
 and D. J. Fox, Gaussian, Inc., Wallingford CT, 2013.
 
 ******************************************
 Gaussian 09:  ES64L-G09RevD.01 24-Apr-2013
                13-Jun-2024 
 ******************************************
 %chk=chlorotrifluoropropane.chk
 %mem=8GB
 %nprocshared=20
 Will use up to   20 processors via shared memory.
 -------------------------------------------------------------------
 #p opt freq b3lyp/gen nosymm em=gd3 int=ultrafine scf=xqc scfcyc=96
 -------------------------------------------------------------------
 1/14=-1,18=20,19=15,26=4,38=1/1,3;
 2/9=110,12=2,15=1,17=6,18=5,40=1/2;
 3/5=7,11=2,16=1,25=1,30=1,71=1,74=-5,75=-5,124=31/1,2,3;
 4//1;
 5/5=2,7=96,8=3,13=1,38=5/2,8;
 6/7=2,8=2,9=2,10=2,28=1/1;
 7/30=1/1,2,3,16;
 1/14=-1,18=20,19=15,26=4/3(2);
 2/9=110,15=1/2;
 99//99;
 2/9=110,15=1/2;
 3/5=7,6=1,11=2,16=1,25=1,30=1,71=1,74=-5,75=-5,82=7,124=31/1,2,3;
 4/5=5,16=3,69=1/1;
 5/5=2,7=96,8=3,13=1,38=5/2,8;
 7/30=1/1,2,3,16;
 1/14=-1,18=20,19=15,26=4/3(-5);
 2/9=110,15=1/2;
 6/7=2,8=2,9=2,10=2,19=2,28=1/1;
 99/9=1/99;
 Leave Link    1 at Thu Jun 13 12:23:47 2024, MaxMem=  1073741824 cpu:         1.5
 (Enter /apps/z_install_tree/linux-rocky8-ivybridge/gcc-12.2.0/gaussian-09-D.01-wczn3gur5lpur3omlkzwa2l5ecyxp5ef/g09/l101.exe)
 ----------------------
 chlorotrifluoropropane
 ----------------------
 Symbolic Z-matrix:
 Charge =  0 Multiplicity = 1
 C                     50.156    35.315    31.965 
 C                     50.054    35.638    33.445 
 C                     51.497    35.707    31.286 
 F                     50.596    37.342    33.861 
 F                     48.422    35.372    33.954 
 F                     50.859    34.495    34.416 
 Cl                    51.583    35.195    29.497 
 H                     49.48     36.007    31.449 
 H                     49.984    34.251    31.757 
 H                     52.317    35.127    31.726 
 H                     51.67     36.787    31.211 
 
 Add virtual bond connecting atoms F6         and C2         Dist= 3.22D+00.
 Add virtual bond connecting atoms F5         and C2         Dist= 3.27D+00.
 Add virtual bond connecting atoms F4         and C2         Dist= 3.47D+00.
 NAtoms=     11 NQM=       11 NQMF=       0 NMMI=      0 NMMIF=      0
                NMic=       0 NMicF=      0.
                    Isotopes and Nuclear Properties:
 (Nuclear quadrupole moments (NQMom) in fm**2, nuclear magnetic moments (NMagM)
  in nuclear magnetons)

  Atom         1           2           3           4           5           6           7           8           9          10
 IAtWgt=          12          12          12          19          19          19          35           1           1           1
 AtmWgt=  12.0000000  12.0000000  12.0000000  18.9984033  18.9984033  18.9984033  34.9688527   1.0078250   1.0078250   1.0078250
 NucSpn=           0           0           0           1           1           1           3           1           1           1
 AtZEff=   0.0000000   0.0000000   0.0000000   0.0000000   0.0000000   0.0000000   0.0000000   0.0000000   0.0000000   0.0000000
 NQMom=    0.0000000   0.0000000   0.0000000   0.0000000   0.0000000   0.0000000  -8.1650000   0.0000000   0.0000000   0.0000000
 NMagM=    0.0000000   0.0000000   0.0000000   2.6288670   2.6288670   2.6288670   0.8218740   2.7928460   2.7928460   2.7928460
 AtZNuc=   6.0000000   6.0000000   6.0000000   9.0000000   9.0000000   9.0000000  17.0000000   1.0000000   1.0000000   1.0000000

  Atom        11
 IAtWgt=           1
 AtmWgt=   1.0078250
 NucSpn=           1
 AtZEff=   0.0000000
 NQMom=    0.0000000
 NMagM=    2.7928460
 AtZNuc=   1.0000000
 Leave Link  101 at Thu Jun 13 12:23:47 2024, MaxMem=  1073741824 cpu:         2.5
 (Enter /apps/z_install_tree/linux-rocky8-ivybridge/gcc-12.2.0/gaussian-09-D.01-wczn3gur5lpur3omlkzwa2l5ecyxp5ef/g09/l103.exe)

 GradGradGradGradGradGradGradGradGradGradGradGradGradGradGradGradGradGrad
 Berny optimization.
 Initialization pass.
                           ----------------------------
                           !    Initial Parameters    !
                           ! (Angstroms and Degrees)  !
 --------------------------                            --------------------------
 ! Name  Definition              Value          Derivative Info.                !
 --------------------------------------------------------------------------------
 ! R1    R(1,2)                  1.5183         estimate D2E/DX2                !
 ! R2    R(1,3)                  1.5534         estimate D2E/DX2                !
 ! R3    R(1,8)                  1.0964         estimate D2E/DX2                !
 ! R4    R(1,9)                  1.0977         estimate D2E/DX2                !
 ! R5    R(2,4)                  1.8359         estimate D2E/DX2                !
 ! R6    R(2,5)                  1.7301         estimate D2E/DX2                !
 ! R7    R(2,6)                  1.7022         estimate D2E/DX2                !
 ! R8    R(3,7)                  1.8628         estimate D2E/DX2                !
 ! R9    R(3,10)                 1.0965         estimate D2E/DX2                !
 ! R10   R(3,11)                 1.0963         estimate D2E/DX2                !
 ! A1    A(2,1,3)              115.4933         estimate D2E/DX2                !
 ! A2    A(2,1,8)              106.4437         estimate D2E/DX2                !
 ! A3    A(2,1,9)              112.3582         estimate D2E/DX2                !
 ! A4    A(3,1,8)               99.6293         estimate D2E/DX2                !
 ! A5    A(3,1,9)              107.2803         estimate D2E/DX2                !
 ! A6    A(8,1,9)              115.2134         estimate D2E/DX2                !
 ! A7    A(1,2,4)              113.4851         estimate D2E/DX2                !
 ! A8    A(1,2,5)              108.5088         estimate D2E/DX2                !
 ! A9    A(1,2,6)              112.4234         estimate D2E/DX2                !
 ! A10   A(4,2,5)              110.7644         estimate D2E/DX2                !
 ! A11   A(4,2,6)              110.7557         estimate D2E/DX2                !
 ! A12   A(5,2,6)              100.0811         estimate D2E/DX2                !
 ! A13   A(1,3,7)              112.9723         estimate D2E/DX2                !
 ! A14   A(1,3,10)             109.6754         estimate D2E/DX2                !
 ! A15   A(1,3,11)             114.5016         estimate D2E/DX2                !
 ! A16   A(7,3,10)             101.8564         estimate D2E/DX2                !
 ! A17   A(7,3,11)             101.4068         estimate D2E/DX2                !
 ! A18   A(10,3,11)            115.4994         estimate D2E/DX2                !
 ! D1    D(3,1,2,4)             47.2869         estimate D2E/DX2                !
 ! D2    D(3,1,2,5)            170.866          estimate D2E/DX2                !
 ! D3    D(3,1,2,6)            -79.3893         estimate D2E/DX2                !
 ! D4    D(8,1,2,4)            -62.222          estimate D2E/DX2                !
 ! D5    D(8,1,2,5)             61.3571         estimate D2E/DX2                !
 ! D6    D(8,1,2,6)            171.1018         estimate D2E/DX2                !
 ! D7    D(9,1,2,4)            170.7891         estimate D2E/DX2                !
 ! D8    D(9,1,2,5)            -65.6318         estimate D2E/DX2                !
 ! D9    D(9,1,2,6)             44.1129         estimate D2E/DX2                !
 ! D10   D(2,1,3,7)            176.8123         estimate D2E/DX2                !
 ! D11   D(2,1,3,10)            63.9468         estimate D2E/DX2                !
 ! D12   D(2,1,3,11)           -67.7666         estimate D2E/DX2                !
 ! D13   D(8,1,3,7)            -69.6726         estimate D2E/DX2                !
 ! D14   D(8,1,3,10)           177.4619         estimate D2E/DX2                !
 ! D15   D(8,1,3,11)            45.7484         estimate D2E/DX2                !
 ! D16   D(9,1,3,7)             50.6775         estimate D2E/DX2                !
 ! D17   D(9,1,3,10)           -62.1879         estimate D2E/DX2                !
 ! D18   D(9,1,3,11)           166.0986         estimate D2E/DX2                !
 --------------------------------------------------------------------------------
 Trust Radius=3.00D-01 FncErr=1.00D-07 GrdErr=1.00D-06
 Number of steps in this run=     56 maximum allowed number of steps=    100.
 GradGradGradGradGradGradGradGradGradGradGradGradGradGradGradGradGradGrad

 Leave Link  103 at Thu Jun 13 12:23:47 2024, MaxMem=  1073741824 cpu:         0.3
 (Enter /apps/z_install_tree/linux-rocky8-ivybridge/gcc-12.2.0/gaussian-09-D.01-wczn3gur5lpur3omlkzwa2l5ecyxp5ef/g09/l202.exe)
                          Input orientation:                          
 ---------------------------------------------------------------------
 Center     Atomic      Atomic             Coordinates (Angstroms)
 Number     Number       Type             X           Y           Z
 ---------------------------------------------------------------------
      1          6           0       50.156000   35.315000   31.965000
      2          6           0       50.054000   35.638000   33.445000
      3          6           0       51.497000   35.707000   31.286000
      4          9           0       50.596000   37.342000   33.861000
      5          9           0       48.422000   35.372000   33.954000
      6          9           0       50.859000   34.495000   34.416000
      7         17           0       51.583000   35.195000   29.497000
      8          1           0       49.480000   36.007000   31.449000
      9          1           0       49.984000   34.251000   31.757000
     10          1           0       52.317000   35.127000   31.726000
     11          1           0       51.670000   36.787000   31.211000
 ---------------------------------------------------------------------
                    Distance matrix (angstroms):
                    1          2          3          4          5
     1  C    0.000000
     2  C    1.518266   0.000000
     3  C    1.553379   2.597747   0.000000
     4  F    2.810186   1.835875   3.180511   0.000000
     5  F    2.639342   1.730104   4.084859   2.935273   0.000000
     6  F    2.678434   1.702150   3.416561   2.912491   2.630882
     7  Cl   2.853376   4.256853   1.862810   4.962688   5.467001
     8  H    1.096401   2.109420   2.045693   2.974126   2.792421
     9  H    1.097699   2.185867   2.151963   3.788884   2.919468
    10  H    2.182289   2.887430   1.096540   3.525094   4.493889
    11  H    2.242208   2.987041   1.096337   2.912731   4.480600
                    6          7          8          9         10
     6  F    0.000000
     7  Cl   5.021029   0.000000
     8  H    3.604286   2.981989   0.000000
     9  H    2.809883   2.924985   1.852678   0.000000
    10  H    3.124306   2.347727   2.983236   2.492233   0.000000
    11  H    4.022811   2.340903   2.336909   3.093866   1.854571
                   11
    11  H    0.000000
 Symmetry turned off by external request.
 Stoichiometry    C3H4ClF3
 Framework group  C1[X(C3H4ClF3)]
 Deg. of freedom    27
 Full point group                 C1      NOp   1
 Rotational constants (GHZ):      3.0857224      0.7952202      0.7687424
 Leave Link  202 at Thu Jun 13 12:23:47 2024, MaxMem=  1073741824 cpu:         2.1
 (Enter /apps/z_install_tree/linux-rocky8-ivybridge/gcc-12.2.0/gaussian-09-D.01-wczn3gur5lpur3omlkzwa2l5ecyxp5ef/g09/l301.exe)
 General basis read from cards:  (5D, 7F)
 Centers:       7      4      5      6      1      2      3      8      9     10
 Centers:      11
 6-311+g(2d,2p)
 ****
 Ernie: Thresh=  0.10000D-02 Tol=  0.10000D-05 Strict=F.
   233 basis functions,   355 primitive gaussians,   247 cartesian basis functions
    33 alpha electrons       33 beta electrons
       nuclear repulsion energy       345.2085697789 Hartrees.
 IExCor=  402 DFT=T Ex+Corr=B3LYP ExCW=0 ScaHFX=  0.200000
 ScaDFX=  0.800000  0.720000  1.000000  0.810000 ScalE2=  1.000000  1.000000
 IRadAn=      5 IRanWt=     -1 IRanGd=            0 ICorTp=0 IEmpDi=131
 NAtoms=   11 NActive=   11 NUniq=   11 SFac= 1.00D+00 NAtFMM=   60 NAOKFM=F Big=F
 Integral buffers will be    131072 words long.
 Raffenetti 2 integral format.
 Two-electron integral symmetry is turned off.
 R6Disp:  Grimme-D3 Dispersion energy=       -0.0082065167 Hartrees.
 Nuclear repulsion after empirical dispersion term =      345.2003632622 Hartrees.
 Leave Link  301 at Thu Jun 13 12:23:48 2024, MaxMem=  1073741824 cpu:         0.6
 (Enter /apps/z_install_tree/linux-rocky8-ivybridge/gcc-12.2.0/gaussian-09-D.01-wczn3gur5lpur3omlkzwa2l5ecyxp5ef/g09/l302.exe)
 NPDir=0 NMtPBC=     1 NCelOv=     1 NCel=       1 NClECP=     1 NCelD=      1
         NCelK=      1 NCelE2=     1 NClLst=     1 CellRange=     0.0.
 One-electron integrals computed using PRISM.
 NBasis=   233 RedAO= T EigKep=  3.00D-05  NBF=   233
 NBsUse=   233 1.00D-06 EigRej= -1.00D+00 NBFU=   233
 Precomputing XC quadrature grid using
 IXCGrd= 4 IRadAn=           5 IRanWt=          -1 IRanGd=           0 AccXCQ= 0.00D+00.
 Generated NRdTot=       0 NPtTot=           0 NUsed=           0 NTot=          32
 NSgBfM=   246   246   247   247   247 MxSgAt=    11 MxSgA2=    11.
 Leave Link  302 at Thu Jun 13 12:23:48 2024, MaxMem=  1073741824 cpu:         4.0
 (Enter /apps/z_install_tree/linux-rocky8-ivybridge/gcc-12.2.0/gaussian-09-D.01-wczn3gur5lpur3omlkzwa2l5ecyxp5ef/g09/l303.exe)
 DipDrv:  MaxL=1.
 Leave Link  303 at Thu Jun 13 12:23:48 2024, MaxMem=  1073741824 cpu:         3.5
 (Enter /apps/z_install_tree/linux-rocky8-ivybridge/gcc-12.2.0/gaussian-09-D.01-wczn3gur5lpur3omlkzwa2l5ecyxp5ef/g09/l401.exe)
 ExpMin= 4.38D-02 ExpMax= 1.06D+05 ExpMxC= 3.62D+03 IAcc=3 IRadAn=         5 AccDes= 0.00D+00
 Harris functional with IExCor=  402 and IRadAn=       5 diagonalized for initial guess.
 HarFok:  IExCor=  402 AccDes= 0.00D+00 IRadAn=         5 IDoV= 1 UseB2=F ITyADJ=14
 ICtDFT=  3500011 ScaDFX=  1.000000  1.000000  1.000000  1.000000
 FoFCou: FMM=F IPFlag=           0 FMFlag=      100000 FMFlg1=           0
         NFxFlg=           0 DoJE=T BraDBF=F KetDBF=T FulRan=T
         wScrn=  0.000000 ICntrl=     500 IOpCl=  0 I1Cent=   200000004 NGrid=           0
         NMat0=    1 NMatS0=      1 NMatT0=    0 NMatD0=    1 NMtDS0=    0 NMtDT0=    0
 Symmetry not used in FoFCou.
 Harris En= -876.442008919996    
 JPrj=0 DoOrth=F DoCkMO=F.
 Leave Link  401 at Thu Jun 13 12:23:49 2024, MaxMem=  1073741824 cpu:         9.0
 (Enter /apps/z_install_tree/linux-rocky8-ivybridge/gcc-12.2.0/gaussian-09-D.01-wczn3gur5lpur3omlkzwa2l5ecyxp5ef/g09/l502.exe)
 Closed shell SCF:
 Using DIIS extrapolation, IDIIS=  1040.
 Two-electron integral symmetry not used.
 Keep R1 ints in memory in canonical form, NReq=379421756.
 IVT=      200693 IEndB=      200693 NGot=  1073741824 MDV=   701946441
 LenX=   701946441 LenY=   701884991
 Requested convergence on RMS density matrix=1.00D-08 within  96 cycles.
 Requested convergence on MAX density matrix=1.00D-06.
 Requested convergence on             energy=1.00D-06.
 No special actions if energy rises.
 FoFCou: FMM=F IPFlag=           0 FMFlag=           0 FMFlg1=           0
         NFxFlg=           0 DoJE=F BraDBF=F KetDBF=F FulRan=T
         wScrn=  0.000000 ICntrl=     600 IOpCl=  0 I1Cent=           0 NGrid=           0
         NMat0=    1 NMatS0=  27261 NMatT0=    0 NMatD0=    1 NMtDS0=    0 NMtDT0=    0
 Symmetry not used in FoFCou.

 Cycle   1  Pass 1  IDiag  1:
 E= -876.193337585702    
 DIIS: error= 3.41D-02 at cycle   1 NSaved=   1.
 NSaved= 1 IEnMin= 1 EnMin= -876.193337585702     IErMin= 1 ErrMin= 3.41D-02
 ErrMax= 3.41D-02  0.00D+00 EMaxC= 1.00D-01 BMatC= 3.18D-01 BMatP= 3.18D-01
 IDIUse=3 WtCom= 6.59D-01 WtEn= 3.41D-01
 Coeff-Com:  0.100D+01
 Coeff-En:   0.100D+01
 Coeff:      0.100D+01
 Gap=     0.085 Goal=   None    Shift=    0.000
 GapD=    0.085 DampG=0.500 DampE=0.500 DampFc=0.2500 IDamp=-1.
 Damping current iteration by 2.50D-01
 RMSDP=5.53D-03 MaxDP=3.22D-01              OVMax= 4.19D-01

 Cycle   2  Pass 1  IDiag  1:
 E= -876.251129430796     Delta-E=       -0.057791845095 Rises=F Damp=T
 DIIS: error= 1.56D-02 at cycle   2 NSaved=   2.
 NSaved= 2 IEnMin= 2 EnMin= -876.251129430796     IErMin= 2 ErrMin= 1.56D-02
 ErrMax= 1.56D-02  0.00D+00 EMaxC= 1.00D-01 BMatC= 3.91D-02 BMatP= 3.18D-01
 IDIUse=3 WtCom= 8.44D-01 WtEn= 1.56D-01
 Coeff-Com: -0.727D-01 0.107D+01
 Coeff-En:   0.318D+00 0.682D+00
 Coeff:     -0.118D-01 0.101D+01
 Gap=     0.197 Goal=   None    Shift=    0.000
 RMSDP=1.25D-03 MaxDP=5.47D-02 DE=-5.78D-02 OVMax= 3.67D-01

 Cycle   3  Pass 1  IDiag  1:
 E= -876.408910761669     Delta-E=       -0.157781330872 Rises=F Damp=F
 DIIS: error= 9.34D-03 at cycle   3 NSaved=   3.
 NSaved= 3 IEnMin= 3 EnMin= -876.408910761669     IErMin= 3 ErrMin= 9.34D-03
 ErrMax= 9.34D-03  0.00D+00 EMaxC= 1.00D-01 BMatC= 4.22D-02 BMatP= 3.91D-02
 IDIUse=3 WtCom= 9.07D-01 WtEn= 9.34D-02
 Coeff-Com: -0.111D+00 0.607D+00 0.504D+00
 Coeff-En:   0.000D+00 0.000D+00 0.100D+01
 Coeff:     -0.101D+00 0.550D+00 0.551D+00
 Gap=     0.153 Goal=   None    Shift=    0.000
 RMSDP=1.03D-03 MaxDP=3.74D-02 DE=-1.58D-01 OVMax= 7.73D-02

 Cycle   4  Pass 1  IDiag  1:
 E= -876.436209336835     Delta-E=       -0.027298575166 Rises=F Damp=F
 DIIS: error= 4.05D-03 at cycle   4 NSaved=   4.
 NSaved= 4 IEnMin= 4 EnMin= -876.436209336835     IErMin= 4 ErrMin= 4.05D-03
 ErrMax= 4.05D-03  0.00D+00 EMaxC= 1.00D-01 BMatC= 1.40D-02 BMatP= 3.91D-02
 IDIUse=3 WtCom= 9.59D-01 WtEn= 4.05D-02
 Coeff-Com: -0.661D-01 0.189D+00 0.372D+00 0.504D+00
 Coeff-En:   0.000D+00 0.000D+00 0.254D+00 0.746D+00
 Coeff:     -0.634D-01 0.182D+00 0.367D+00 0.514D+00
 Gap=     0.145 Goal=   None    Shift=    0.000
 RMSDP=4.41D-04 MaxDP=1.20D-02 DE=-2.73D-02 OVMax= 2.75D-02

 Cycle   5  Pass 1  IDiag  1:
 E= -876.445543669385     Delta-E=       -0.009334332550 Rises=F Damp=F
 DIIS: error= 2.40D-03 at cycle   5 NSaved=   5.
 NSaved= 5 IEnMin= 5 EnMin= -876.445543669385     IErMin= 5 ErrMin= 2.40D-03
 ErrMax= 2.40D-03  0.00D+00 EMaxC= 1.00D-01 BMatC= 2.66D-03 BMatP= 1.40D-02
 IDIUse=3 WtCom= 9.76D-01 WtEn= 2.40D-02
 Coeff-Com: -0.367D-01 0.647D-01 0.207D+00 0.372D+00 0.393D+00
 Coeff-En:   0.000D+00 0.000D+00 0.000D+00 0.110D+00 0.890D+00
 Coeff:     -0.358D-01 0.631D-01 0.202D+00 0.366D+00 0.405D+00
 Gap=     0.149 Goal=   None    Shift=    0.000
 RMSDP=1.47D-04 MaxDP=4.37D-03 DE=-9.33D-03 OVMax= 1.00D-02

 Cycle   6  Pass 1  IDiag  1:
 E= -876.447357978190     Delta-E=       -0.001814308805 Rises=F Damp=F
 DIIS: error= 5.72D-04 at cycle   6 NSaved=   6.
 NSaved= 6 IEnMin= 6 EnMin= -876.447357978190     IErMin= 6 ErrMin= 5.72D-04
 ErrMax= 5.72D-04  0.00D+00 EMaxC= 1.00D-01 BMatC= 1.60D-04 BMatP= 2.66D-03
 IDIUse=3 WtCom= 9.94D-01 WtEn= 5.72D-03
 Coeff-Com: -0.152D-01 0.193D-01 0.697D-01 0.137D+00 0.241D+00 0.548D+00
 Coeff-En:   0.000D+00 0.000D+00 0.000D+00 0.000D+00 0.316D-01 0.968D+00
 Coeff:     -0.151D-01 0.192D-01 0.693D-01 0.136D+00 0.240D+00 0.550D+00
 Gap=     0.149 Goal=   None    Shift=    0.000
 RMSDP=5.84D-05 MaxDP=2.02D-03 DE=-1.81D-03 OVMax= 2.53D-03

 Cycle   7  Pass 1  IDiag  1:
 E= -876.447469061238     Delta-E=       -0.000111083048 Rises=F Damp=F
 DIIS: error= 1.61D-04 at cycle   7 NSaved=   7.
 NSaved= 7 IEnMin= 7 EnMin= -876.447469061238     IErMin= 7 ErrMin= 1.61D-04
 ErrMax= 1.61D-04  0.00D+00 EMaxC= 1.00D-01 BMatC= 1.33D-05 BMatP= 1.60D-04
 IDIUse=3 WtCom= 9.98D-01 WtEn= 1.61D-03
 Coeff-Com: -0.517D-02 0.473D-02 0.107D-01 0.242D-01 0.807D-01 0.284D+00
 Coeff-Com:  0.600D+00
 Coeff-En:   0.000D+00 0.000D+00 0.000D+00 0.000D+00 0.000D+00 0.676D-03
 Coeff-En:   0.999D+00
 Coeff:     -0.516D-02 0.472D-02 0.107D-01 0.242D-01 0.806D-01 0.284D+00
 Coeff:      0.601D+00
 Gap=     0.149 Goal=   None    Shift=    0.000
 RMSDP=1.49D-05 MaxDP=6.46D-04 DE=-1.11D-04 OVMax= 8.39D-04

 Cycle   8  Pass 1  IDiag  1:
 E= -876.447479943599     Delta-E=       -0.000010882361 Rises=F Damp=F
 DIIS: error= 7.45D-05 at cycle   8 NSaved=   8.
 NSaved= 8 IEnMin= 8 EnMin= -876.447479943599     IErMin= 8 ErrMin= 7.45D-05
 ErrMax= 7.45D-05  0.00D+00 EMaxC= 1.00D-01 BMatC= 2.21D-06 BMatP= 1.33D-05
 IDIUse=1 WtCom= 1.00D+00 WtEn= 0.00D+00
 Coeff-Com: -0.221D-02 0.176D-02-0.519D-03 0.110D-02 0.261D-01 0.114D+00
 Coeff-Com:  0.354D+00 0.505D+00
 Coeff:     -0.221D-02 0.176D-02-0.519D-03 0.110D-02 0.261D-01 0.114D+00
 Coeff:      0.354D+00 0.505D+00
 Gap=     0.148 Goal=   None    Shift=    0.000
 RMSDP=5.82D-06 MaxDP=2.85D-04 DE=-1.09D-05 OVMax= 3.31D-04

 Cycle   9  Pass 1  IDiag  1:
 E= -876.447481235431     Delta-E=       -0.000001291831 Rises=F Damp=F
 DIIS: error= 4.74D-05 at cycle   9 NSaved=   9.
 NSaved= 9 IEnMin= 9 EnMin= -876.447481235431     IErMin= 9 ErrMin= 4.74D-05
 ErrMax= 4.74D-05  0.00D+00 EMaxC= 1.00D-01 BMatC= 6.11D-07 BMatP= 2.21D-06
 IDIUse=1 WtCom= 1.00D+00 WtEn= 0.00D+00
 Coeff-Com: -0.882D-03 0.722D-03-0.248D-02-0.372D-02 0.419D-02 0.302D-01
 Coeff-Com:  0.151D+00 0.371D+00 0.450D+00
 Coeff:     -0.882D-03 0.722D-03-0.248D-02-0.372D-02 0.419D-02 0.302D-01
 Coeff:      0.151D+00 0.371D+00 0.450D+00
 Gap=     0.148 Goal=   None    Shift=    0.000
 RMSDP=2.03D-06 MaxDP=5.83D-05 DE=-1.29D-06 OVMax= 1.57D-04

 Cycle  10  Pass 1  IDiag  1:
 E= -876.447481652327     Delta-E=       -0.000000416897 Rises=F Damp=F
 DIIS: error= 9.17D-06 at cycle  10 NSaved=  10.
 NSaved=10 IEnMin=10 EnMin= -876.447481652327     IErMin=10 ErrMin= 9.17D-06
 ErrMax= 9.17D-06  0.00D+00 EMaxC= 1.00D-01 BMatC= 2.34D-08 BMatP= 6.11D-07
 IDIUse=1 WtCom= 1.00D+00 WtEn= 0.00D+00
 Coeff-Com: -0.271D-03 0.322D-03-0.869D-03-0.135D-02-0.823D-03 0.919D-03
 Coeff-Com:  0.239D-01 0.945D-01 0.195D+00 0.688D+00
 Coeff:     -0.271D-03 0.322D-03-0.869D-03-0.135D-02-0.823D-03 0.919D-03
 Coeff:      0.239D-01 0.945D-01 0.195D+00 0.688D+00
 Gap=     0.148 Goal=   None    Shift=    0.000
 RMSDP=1.04D-06 MaxDP=7.16D-05 DE=-4.17D-07 OVMax= 3.17D-05

 Cycle  11  Pass 1  IDiag  1:
 E= -876.447481670090     Delta-E=       -0.000000017762 Rises=F Damp=F
 DIIS: error= 2.62D-06 at cycle  11 NSaved=  11.
 NSaved=11 IEnMin=11 EnMin= -876.447481670090     IErMin=11 ErrMin= 2.62D-06
 ErrMax= 2.62D-06  0.00D+00 EMaxC= 1.00D-01 BMatC= 1.73D-09 BMatP= 2.34D-08
 IDIUse=1 WtCom= 1.00D+00 WtEn= 0.00D+00
 Coeff-Com: -0.415D-04 0.654D-04-0.340D-03-0.554D-03-0.105D-02-0.238D-02
 Coeff-Com: -0.201D-02 0.869D-02 0.435D-01 0.260D+00 0.694D+00
 Coeff:     -0.415D-04 0.654D-04-0.340D-03-0.554D-03-0.105D-02-0.238D-02
 Coeff:     -0.201D-02 0.869D-02 0.435D-01 0.260D+00 0.694D+00
 Gap=     0.148 Goal=   None    Shift=    0.000
 RMSDP=2.81D-07 MaxDP=1.61D-05 DE=-1.78D-08 OVMax= 1.05D-05

 Cycle  12  Pass 1  IDiag  1:
 E= -876.447481671725     Delta-E=       -0.000000001635 Rises=F Damp=F
 DIIS: error= 4.83D-07 at cycle  12 NSaved=  12.
 NSaved=12 IEnMin=12 EnMin= -876.447481671725     IErMin=12 ErrMin= 4.83D-07
 ErrMax= 4.83D-07  0.00D+00 EMaxC= 1.00D-01 BMatC= 7.73D-11 BMatP= 1.73D-09
 IDIUse=1 WtCom= 1.00D+00 WtEn= 0.00D+00
 Coeff-Com: -0.847D-06 0.737D-05-0.412D-04-0.665D-04-0.298D-03-0.795D-03
 Coeff-Com: -0.273D-02-0.460D-02 0.466D-03 0.478D-01 0.268D+00 0.692D+00
 Coeff:     -0.847D-06 0.737D-05-0.412D-04-0.665D-04-0.298D-03-0.795D-03
 Coeff:     -0.273D-02-0.460D-02 0.466D-03 0.478D-01 0.268D+00 0.692D+00
 Gap=     0.148 Goal=   None    Shift=    0.000
 RMSDP=6.42D-08 MaxDP=2.06D-06 DE=-1.64D-09 OVMax= 3.13D-06

 Cycle  13  Pass 1  IDiag  1:
 E= -876.447481671800     Delta-E=       -0.000000000075 Rises=F Damp=F
 DIIS: error= 8.46D-08 at cycle  13 NSaved=  13.
 NSaved=13 IEnMin=13 EnMin= -876.447481671800     IErMin=13 ErrMin= 8.46D-08
 ErrMax= 8.46D-08  0.00D+00 EMaxC= 1.00D-01 BMatC= 3.09D-12 BMatP= 7.73D-11
 IDIUse=1 WtCom= 1.00D+00 WtEn= 0.00D+00
 Coeff-Com:  0.246D-05-0.226D-05-0.301D-06-0.193D-05-0.421D-04-0.106D-03
 Coeff-Com: -0.619D-03-0.147D-02-0.213D-02 0.589D-03 0.343D-01 0.217D+00
 Coeff-Com:  0.753D+00
 Coeff:      0.246D-05-0.226D-05-0.301D-06-0.193D-05-0.421D-04-0.106D-03
 Coeff:     -0.619D-03-0.147D-02-0.213D-02 0.589D-03 0.343D-01 0.217D+00
 Coeff:      0.753D+00
 Gap=     0.148 Goal=   None    Shift=    0.000
 RMSDP=2.04D-08 MaxDP=1.52D-06 DE=-7.48D-11 OVMax= 5.76D-07

 Cycle  14  Pass 1  IDiag  1:
 E= -876.447481671799     Delta-E=        0.000000000001 Rises=F Damp=F
 DIIS: error= 2.13D-08 at cycle  14 NSaved=  14.
 NSaved=14 IEnMin=13 EnMin= -876.447481671800     IErMin=14 ErrMin= 2.13D-08
 ErrMax= 2.13D-08  0.00D+00 EMaxC= 1.00D-01 BMatC= 2.14D-13 BMatP= 3.09D-12
 IDIUse=1 WtCom= 1.00D+00 WtEn= 0.00D+00
 Coeff-Com:  0.960D-06-0.127D-05 0.304D-05 0.410D-05 0.514D-05 0.469D-05
 Coeff-Com: -0.413D-04-0.216D-03-0.585D-03-0.217D-02-0.266D-02 0.256D-01
 Coeff-Com:  0.210D+00 0.770D+00
 Coeff:      0.960D-06-0.127D-05 0.304D-05 0.410D-05 0.514D-05 0.469D-05
 Coeff:     -0.413D-04-0.216D-03-0.585D-03-0.217D-02-0.266D-02 0.256D-01
 Coeff:      0.210D+00 0.770D+00
 Gap=     0.148 Goal=   None    Shift=    0.000
 RMSDP=4.96D-09 MaxDP=3.11D-07 DE= 1.14D-12 OVMax= 1.31D-07

 SCF Done:  E(RB3LYP) =  -876.447481672     A.U. after   14 cycles
            NFock= 14  Conv=0.50D-08     -V/T= 2.0043
 KE= 8.727349682729D+02 PE=-2.768832591596D+03 EE= 6.744497783887D+02
 Leave Link  502 at Thu Jun 13 12:24:02 2024, MaxMem=  1073741824 cpu:       136.1
 (Enter /apps/z_install_tree/linux-rocky8-ivybridge/gcc-12.2.0/gaussian-09-D.01-wczn3gur5lpur3omlkzwa2l5ecyxp5ef/g09/l508.exe)
 QCSCF skips out because SCF is already converged.
 Leave Link  508 at Thu Jun 13 12:24:02 2024, MaxMem=  1073741824 cpu:         0.0
 (Enter /apps/z_install_tree/linux-rocky8-ivybridge/gcc-12.2.0/gaussian-09-D.01-wczn3gur5lpur3omlkzwa2l5ecyxp5ef/g09/l601.exe)
 Copying SCF densities to generalized density rwf, IOpCl= 0 IROHF=0.

 **********************************************************************

            Population analysis using the SCF density.

 **********************************************************************

 Alpha  occ. eigenvalues -- -101.57726 -24.72681 -24.71898 -24.71470 -10.50650
 Alpha  occ. eigenvalues --  -10.28901 -10.28168  -9.49040  -7.25531  -7.24525
 Alpha  occ. eigenvalues --   -7.24494  -1.19227  -1.17133  -1.16099  -0.90189
 Alpha  occ. eigenvalues --   -0.84533  -0.71876  -0.64309  -0.56286  -0.53028
 Alpha  occ. eigenvalues --   -0.51815  -0.50325  -0.46023  -0.44645  -0.44061
 Alpha  occ. eigenvalues --   -0.43777  -0.43044  -0.42315  -0.42163  -0.42135
 Alpha  occ. eigenvalues --   -0.41876  -0.33959  -0.33496
 Alpha virt. eigenvalues --   -0.18649  -0.11660  -0.10048  -0.03578  -0.01053
 Alpha virt. eigenvalues --    0.01441   0.01857   0.03843   0.04852   0.05841
 Alpha virt. eigenvalues --    0.06635   0.07370   0.07685   0.08805   0.10221
 Alpha virt. eigenvalues --    0.10591   0.10731   0.12577   0.14194   0.15169
 Alpha virt. eigenvalues --    0.16648   0.17145   0.18223   0.19632   0.20092
 Alpha virt. eigenvalues --    0.22550   0.24557   0.25823   0.26977   0.28427
 Alpha virt. eigenvalues --    0.30017   0.31433   0.33392   0.34103   0.35162
 Alpha virt. eigenvalues --    0.35740   0.36507   0.36692   0.37663   0.39424
 Alpha virt. eigenvalues --    0.39681   0.41067   0.42508   0.43308   0.43716
 Alpha virt. eigenvalues --    0.44566   0.46017   0.47802   0.48372   0.49705
 Alpha virt. eigenvalues --    0.50979   0.54182   0.55371   0.56597   0.59452
 Alpha virt. eigenvalues --    0.60266   0.61538   0.64559   0.70094   0.72507
 Alpha virt. eigenvalues --    0.72755   0.74724   0.76734   0.83759   0.87391
 Alpha virt. eigenvalues --    0.89811   0.92752   0.93377   0.97208   1.00886
 Alpha virt. eigenvalues --    1.03449   1.06463   1.08776   1.10569   1.13849
 Alpha virt. eigenvalues --    1.14541   1.17434   1.18509   1.21570   1.24188
 Alpha virt. eigenvalues --    1.27934   1.28946   1.31820   1.33678   1.34376
 Alpha virt. eigenvalues --    1.34904   1.37848   1.38114   1.40003   1.40752
 Alpha virt. eigenvalues --    1.41995   1.42979   1.44013   1.45949   1.47279
 Alpha virt. eigenvalues --    1.49885   1.50675   1.53067   1.55188   1.85086
 Alpha virt. eigenvalues --    1.88771   1.93549   1.97686   1.99573   2.00516
 Alpha virt. eigenvalues --    2.01013   2.04933   2.05056   2.06554   2.13937
 Alpha virt. eigenvalues --    2.16549   2.22324   2.23728   2.25443   2.27316
 Alpha virt. eigenvalues --    2.27459   2.29704   2.31908   2.34667   2.37681
 Alpha virt. eigenvalues --    2.40931   2.42421   2.48397   2.49240   2.60008
 Alpha virt. eigenvalues --    2.66546   2.72876   2.79289   2.83371   2.88549
 Alpha virt. eigenvalues --    2.92973   3.13658   3.18809   3.20749   3.24412
 Alpha virt. eigenvalues --    3.27688   3.28372   3.30883   3.34975   3.41662
 Alpha virt. eigenvalues --    3.42640   3.43957   3.46622   3.47963   3.52260
 Alpha virt. eigenvalues --    3.55613   3.56332   3.57823   3.62629   3.67696
 Alpha virt. eigenvalues --    3.70061   3.83492   3.87111   3.91364   3.98688
 Alpha virt. eigenvalues --    4.01174   4.03955   4.08726   4.09470   4.16212
 Alpha virt. eigenvalues --    4.22077   4.57804   4.69795   4.96446   5.03282
 Alpha virt. eigenvalues --    6.26953   6.30259   6.31314   6.32765   6.35264
 Alpha virt. eigenvalues --    6.38675   6.40032   6.42546   6.43160   8.99746
 Alpha virt. eigenvalues --    9.00834   9.01649   9.02087   9.02305   9.03886
 Alpha virt. eigenvalues --    9.05458   9.09304   9.11691   9.17034   9.21534
 Alpha virt. eigenvalues --    9.24719   9.30161   9.40506   9.42432   9.75108
 Alpha virt. eigenvalues --   23.30273  23.75568  23.79925  25.90933  25.92033
 Alpha virt. eigenvalues --   27.03443  66.73703  66.74167  66.76045 215.74912
          Condensed to atoms (all electrons):
               1          2          3          4          5          6
     1  C    5.702891  -0.127856  -0.316734  -0.006042  -0.067610   0.009794
     2  C   -0.127856   5.074552   0.173338   0.210363   0.243669   0.234512
     3  C   -0.316734   0.173338   5.423817  -0.019316   0.012945  -0.041457
     4  F   -0.006042   0.210363  -0.019316   9.063411  -0.011855  -0.011124
     5  F   -0.067610   0.243669   0.012945  -0.011855   9.058682  -0.015691
     6  F    0.009794   0.234512  -0.041457  -0.011124  -0.015691   9.035980
     7  Cl   0.050509  -0.016452   0.249808   0.004223   0.000875   0.001508
     8  H    0.373551  -0.016478  -0.008755  -0.005756  -0.000929   0.002479
     9  H    0.394696  -0.013749  -0.013990   0.001595  -0.000505  -0.006886
    10  H   -0.055120   0.005890   0.425053  -0.001110  -0.000078   0.003592
    11  H   -0.036020   0.002936   0.427729   0.002098  -0.000069  -0.000079
               7          8          9         10         11
     1  C    0.050509   0.373551   0.394696  -0.055120  -0.036020
     2  C   -0.016452  -0.016478  -0.013749   0.005890   0.002936
     3  C    0.249808  -0.008755  -0.013990   0.425053   0.427729
     4  F    0.004223  -0.005756   0.001595  -0.001110   0.002098
     5  F    0.000875  -0.000929  -0.000505  -0.000078  -0.000069
     6  F    0.001508   0.002479  -0.006886   0.003592  -0.000079
     7  Cl  16.778204  -0.008207  -0.005689  -0.048779  -0.049760
     8  H   -0.008207   0.520664  -0.016823   0.005689  -0.007861
     9  H   -0.005689  -0.016823   0.507472  -0.005263   0.004246
    10  H   -0.048779   0.005689  -0.005263   0.545776  -0.025656
    11  H   -0.049760  -0.007861   0.004246  -0.025656   0.529748
 Mulliken charges:
               1
     1  C    0.077941
     2  C    0.229276
     3  C   -0.312439
     4  F   -0.226488
     5  F   -0.219436
     6  F   -0.212629
     7  Cl   0.043759
     8  H    0.162426
     9  H    0.154897
    10  H    0.150006
    11  H    0.152689
 Sum of Mulliken charges =   0.00000
 Mulliken charges with hydrogens summed into heavy atoms:
               1
     1  C    0.395263
     2  C    0.229276
     3  C   -0.009745
     4  F   -0.226488
     5  F   -0.219436
     6  F   -0.212629
     7  Cl   0.043759
 Electronic spatial extent (au):  <R**2>=        1147506.3528
 Charge=              0.0000 electrons
 Dipole moment (field-independent basis, Debye):
    X=              0.6893    Y=             -0.4115    Z=             -2.7552  Tot=              2.8698
 Quadrupole moment (field-independent basis, Debye-Ang):
   XX=             20.3332   YY=            -78.2713   ZZ=           -235.7777
   XY=              4.0654   XZ=           -113.7687   YZ=           -112.7571
 Traceless Quadrupole moment (field-independent basis, Debye-Ang):
   XX=            118.2385   YY=             19.6340   ZZ=           -137.8725
   XY=              4.0654   XZ=           -113.7687   YZ=           -112.7571
 Octapole moment (field-independent basis, Debye-Ang**2):
  XXX=          -2207.0103  YYY=          -6787.1823  ZZZ=         -14195.8594  XYY=          -3064.7384
  XXY=           -289.6179  XXZ=          -6049.9619  XZZ=         -10995.4073  YZZ=          -8906.9488
  YYZ=          -6114.6037  XYZ=          -4782.3597
 Hexadecapole moment (field-independent basis, Debye-Ang**3):
 XXXX=        -402211.7845 YYYY=        -445777.3840 ZZZZ=        -730646.8534 XXXY=        -128466.5177
 XXXZ=        -401250.3555 YYYX=        -311270.7851 YYYZ=        -348440.6424 ZZZX=        -684569.8953
 ZZZY=        -523092.4150 XXYY=        -172128.8277 XXZZ=        -560517.9461 YYZZ=        -386434.1827
 XXYZ=        -251773.7392 YYXZ=        -276195.5439 ZZXY=        -417113.3936
 N-N= 3.452003632622D+02 E-N=-2.768832593281D+03  KE= 8.727349682729D+02
 No NMR shielding tensors so no spin-rotation constants.
 Leave Link  601 at Thu Jun 13 12:24:03 2024, MaxMem=  1073741824 cpu:         1.8
 (Enter /apps/z_install_tree/linux-rocky8-ivybridge/gcc-12.2.0/gaussian-09-D.01-wczn3gur5lpur3omlkzwa2l5ecyxp5ef/g09/l701.exe)
 Compute integral first derivatives.
 ... and contract with generalized density number  0.
 R6Disp: Adding Grimme-D3 dispersion energy 1st derivatives to the gradient.
 Leave Link  701 at Thu Jun 13 12:24:03 2024, MaxMem=  1073741824 cpu:         1.9
 (Enter /apps/z_install_tree/linux-rocky8-ivybridge/gcc-12.2.0/gaussian-09-D.01-wczn3gur5lpur3omlkzwa2l5ecyxp5ef/g09/l702.exe)
 L702 exits ... SP integral derivatives will be done elsewhere.
 Leave Link  702 at Thu Jun 13 12:24:03 2024, MaxMem=  1073741824 cpu:         0.2
 (Enter /apps/z_install_tree/linux-rocky8-ivybridge/gcc-12.2.0/gaussian-09-D.01-wczn3gur5lpur3omlkzwa2l5ecyxp5ef/g09/l703.exe)
 Compute integral first derivatives, UseDBF=F ICtDFT=           0.
 Integral derivatives from FoFJK, PRISM(SPDF).
 Calling FoFJK, ICntrl=      2127 FMM=F ISym2X=0 I1Cent= 0 IOpClX= 0 NMat=1 NMatS=1 NMatT=0.
 FoFJK:  IHMeth= 1 ICntrl=    2127 DoSepK=F KAlg= 0 I1Cent=   0 FoldK=F
 IRaf=         0 NMat=   1 IRICut=       1 DoRegI=T DoRafI=F ISym2E= 0.
 FoFCou: FMM=F IPFlag=           0 FMFlag=      100000 FMFlg1=         800
         NFxFlg=           0 DoJE=F BraDBF=F KetDBF=F FulRan=T
         wScrn=  0.000000 ICntrl=    2127 IOpCl=  0 I1Cent=           0 NGrid=           0
         NMat0=    1 NMatS0=      1 NMatT0=    0 NMatD0=    1 NMtDS0=    0 NMtDT0=    0
 Symmetry not used in FoFCou.
 Leave Link  703 at Thu Jun 13 12:24:05 2024, MaxMem=  1073741824 cpu:        34.2
 (Enter /apps/z_install_tree/linux-rocky8-ivybridge/gcc-12.2.0/gaussian-09-D.01-wczn3gur5lpur3omlkzwa2l5ecyxp5ef/g09/l716.exe)
 Dipole        = 2.71182440D-01-1.61889419D-01-1.08399188D+00
 -------------------------------------------------------------------
 Center     Atomic                   Forces (Hartrees/Bohr)
 Number     Number              X              Y              Z
 -------------------------------------------------------------------
      1        6           0.013715998    0.028596236   -0.008835859
      2        6          -0.021249163   -0.024199671    0.075356685
      3        6           0.019448302   -0.009387637   -0.001112500
      4        9          -0.031400729   -0.098249018   -0.021455906
      5        9           0.101889995    0.024263063   -0.028402585
      6        9          -0.046887627    0.080433138   -0.059946779
      7       17          -0.010534280    0.000197133    0.014431636
      8        1          -0.014013065   -0.012063278    0.008294159
      9        1          -0.008426867    0.007203464    0.010055483
     10        1          -0.002111065    0.013120638    0.000059080
     11        1          -0.000431499   -0.009914067    0.011556585
 -------------------------------------------------------------------
 Cartesian Forces:  Max     0.101889995 RMS     0.036832014
 Leave Link  716 at Thu Jun 13 12:24:05 2024, MaxMem=  1073741824 cpu:         0.5
 (Enter /apps/z_install_tree/linux-rocky8-ivybridge/gcc-12.2.0/gaussian-09-D.01-wczn3gur5lpur3omlkzwa2l5ecyxp5ef/g09/l103.exe)

 GradGradGradGradGradGradGradGradGradGradGradGradGradGradGradGradGradGrad
 Berny optimization.
 FormGI is forming the generalized inverse of G from B-inverse, IUseBI=4.
 Internal  Forces:  Max     0.110382458 RMS     0.029413383
 Search for a local minimum.
 Step number   1 out of a maximum of   56
 All quantities printed in internal units (Hartrees-Bohrs-Radians)
 RMS Force = .29413D-01 SwitMx=.10000D-02 MixMth= 1
 Mixed Optimization -- RFO/linear search
 Second derivative matrix not updated -- first step.
 ITU=  0
     Eigenvalues ---    0.00230   0.00524   0.03445   0.04981   0.05083
     Eigenvalues ---    0.05558   0.07642   0.08548   0.09132   0.12384
     Eigenvalues ---    0.12793   0.16000   0.16000   0.16636   0.17903
     Eigenvalues ---    0.21734   0.22333   0.22385   0.25000   0.25000
     Eigenvalues ---    0.25000   0.27366   0.30534   0.33938   0.34068
     Eigenvalues ---    0.34083   0.34091
 RFO step:  Lambda=-1.34516401D-01 EMin= 2.30000000D-03
 Linear search not attempted -- first point.
 Maximum step size (   0.300) exceeded in Quadratic search.
    -- Step size scaled by   0.447
 Iteration  1 RMS(Cart)=  0.05332801 RMS(Int)=  0.00040336
 Iteration  2 RMS(Cart)=  0.00058459 RMS(Int)=  0.00015178
 Iteration  3 RMS(Cart)=  0.00000034 RMS(Int)=  0.00015178
 ITry= 1 IFail=0 DXMaxC= 1.81D-01 DCOld= 1.00D+10 DXMaxT= 3.00D-01 DXLimC= 3.00D+00 Rises=F
 Variable       Old X    -DE/DX   Delta X   Delta X   Delta X     New X
                                 (Linear)    (Quad)   (Total)
    R1        2.86911  -0.03751   0.00000  -0.03816  -0.03816   2.83095
    R2        2.93546  -0.00691   0.00000  -0.00757  -0.00757   2.92789
    R3        2.07190  -0.00288   0.00000  -0.00271  -0.00271   2.06919
    R4        2.07435  -0.00757   0.00000  -0.00714  -0.00714   2.06721
    R5        3.46930  -0.10532   0.00000  -0.17956  -0.17956   3.28974
    R6        3.26942  -0.10820   0.00000  -0.16091  -0.16091   3.10852
    R7        3.21660  -0.11038   0.00000  -0.15752  -0.15752   3.05908
    R8        3.52020  -0.01440   0.00000  -0.01831  -0.01831   3.50189
    R9        2.07216  -0.00850   0.00000  -0.00800  -0.00800   2.06416
   R10        2.07178  -0.01063   0.00000  -0.01000  -0.01000   2.06178
    A1        2.01574  -0.01979   0.00000  -0.02350  -0.02340   1.99234
    A2        1.85779  -0.00193   0.00000  -0.00528  -0.00501   1.85278
    A3        1.96102  -0.00276   0.00000  -0.01170  -0.01163   1.94939
    A4        1.73886   0.01804   0.00000   0.03395   0.03384   1.77270
    A5        1.87240   0.01314   0.00000   0.01952   0.01921   1.89161
    A6        2.01085  -0.00584   0.00000  -0.00981  -0.01040   2.00046
    A7        1.98069  -0.00152   0.00000  -0.00447  -0.00444   1.97625
    A8        1.89384   0.01173   0.00000   0.01538   0.01529   1.90913
    A9        1.96216   0.00819   0.00000   0.01029   0.01021   1.97237
   A10        1.93320  -0.00907   0.00000  -0.01238  -0.01236   1.92085
   A11        1.93305  -0.00859   0.00000  -0.01282  -0.01280   1.92025
   A12        1.74675  -0.00043   0.00000   0.00543   0.00522   1.75197
   A13        1.97174  -0.02468   0.00000  -0.02967  -0.02967   1.94207
   A14        1.91420   0.01008   0.00000   0.01441   0.01450   1.92870
   A15        1.99843  -0.00398   0.00000  -0.00828  -0.00833   1.99010
   A16        1.77773   0.00939   0.00000   0.01444   0.01460   1.79233
   A17        1.76988   0.01502   0.00000   0.02039   0.02025   1.79013
   A18        2.01585  -0.00625   0.00000  -0.01100  -0.01098   2.00487
    D1        0.82531   0.00332   0.00000   0.00857   0.00852   0.83383
    D2        2.98217  -0.00071   0.00000   0.00095   0.00083   2.98300
    D3       -1.38560   0.00946   0.00000   0.02120   0.02121  -1.36440
    D4       -1.08598  -0.00775   0.00000  -0.01790  -0.01788  -1.10386
    D5        1.07088  -0.01178   0.00000  -0.02552  -0.02558   1.04531
    D6        2.98629  -0.00161   0.00000  -0.00526  -0.00520   2.98109
    D7        2.98083   0.00300   0.00000   0.00647   0.00652   2.98736
    D8       -1.14549  -0.00103   0.00000  -0.00115  -0.00117  -1.14666
    D9        0.76991   0.00914   0.00000   0.01910   0.01921   0.78913
   D10        3.08596  -0.00094   0.00000  -0.00287  -0.00292   3.08303
   D11        1.11608  -0.00461   0.00000  -0.01255  -0.01248   1.10360
   D12       -1.18275  -0.00163   0.00000  -0.00309  -0.00303  -1.18578
   D13       -1.21602  -0.00027   0.00000   0.00186   0.00154  -1.21448
   D14        3.09729  -0.00394   0.00000  -0.00782  -0.00803   3.08927
   D15        0.79846  -0.00096   0.00000   0.00164   0.00143   0.79989
   D16        0.88449   0.00650   0.00000   0.01395   0.01409   0.89858
   D17       -1.08538   0.00283   0.00000   0.00427   0.00453  -1.08086
   D18        2.89897   0.00581   0.00000   0.01372   0.01399   2.91295
         Item               Value     Threshold  Converged?
 Maximum Force            0.110382     0.000450     NO 
 RMS     Force            0.029413     0.000300     NO 
 Maximum Displacement     0.181093     0.001800     NO 
 RMS     Displacement     0.053281     0.001200     NO 
 Predicted change in Energy=-5.294804D-02
 Lowest energy point so far.  Saving SCF results.
 GradGradGradGradGradGradGradGradGradGradGradGradGradGradGradGradGradGrad

 Leave Link  103 at Thu Jun 13 12:24:06 2024, MaxMem=  1073741824 cpu:         7.7
 (Enter /apps/z_install_tree/linux-rocky8-ivybridge/gcc-12.2.0/gaussian-09-D.01-wczn3gur5lpur3omlkzwa2l5ecyxp5ef/g09/l202.exe)
                          Input orientation:                          
 ---------------------------------------------------------------------
 Center     Atomic      Atomic             Coordinates (Angstroms)
 Number     Number       Type             X           Y           Z
 ---------------------------------------------------------------------
      1          6           0       50.149720   35.316583   31.962073
      2          6           0       50.058815   35.631012   33.423953
      3          6           0       51.500089   35.709429   31.311901
      4          9           0       50.579213   37.246170   33.812568
      5          9           0       48.513721   35.397201   33.937665
      6          9           0       50.840020   34.558741   34.351560
      7         17           0       51.564112   35.195969   29.532487
      8          1           0       49.457138   35.999953   31.459787
      9          1           0       49.967250   34.256250   31.764446
     10          1           0       52.318901   35.138898   31.755945
     11          1           0       51.669021   36.785794   31.254614
 ---------------------------------------------------------------------
                    Distance matrix (angstroms):
                    1          2          3          4          5
     1  C    0.000000
     2  C    1.498073   0.000000
     3  C    1.549371   2.558160   0.000000
     4  F    2.707786   1.740854   3.076187   0.000000
     5  F    2.566312   1.644957   3.988799   2.774994   0.000000
     6  F    2.600094   1.618796   3.316520   2.753327   2.507188
     7  Cl   2.813883   4.195079   1.853120   4.846900   5.361993
     8  H    1.094968   2.087122   2.068798   2.889236   2.719049
     9  H    1.093919   2.156923   2.160121   3.675449   2.852613
    10  H    2.186186   2.851739   1.092307   3.420060   4.393861
    11  H    2.228756   2.938080   1.091045   2.818289   4.368394
                    6          7          8          9         10
     6  F    0.000000
     7  Cl   4.914655   0.000000
     8  H    3.514513   2.966516   0.000000
     9  H    2.747069   2.900806   1.842154   0.000000
    10  H    3.043171   2.348772   3.003134   2.511852   0.000000
    11  H    3.903598   2.346118   2.356282   3.091042   1.840093
                   11
    11  H    0.000000
 Symmetry turned off by external request.
 Stoichiometry    C3H4ClF3
 Framework group  C1[X(C3H4ClF3)]
 Deg. of freedom    27
 Full point group                 C1      NOp   1
 Rotational constants (GHZ):      3.3996140      0.8288414      0.8044128
 Leave Link  202 at Thu Jun 13 12:24:07 2024, MaxMem=  1073741824 cpu:         0.9
 (Enter /apps/z_install_tree/linux-rocky8-ivybridge/gcc-12.2.0/gaussian-09-D.01-wczn3gur5lpur3omlkzwa2l5ecyxp5ef/g09/l301.exe)
 Basis read from rwf:  (5D, 7F)
 No pseudopotential information found on rwf file.
   233 basis functions,   355 primitive gaussians,   247 cartesian basis functions
    33 alpha electrons       33 beta electrons
       nuclear repulsion energy       354.5486673086 Hartrees.
 IExCor=  402 DFT=T Ex+Corr=B3LYP ExCW=0 ScaHFX=  0.200000
 ScaDFX=  0.800000  0.720000  1.000000  0.810000 ScalE2=  1.000000  1.000000
 IRadAn=      5 IRanWt=     -1 IRanGd=            0 ICorTp=0 IEmpDi=131
 NAtoms=   11 NActive=   11 NUniq=   11 SFac= 1.00D+00 NAtFMM=   60 NAOKFM=F Big=F
 Integral buffers will be    131072 words long.
 Raffenetti 2 integral format.
 Two-electron integral symmetry is turned off.
 R6Disp:  Grimme-D3 Dispersion energy=       -0.0082877111 Hartrees.
 Nuclear repulsion after empirical dispersion term =      354.5403795974 Hartrees.
 No density basis found on file   724.
 Leave Link  301 at Thu Jun 13 12:24:07 2024, MaxMem=  1073741824 cpu:         1.0
 (Enter /apps/z_install_tree/linux-rocky8-ivybridge/gcc-12.2.0/gaussian-09-D.01-wczn3gur5lpur3omlkzwa2l5ecyxp5ef/g09/l302.exe)
 NPDir=0 NMtPBC=     1 NCelOv=     1 NCel=       1 NClECP=     1 NCelD=      1
         NCelK=      1 NCelE2=     1 NClLst=     1 CellRange=     0.0.
 One-electron integrals computed using PRISM.
 NBasis=   233 RedAO= T EigKep=  2.72D-05  NBF=   233
 NBsUse=   233 1.00D-06 EigRej= -1.00D+00 NBFU=   233
 Precomputing XC quadrature grid using
 IXCGrd= 4 IRadAn=           5 IRanWt=          -1 IRanGd=           0 AccXCQ= 0.00D+00.
 Generated NRdTot=       0 NPtTot=           0 NUsed=           0 NTot=          32
 NSgBfM=   247   247   247   247   247 MxSgAt=    11 MxSgA2=    11.
 Leave Link  302 at Thu Jun 13 12:24:07 2024, MaxMem=  1073741824 cpu:         2.9
 (Enter /apps/z_install_tree/linux-rocky8-ivybridge/gcc-12.2.0/gaussian-09-D.01-wczn3gur5lpur3omlkzwa2l5ecyxp5ef/g09/l303.exe)
 DipDrv:  MaxL=1.
 Leave Link  303 at Thu Jun 13 12:24:08 2024, MaxMem=  1073741824 cpu:         4.1
 (Enter /apps/z_install_tree/linux-rocky8-ivybridge/gcc-12.2.0/gaussian-09-D.01-wczn3gur5lpur3omlkzwa2l5ecyxp5ef/g09/l401.exe)
 Initial guess from the checkpoint file:  "chlorotrifluoropropane.chk"
 B after Tr=    -0.130732   -0.098427    0.306845
         Rot=    0.999999    0.000799   -0.001111    0.000001 Ang=   0.16 deg.
 Guess basis will be translated and rotated to current coordinates.
 JPrj=2 DoOrth=T DoCkMO=T.
 Generating alternative initial guess.
 ExpMin= 4.38D-02 ExpMax= 1.06D+05 ExpMxC= 3.62D+03 IAcc=2 IRadAn=         4 AccDes= 0.00D+00
 Harris functional with IExCor=  402 and IRadAn=       4 diagonalized for initial guess.
 HarFok:  IExCor=  402 AccDes= 0.00D+00 IRadAn=         4 IDoV= 1 UseB2=F ITyADJ=14
 ICtDFT=  3500011 ScaDFX=  1.000000  1.000000  1.000000  1.000000
 FoFCou: FMM=F IPFlag=           0 FMFlag=      100000 FMFlg1=           0
         NFxFlg=           0 DoJE=T BraDBF=F KetDBF=T FulRan=T
         wScrn=  0.000000 ICntrl=     500 IOpCl=  0 I1Cent=   200000004 NGrid=           0
         NMat0=    1 NMatS0=      1 NMatT0=    0 NMatD0=    1 NMtDS0=    0 NMtDT0=    0
 Symmetry not used in FoFCou.
 Harris En= -876.486677214752    
 Leave Link  401 at Thu Jun 13 12:24:09 2024, MaxMem=  1073741824 cpu:        14.0
 (Enter /apps/z_install_tree/linux-rocky8-ivybridge/gcc-12.2.0/gaussian-09-D.01-wczn3gur5lpur3omlkzwa2l5ecyxp5ef/g09/l502.exe)
 Closed shell SCF:
 Using DIIS extrapolation, IDIIS=  1040.
 Two-electron integral symmetry not used.
 Keep R1 ints in memory in canonical form, NReq=379421756.
 IVT=      200693 IEndB=      200693 NGot=  1073741824 MDV=   701946441
 LenX=   701946441 LenY=   701884991
 Requested convergence on RMS density matrix=1.00D-08 within  96 cycles.
 Requested convergence on MAX density matrix=1.00D-06.
 Requested convergence on             energy=1.00D-06.
 No special actions if energy rises.
 FoFCou: FMM=F IPFlag=           0 FMFlag=           0 FMFlg1=           0
         NFxFlg=           0 DoJE=F BraDBF=F KetDBF=F FulRan=T
         wScrn=  0.000000 ICntrl=     600 IOpCl=  0 I1Cent=           0 NGrid=           0
         NMat0=    1 NMatS0=  27261 NMatT0=    0 NMatD0=    1 NMtDS0=    0 NMtDT0=    0
 Symmetry not used in FoFCou.

 Cycle   1  Pass 1  IDiag  1:
 E= -876.502839305906    
 DIIS: error= 2.13D-03 at cycle   1 NSaved=   1.
 NSaved= 1 IEnMin= 1 EnMin= -876.502839305906     IErMin= 1 ErrMin= 2.13D-03
 ErrMax= 2.13D-03  0.00D+00 EMaxC= 1.00D-01 BMatC= 3.11D-03 BMatP= 3.11D-03
 IDIUse=3 WtCom= 9.79D-01 WtEn= 2.13D-02
 Coeff-Com:  0.100D+01
 Coeff-En:   0.100D+01
 Coeff:      0.100D+01
 Gap=     0.521 Goal=   None    Shift=    0.000
 GapD=    0.521 DampG=2.000 DampE=1.000 DampFc=2.0000 IDamp=-1.
 RMSDP=5.73D-04 MaxDP=2.23D-02              OVMax= 2.33D-02

 Cycle   2  Pass 1  IDiag  1:
 E= -876.506500087118     Delta-E=       -0.003660781211 Rises=F Damp=F
 DIIS: error= 2.23D-03 at cycle   2 NSaved=   2.
 NSaved= 2 IEnMin= 2 EnMin= -876.506500087118     IErMin= 1 ErrMin= 2.13D-03
 ErrMax= 2.23D-03  0.00D+00 EMaxC= 1.00D-01 BMatC= 5.97D-04 BMatP= 3.11D-03
 IDIUse=3 WtCom= 9.78D-01 WtEn= 2.23D-02
 Coeff-Com:  0.178D+00 0.822D+00
 Coeff-En:   0.000D+00 0.100D+01
 Coeff:      0.174D+00 0.826D+00
 Gap=     0.190 Goal=   None    Shift=    0.000
 RMSDP=1.21D-04 MaxDP=3.93D-03 DE=-3.66D-03 OVMax= 1.05D-02

 Cycle   3  Pass 1  IDiag  1:
 E= -876.505818400180     Delta-E=        0.000681686938 Rises=F Damp=F
 DIIS: error= 3.28D-03 at cycle   3 NSaved=   3.
 NSaved= 3 IEnMin= 2 EnMin= -876.506500087118     IErMin= 1 ErrMin= 2.13D-03
 ErrMax= 3.28D-03  0.00D+00 EMaxC= 1.00D-01 BMatC= 1.59D-03 BMatP= 5.97D-04
 IDIUse=3 WtCom= 1.49D-01 WtEn= 8.51D-01
 Coeff-Com:  0.171D-02 0.622D+00 0.376D+00
 Coeff-En:   0.000D+00 0.690D+00 0.310D+00
 Coeff:      0.254D-03 0.680D+00 0.320D+00
 Gap=     0.190 Goal=   None    Shift=    0.000
 RMSDP=8.73D-05 MaxDP=5.26D-03 DE= 6.82D-04 OVMax= 6.63D-03

 Cycle   4  Pass 1  IDiag  1:
 E= -876.506859186987     Delta-E=       -0.001040786807 Rises=F Damp=F
 DIIS: error= 5.86D-04 at cycle   4 NSaved=   4.
 NSaved= 4 IEnMin= 4 EnMin= -876.506859186987     IErMin= 4 ErrMin= 5.86D-04
 ErrMax= 5.86D-04  0.00D+00 EMaxC= 1.00D-01 BMatC= 3.69D-05 BMatP= 5.97D-04
 IDIUse=3 WtCom= 9.94D-01 WtEn= 5.86D-03
 Coeff-Com: -0.144D-01 0.271D+00 0.789D-01 0.664D+00
 Coeff-En:   0.000D+00 0.000D+00 0.000D+00 0.100D+01
 Coeff:     -0.143D-01 0.270D+00 0.784D-01 0.666D+00
 Gap=     0.190 Goal=   None    Shift=    0.000
 RMSDP=1.98D-05 MaxDP=9.22D-04 DE=-1.04D-03 OVMax= 7.53D-04

 Cycle   5  Pass 1  IDiag  1:
 E= -876.506877790204     Delta-E=       -0.000018603217 Rises=F Damp=F
 DIIS: error= 8.23D-05 at cycle   5 NSaved=   5.
 NSaved= 5 IEnMin= 5 EnMin= -876.506877790204     IErMin= 5 ErrMin= 8.23D-05
 ErrMax= 8.23D-05  0.00D+00 EMaxC= 1.00D-01 BMatC= 3.09D-06 BMatP= 3.69D-05
 IDIUse=1 WtCom= 1.00D+00 WtEn= 0.00D+00
 Coeff-Com: -0.747D-02 0.984D-01 0.777D-02 0.383D+00 0.519D+00
 Coeff:     -0.747D-02 0.984D-01 0.777D-02 0.383D+00 0.519D+00
 Gap=     0.190 Goal=   None    Shift=    0.000
 RMSDP=6.29D-06 MaxDP=1.82D-04 DE=-1.86D-05 OVMax= 5.08D-04

 Cycle   6  Pass 1  IDiag  1:
 E= -876.506879437849     Delta-E=       -0.000001647644 Rises=F Damp=F
 DIIS: error= 4.64D-05 at cycle   6 NSaved=   6.
 NSaved= 6 IEnMin= 6 EnMin= -876.506879437849     IErMin= 6 ErrMin= 4.64D-05
 ErrMax= 4.64D-05  0.00D+00 EMaxC= 1.00D-01 BMatC= 9.14D-07 BMatP= 3.09D-06
 IDIUse=1 WtCom= 1.00D+00 WtEn= 0.00D+00
 Coeff-Com: -0.173D-02 0.147D-01-0.118D-01 0.130D+00 0.371D+00 0.498D+00
 Coeff:     -0.173D-02 0.147D-01-0.118D-01 0.130D+00 0.371D+00 0.498D+00
 Gap=     0.190 Goal=   None    Shift=    0.000
 RMSDP=2.66D-06 MaxDP=1.29D-04 DE=-1.65D-06 OVMax= 1.80D-04

 Cycle   7  Pass 1  IDiag  1:
 E= -876.506880054068     Delta-E=       -0.000000616219 Rises=F Damp=F
 DIIS: error= 6.85D-06 at cycle   7 NSaved=   7.
 NSaved= 7 IEnMin= 7 EnMin= -876.506880054068     IErMin= 7 ErrMin= 6.85D-06
 ErrMax= 6.85D-06  0.00D+00 EMaxC= 1.00D-01 BMatC= 2.93D-08 BMatP= 9.14D-07
 IDIUse=1 WtCom= 1.00D+00 WtEn= 0.00D+00
 Coeff-Com: -0.284D-03-0.618D-03-0.480D-02 0.245D-01 0.127D+00 0.233D+00
 Coeff-Com:  0.621D+00
 Coeff:     -0.284D-03-0.618D-03-0.480D-02 0.245D-01 0.127D+00 0.233D+00
 Coeff:      0.621D+00
 Gap=     0.190 Goal=   None    Shift=    0.000
 RMSDP=1.21D-06 MaxDP=4.55D-05 DE=-6.16D-07 OVMax= 5.88D-05

 Cycle   8  Pass 1  IDiag  1:
 E= -876.506880078585     Delta-E=       -0.000000024517 Rises=F Damp=F
 DIIS: error= 3.20D-06 at cycle   8 NSaved=   8.
 NSaved= 8 IEnMin= 8 EnMin= -876.506880078585     IErMin= 8 ErrMin= 3.20D-06
 ErrMax= 3.20D-06  0.00D+00 EMaxC= 1.00D-01 BMatC= 5.57D-09 BMatP= 2.93D-08
 IDIUse=1 WtCom= 1.00D+00 WtEn= 0.00D+00
 Coeff-Com:  0.171D-04-0.221D-02-0.139D-02-0.131D-02 0.344D-01 0.818D-01
 Coeff-Com:  0.364D+00 0.525D+00
 Coeff:      0.171D-04-0.221D-02-0.139D-02-0.131D-02 0.344D-01 0.818D-01
 Coeff:      0.364D+00 0.525D+00
 Gap=     0.190 Goal=   None    Shift=    0.000
 RMSDP=4.25D-07 MaxDP=1.74D-05 DE=-2.45D-08 OVMax= 2.00D-05

 Cycle   9  Pass 1  IDiag  1:
 E= -876.506880083591     Delta-E=       -0.000000005005 Rises=F Damp=F
 DIIS: error= 1.01D-06 at cycle   9 NSaved=   9.
 NSaved= 9 IEnMin= 9 EnMin= -876.506880083591     IErMin= 9 ErrMin= 1.01D-06
 ErrMax= 1.01D-06  0.00D+00 EMaxC= 1.00D-01 BMatC= 3.89D-10 BMatP= 5.57D-09
 IDIUse=1 WtCom= 1.00D+00 WtEn= 0.00D+00
 Coeff-Com:  0.377D-04-0.117D-02-0.329D-03-0.296D-02 0.721D-02 0.225D-01
 Coeff-Com:  0.141D+00 0.275D+00 0.559D+00
 Coeff:      0.377D-04-0.117D-02-0.329D-03-0.296D-02 0.721D-02 0.225D-01
 Coeff:      0.141D+00 0.275D+00 0.559D+00
 Gap=     0.190 Goal=   None    Shift=    0.000
 RMSDP=9.86D-08 MaxDP=4.44D-06 DE=-5.01D-09 OVMax= 4.95D-06

 Cycle  10  Pass 1  IDiag  1:
 E= -876.506880083836     Delta-E=       -0.000000000246 Rises=F Damp=F
 DIIS: error= 6.31D-07 at cycle  10 NSaved=  10.
 NSaved=10 IEnMin=10 EnMin= -876.506880083836     IErMin=10 ErrMin= 6.31D-07
 ErrMax= 6.31D-07  0.00D+00 EMaxC= 1.00D-01 BMatC= 1.04D-10 BMatP= 3.89D-10
 IDIUse=1 WtCom= 1.00D+00 WtEn= 0.00D+00
 Coeff-Com:  0.223D-04-0.413D-03 0.180D-04-0.180D-02-0.109D-02 0.123D-02
 Coeff-Com:  0.354D-01 0.989D-01 0.367D+00 0.501D+00
 Coeff:      0.223D-04-0.413D-03 0.180D-04-0.180D-02-0.109D-02 0.123D-02
 Coeff:      0.354D-01 0.989D-01 0.367D+00 0.501D+00
 Gap=     0.190 Goal=   None    Shift=    0.000
 RMSDP=3.43D-08 MaxDP=9.02D-07 DE=-2.46D-10 OVMax= 2.26D-06

 Cycle  11  Pass 1  IDiag  1:
 E= -876.506880083891     Delta-E=       -0.000000000055 Rises=F Damp=F
 DIIS: error= 1.60D-07 at cycle  11 NSaved=  11.
 NSaved=11 IEnMin=11 EnMin= -876.506880083891     IErMin=11 ErrMin= 1.60D-07
 ErrMax= 1.60D-07  0.00D+00 EMaxC= 1.00D-01 BMatC= 9.88D-12 BMatP= 1.04D-10
 IDIUse=1 WtCom= 1.00D+00 WtEn= 0.00D+00
 Coeff-Com:  0.652D-05-0.498D-04 0.696D-04-0.587D-03-0.208D-02-0.317D-02
 Coeff-Com: -0.229D-02 0.126D-01 0.111D+00 0.282D+00 0.602D+00
 Coeff:      0.652D-05-0.498D-04 0.696D-04-0.587D-03-0.208D-02-0.317D-02
 Coeff:     -0.229D-02 0.126D-01 0.111D+00 0.282D+00 0.602D+00
 Gap=     0.190 Goal=   None    Shift=    0.000
 RMSDP=1.22D-08 MaxDP=5.23D-07 DE=-5.46D-11 OVMax= 6.40D-07

 Cycle  12  Pass 1  IDiag  1:
 E= -876.506880083900     Delta-E=       -0.000000000009 Rises=F Damp=F
 DIIS: error= 2.93D-08 at cycle  12 NSaved=  12.
 NSaved=12 IEnMin=12 EnMin= -876.506880083900     IErMin=12 ErrMin= 2.93D-08
 ErrMax= 2.93D-08  0.00D+00 EMaxC= 1.00D-01 BMatC= 4.87D-13 BMatP= 9.88D-12
 IDIUse=1 WtCom= 1.00D+00 WtEn= 0.00D+00
 Coeff-Com:  0.231D-06 0.229D-04 0.112D-04 0.315D-04-0.498D-03-0.953D-03
 Coeff-Com: -0.366D-02-0.504D-02-0.270D-02 0.475D-01 0.226D+00 0.740D+00
 Coeff:      0.231D-06 0.229D-04 0.112D-04 0.315D-04-0.498D-03-0.953D-03
 Coeff:     -0.366D-02-0.504D-02-0.270D-02 0.475D-01 0.226D+00 0.740D+00
 Gap=     0.190 Goal=   None    Shift=    0.000
 RMSDP=3.93D-09 MaxDP=1.51D-07 DE=-8.64D-12 OVMax= 2.08D-07

 SCF Done:  E(RB3LYP) =  -876.506880084     A.U. after   12 cycles
            NFock= 12  Conv=0.39D-08     -V/T= 2.0041
 KE= 8.729277995936D+02 PE=-2.787695269470D+03 EE= 6.837202101947D+02
 Leave Link  502 at Thu Jun 13 12:24:21 2024, MaxMem=  1073741824 cpu:       122.9
 (Enter /apps/z_install_tree/linux-rocky8-ivybridge/gcc-12.2.0/gaussian-09-D.01-wczn3gur5lpur3omlkzwa2l5ecyxp5ef/g09/l508.exe)
 QCSCF skips out because SCF is already converged.
 Leave Link  508 at Thu Jun 13 12:24:21 2024, MaxMem=  1073741824 cpu:         0.0
 (Enter /apps/z_install_tree/linux-rocky8-ivybridge/gcc-12.2.0/gaussian-09-D.01-wczn3gur5lpur3omlkzwa2l5ecyxp5ef/g09/l701.exe)
 Compute integral first derivatives.
 ... and contract with generalized density number  0.
 R6Disp: Adding Grimme-D3 dispersion energy 1st derivatives to the gradient.
 Leave Link  701 at Thu Jun 13 12:24:22 2024, MaxMem=  1073741824 cpu:         3.8
 (Enter /apps/z_install_tree/linux-rocky8-ivybridge/gcc-12.2.0/gaussian-09-D.01-wczn3gur5lpur3omlkzwa2l5ecyxp5ef/g09/l702.exe)
 L702 exits ... SP integral derivatives will be done elsewhere.
 Leave Link  702 at Thu Jun 13 12:24:22 2024, MaxMem=  1073741824 cpu:         0.4
 (Enter /apps/z_install_tree/linux-rocky8-ivybridge/gcc-12.2.0/gaussian-09-D.01-wczn3gur5lpur3omlkzwa2l5ecyxp5ef/g09/l703.exe)
 Compute integral first derivatives, UseDBF=F ICtDFT=           0.
 Integral derivatives from FoFJK, PRISM(SPDF).
 Calling FoFJK, ICntrl=      2127 FMM=F ISym2X=0 I1Cent= 0 IOpClX= 0 NMat=1 NMatS=1 NMatT=0.
 FoFJK:  IHMeth= 1 ICntrl=    2127 DoSepK=F KAlg= 0 I1Cent=   0 FoldK=F
 IRaf=         0 NMat=   1 IRICut=       1 DoRegI=T DoRafI=F ISym2E= 0.
 FoFCou: FMM=F IPFlag=           0 FMFlag=      100000 FMFlg1=         800
         NFxFlg=           0 DoJE=F BraDBF=F KetDBF=F FulRan=T
         wScrn=  0.000000 ICntrl=    2127 IOpCl=  0 I1Cent=           0 NGrid=           0
         NMat0=    1 NMatS0=      1 NMatT0=    0 NMatD0=    1 NMtDS0=    0 NMtDT0=    0
 Symmetry not used in FoFCou.
 Leave Link  703 at Thu Jun 13 12:24:24 2024, MaxMem=  1073741824 cpu:        33.3
 (Enter /apps/z_install_tree/linux-rocky8-ivybridge/gcc-12.2.0/gaussian-09-D.01-wczn3gur5lpur3omlkzwa2l5ecyxp5ef/g09/l716.exe)
 Dipole        = 2.16202770D-01-1.45975098D-01-8.92571088D-01
 -------------------------------------------------------------------
 Center     Atomic                   Forces (Hartrees/Bohr)
 Number     Number              X              Y              Z
 -------------------------------------------------------------------
      1        6           0.014447649    0.027318440   -0.010163380
      2        6          -0.021378254   -0.016754018    0.088248813
      3        6           0.011772339   -0.010882771   -0.003760465
      4        9          -0.032676873   -0.100492184   -0.020786144
      5        9           0.099073504    0.024148559   -0.029994002
      6        9          -0.044803650    0.078075756   -0.058444410
      7       17          -0.007411577    0.000642284    0.011190141
      8        1          -0.011023013   -0.011247836    0.005501953
      9        1          -0.007033885    0.005527435    0.007475914
     10        1          -0.001108625    0.010325779    0.001098335
     11        1           0.000142384   -0.006661444    0.009633245
 -------------------------------------------------------------------
 Cartesian Forces:  Max     0.100492184 RMS     0.036973335
 Leave Link  716 at Thu Jun 13 12:24:24 2024, MaxMem=  1073741824 cpu:         0.4
 (Enter /apps/z_install_tree/linux-rocky8-ivybridge/gcc-12.2.0/gaussian-09-D.01-wczn3gur5lpur3omlkzwa2l5ecyxp5ef/g09/l103.exe)

 GradGradGradGradGradGradGradGradGradGradGradGradGradGradGradGradGradGrad
 Berny optimization.
 Using GEDIIS/GDIIS optimizer.
 FormGI is forming the generalized inverse of G from B-inverse, IUseBI=4.
 Internal  Forces:  Max     0.107644266 RMS     0.028331047
 Search for a local minimum.
 Step number   2 out of a maximum of   56
 All quantities printed in internal units (Hartrees-Bohrs-Radians)
 RMS Force = .28331D-01 SwitMx=.10000D-02 MixMth= 1
 Mixed Optimization -- RFO/linear search
 Update second derivatives using D2CorX and points    1    2
 DE= -5.94D-02 DEPred=-5.29D-02 R= 1.12D+00
 TightC=F SS=  1.41D+00  RLast= 3.04D-01 DXNew= 5.0454D-01 9.1264D-01
 Trust test= 1.12D+00 RLast= 3.04D-01 DXMaxT set to 5.05D-01
 ITU=  1  0
 Use linear search instead of GDIIS.
 Linear search step of   0.600 exceeds DXMaxT=   0.505 but not scaled.
 Quartic linear search produced a step of  2.00000.
 Iteration  1 RMS(Cart)=  0.07835018 RMS(Int)=  0.03443493
 Iteration  2 RMS(Cart)=  0.03343625 RMS(Int)=  0.00088376
 Iteration  3 RMS(Cart)=  0.00003582 RMS(Int)=  0.00088331
 Iteration  4 RMS(Cart)=  0.00000004 RMS(Int)=  0.00088331
 ITry= 1 IFail=0 DXMaxC= 3.57D-01 DCOld= 1.00D+10 DXMaxT= 5.05D-01 DXLimC= 3.00D+00 Rises=F
 Variable       Old X    -DE/DX   Delta X   Delta X   Delta X     New X
                                 (Linear)    (Quad)   (Total)
    R1        2.83095  -0.02363  -0.07632   0.00000  -0.07632   2.75463
    R2        2.92789  -0.00633  -0.01515   0.00000  -0.01515   2.91274
    R3        2.06919  -0.00257  -0.00542   0.00000  -0.00542   2.06377
    R4        2.06721  -0.00554  -0.01429   0.00000  -0.01429   2.05292
    R5        3.28974  -0.10764  -0.35913   0.00000  -0.35913   2.93061
    R6        3.10852  -0.10586  -0.32181   0.00000  -0.32181   2.78671
    R7        3.05908  -0.10683  -0.31503   0.00000  -0.31503   2.74405
    R8        3.50189  -0.01118  -0.03662   0.00000  -0.03662   3.46526
    R9        2.06416  -0.00578  -0.01600   0.00000  -0.01600   2.04816
   R10        2.06178  -0.00706  -0.02000   0.00000  -0.02000   2.04178
    A1        1.99234  -0.01404  -0.04680   0.00000  -0.04606   1.94628
    A2        1.85278  -0.00052  -0.01002   0.00000  -0.00838   1.84440
    A3        1.94939  -0.00252  -0.02325   0.00000  -0.02274   1.92665
    A4        1.77270   0.01373   0.06768   0.00000   0.06691   1.83961
    A5        1.89161   0.00926   0.03842   0.00000   0.03641   1.92801
    A6        2.00046  -0.00555  -0.02079   0.00000  -0.02414   1.97631
    A7        1.97625  -0.00009  -0.00888   0.00000  -0.00871   1.96754
    A8        1.90913   0.01098   0.03059   0.00000   0.03005   1.93918
    A9        1.97237   0.00737   0.02042   0.00000   0.01989   1.99226
   A10        1.92085  -0.00987  -0.02471   0.00000  -0.02453   1.89632
   A11        1.92025  -0.00939  -0.02560   0.00000  -0.02549   1.89476
   A12        1.75197   0.00085   0.01045   0.00000   0.00922   1.76119
   A13        1.94207  -0.01680  -0.05934   0.00000  -0.05932   1.88275
   A14        1.92870   0.00733   0.02901   0.00000   0.02951   1.95821
   A15        1.99010  -0.00372  -0.01667   0.00000  -0.01697   1.97312
   A16        1.79233   0.00720   0.02921   0.00000   0.03014   1.82247
   A17        1.79013   0.01097   0.04050   0.00000   0.03965   1.82978
   A18        2.00487  -0.00494  -0.02196   0.00000  -0.02182   1.98305
    D1        0.83383   0.00284   0.01704   0.00000   0.01672   0.85055
    D2        2.98300  -0.00184   0.00165   0.00000   0.00095   2.98395
    D3       -1.36440   0.00963   0.04241   0.00000   0.04243  -1.32197
    D4       -1.10386  -0.00652  -0.03577   0.00000  -0.03569  -1.13955
    D5        1.04531  -0.01121  -0.05115   0.00000  -0.05146   0.99384
    D6        2.98109   0.00026  -0.01039   0.00000  -0.00998   2.97111
    D7        2.98736   0.00240   0.01305   0.00000   0.01334   3.00070
    D8       -1.14666  -0.00228  -0.00233   0.00000  -0.00243  -1.14909
    D9        0.78913   0.00919   0.03842   0.00000   0.03905   0.82818
   D10        3.08303  -0.00118  -0.00585   0.00000  -0.00619   3.07685
   D11        1.10360  -0.00456  -0.02497   0.00000  -0.02460   1.07900
   D12       -1.18578  -0.00104  -0.00605   0.00000  -0.00564  -1.19141
   D13       -1.21448   0.00027   0.00307   0.00000   0.00122  -1.21326
   D14        3.08927  -0.00311  -0.01605   0.00000  -0.01719   3.07208
   D15        0.79989   0.00041   0.00287   0.00000   0.00177   0.80167
   D16        0.89858   0.00502   0.02818   0.00000   0.02890   0.92747
   D17       -1.08086   0.00164   0.00905   0.00000   0.01049  -1.07037
   D18        2.91295   0.00516   0.02797   0.00000   0.02944   2.94240
         Item               Value     Threshold  Converged?
 Maximum Force            0.107644     0.000450     NO 
 RMS     Force            0.028331     0.000300     NO 
 Maximum Displacement     0.357372     0.001800     NO 
 RMS     Displacement     0.106213     0.001200     NO 
 Predicted change in Energy=-1.121940D-01
 Lowest energy point so far.  Saving SCF results.
 GradGradGradGradGradGradGradGradGradGradGradGradGradGradGradGradGradGrad

 Leave Link  103 at Thu Jun 13 12:24:25 2024, MaxMem=  1073741824 cpu:         6.9
 (Enter /apps/z_install_tree/linux-rocky8-ivybridge/gcc-12.2.0/gaussian-09-D.01-wczn3gur5lpur3omlkzwa2l5ecyxp5ef/g09/l202.exe)
                          Input orientation:                          
 ---------------------------------------------------------------------
 Center     Atomic      Atomic             Coordinates (Angstroms)
 Number     Number       Type             X           Y           Z
 ---------------------------------------------------------------------
      1          6           0       50.138558   35.321461   31.958172
      2          6           0       50.070008   35.619347   33.383448
      3          6           0       51.505526   35.713792   31.363824
      4          9           0       50.545003   37.057057   33.718691
      5          9           0       48.698967   35.443795   33.897310
      6          9           0       50.799402   34.684352   34.221502
      7         17           0       51.523644   35.196712   29.604591
      8          1           0       49.414024   35.985992   31.482636
      9          1           0       49.935374   34.269038   31.781274
     10          1           0       52.321935   35.162386   31.815643
     11          1           0       51.665560   36.782068   31.339908
 ---------------------------------------------------------------------
                    Distance matrix (angstroms):
                    1          2          3          4          5
     1  C    0.000000
     2  C    1.457685   0.000000
     3  C    1.541354   2.479619   0.000000
     4  F    2.505377   1.550812   2.876171   0.000000
     5  F    2.418190   1.474662   3.790543   2.458123   0.000000
     6  F    2.442393   1.452089   3.118441   2.438701   2.256918
     7  Cl   2.733746   4.070803   1.833739   4.620003   5.144636
     8  H    1.092102   2.043974   2.112484   2.725112   2.576031
     9  H    1.086357   2.099624   2.174156   3.449389   2.717787
    10  H    2.193799   2.781726   1.083841   3.220071   4.187891
    11  H    2.201672   2.841437   1.080462   2.643836   4.139076
                    6          7          8          9         10
     6  F    0.000000
     7  Cl   4.701372   0.000000
     8  H    3.333905   2.932663   0.000000
     9  H    2.621782   2.849759   1.819044   0.000000
    10  H    2.887002   2.350999   3.040587   2.548514   0.000000
    11  H    3.668000   2.354744   2.392389   3.082802   1.811221
                   11
    11  H    0.000000
 Symmetry turned off by external request.
 Stoichiometry    C3H4ClF3
 Framework group  C1[X(C3H4ClF3)]
 Deg. of freedom    27
 Full point group                 C1      NOp   1
 Rotational constants (GHZ):      4.1701037      0.9039862      0.8829558
 Leave Link  202 at Thu Jun 13 12:24:25 2024, MaxMem=  1073741824 cpu:         0.9
 (Enter /apps/z_install_tree/linux-rocky8-ivybridge/gcc-12.2.0/gaussian-09-D.01-wczn3gur5lpur3omlkzwa2l5ecyxp5ef/g09/l301.exe)
 Basis read from rwf:  (5D, 7F)
 No pseudopotential information found on rwf file.
   233 basis functions,   355 primitive gaussians,   247 cartesian basis functions
    33 alpha electrons       33 beta electrons
       nuclear repulsion energy       375.6768400694 Hartrees.
 IExCor=  402 DFT=T Ex+Corr=B3LYP ExCW=0 ScaHFX=  0.200000
 ScaDFX=  0.800000  0.720000  1.000000  0.810000 ScalE2=  1.000000  1.000000
 IRadAn=      5 IRanWt=     -1 IRanGd=            0 ICorTp=0 IEmpDi=131
 NAtoms=   11 NActive=   11 NUniq=   11 SFac= 1.00D+00 NAtFMM=   60 NAOKFM=F Big=F
 Integral buffers will be    131072 words long.
 Raffenetti 2 integral format.
 Two-electron integral symmetry is turned off.
 R6Disp:  Grimme-D3 Dispersion energy=       -0.0084501159 Hartrees.
 Nuclear repulsion after empirical dispersion term =      375.6683899536 Hartrees.
 No density basis found on file   724.
 Leave Link  301 at Thu Jun 13 12:24:25 2024, MaxMem=  1073741824 cpu:         1.3
 (Enter /apps/z_install_tree/linux-rocky8-ivybridge/gcc-12.2.0/gaussian-09-D.01-wczn3gur5lpur3omlkzwa2l5ecyxp5ef/g09/l302.exe)
 NPDir=0 NMtPBC=     1 NCelOv=     1 NCel=       1 NClECP=     1 NCelD=      1
         NCelK=      1 NCelE2=     1 NClLst=     1 CellRange=     0.0.
 One-electron integrals computed using PRISM.
 NBasis=   233 RedAO= T EigKep=  2.30D-05  NBF=   233
 NBsUse=   233 1.00D-06 EigRej= -1.00D+00 NBFU=   233
 Precomputing XC quadrature grid using
 IXCGrd= 4 IRadAn=           5 IRanWt=          -1 IRanGd=           0 AccXCQ= 0.00D+00.
 Generated NRdTot=       0 NPtTot=           0 NUsed=           0 NTot=          32
 NSgBfM=   247   247   247   247   247 MxSgAt=    11 MxSgA2=    11.
 Leave Link  302 at Thu Jun 13 12:24:25 2024, MaxMem=  1073741824 cpu:         3.9
 (Enter /apps/z_install_tree/linux-rocky8-ivybridge/gcc-12.2.0/gaussian-09-D.01-wczn3gur5lpur3omlkzwa2l5ecyxp5ef/g09/l303.exe)
 DipDrv:  MaxL=1.
 Leave Link  303 at Thu Jun 13 12:24:27 2024, MaxMem=  1073741824 cpu:         7.3
 (Enter /apps/z_install_tree/linux-rocky8-ivybridge/gcc-12.2.0/gaussian-09-D.01-wczn3gur5lpur3omlkzwa2l5ecyxp5ef/g09/l401.exe)
 Initial guess from the checkpoint file:  "chlorotrifluoropropane.chk"
 B after Tr=    -0.270124   -0.204316    0.634969
         Rot=    0.999996    0.001644   -0.002299   -0.000006 Ang=   0.32 deg.
 Guess basis will be translated and rotated to current coordinates.
 JPrj=2 DoOrth=T DoCkMO=T.
 Generating alternative initial guess.
 ExpMin= 4.38D-02 ExpMax= 1.06D+05 ExpMxC= 3.62D+03 IAcc=2 IRadAn=         4 AccDes= 0.00D+00
 Harris functional with IExCor=  402 and IRadAn=       4 diagonalized for initial guess.
 HarFok:  IExCor=  402 AccDes= 0.00D+00 IRadAn=         4 IDoV= 1 UseB2=F ITyADJ=14
 ICtDFT=  3500011 ScaDFX=  1.000000  1.000000  1.000000  1.000000
 FoFCou: FMM=F IPFlag=           0 FMFlag=      100000 FMFlg1=           0
         NFxFlg=           0 DoJE=T BraDBF=F KetDBF=T FulRan=T
         wScrn=  0.000000 ICntrl=     500 IOpCl=  0 I1Cent=   200000004 NGrid=           0
         NMat0=    1 NMatS0=      1 NMatT0=    0 NMatD0=    1 NMtDS0=    0 NMtDT0=    0
 Symmetry not used in FoFCou.
 Harris En= -876.553711405314    
 Leave Link  401 at Thu Jun 13 12:24:27 2024, MaxMem=  1073741824 cpu:         5.7
 (Enter /apps/z_install_tree/linux-rocky8-ivybridge/gcc-12.2.0/gaussian-09-D.01-wczn3gur5lpur3omlkzwa2l5ecyxp5ef/g09/l502.exe)
 Closed shell SCF:
 Using DIIS extrapolation, IDIIS=  1040.
 Two-electron integral symmetry not used.
 Keep R1 ints in memory in canonical form, NReq=379421756.
 IVT=      200693 IEndB=      200693 NGot=  1073741824 MDV=   701946441
 LenX=   701946441 LenY=   701884991
 Requested convergence on RMS density matrix=1.00D-08 within  96 cycles.
 Requested convergence on MAX density matrix=1.00D-06.
 Requested convergence on             energy=1.00D-06.
 No special actions if energy rises.
 FoFCou: FMM=F IPFlag=           0 FMFlag=           0 FMFlg1=           0
         NFxFlg=           0 DoJE=F BraDBF=F KetDBF=F FulRan=T
         wScrn=  0.000000 ICntrl=     600 IOpCl=  0 I1Cent=           0 NGrid=           0
         NMat0=    1 NMatS0=  27261 NMatT0=    0 NMatD0=    1 NMtDS0=    0 NMtDT0=    0
 Symmetry not used in FoFCou.

 Cycle   1  Pass 1  IDiag  1:
 E= -876.585927739705    
 DIIS: error= 6.45D-03 at cycle   1 NSaved=   1.
 NSaved= 1 IEnMin= 1 EnMin= -876.585927739705     IErMin= 1 ErrMin= 6.45D-03
 ErrMax= 6.45D-03  0.00D+00 EMaxC= 1.00D-01 BMatC= 2.08D-02 BMatP= 2.08D-02
 IDIUse=3 WtCom= 9.35D-01 WtEn= 6.45D-02
 Coeff-Com:  0.100D+01
 Coeff-En:   0.100D+01
 Coeff:      0.100D+01
 Gap=     0.535 Goal=   None    Shift=    0.000
 GapD=    0.535 DampG=2.000 DampE=1.000 DampFc=2.0000 IDamp=-1.
 RMSDP=1.42D-03 MaxDP=6.21D-02              OVMax= 4.05D-02

 Cycle   2  Pass 1  IDiag  1:
 E= -876.608029698438     Delta-E=       -0.022101958733 Rises=F Damp=F
 DIIS: error= 3.64D-03 at cycle   2 NSaved=   2.
 NSaved= 2 IEnMin= 2 EnMin= -876.608029698438     IErMin= 2 ErrMin= 3.64D-03
 ErrMax= 3.64D-03  0.00D+00 EMaxC= 1.00D-01 BMatC= 1.07D-03 BMatP= 2.08D-02
 IDIUse=3 WtCom= 9.64D-01 WtEn= 3.64D-02
 Coeff-Com:  0.696D-01 0.930D+00
 Coeff-En:   0.000D+00 0.100D+01
 Coeff:      0.671D-01 0.933D+00
 Gap=     0.287 Goal=   None    Shift=    0.000
 RMSDP=1.92D-04 MaxDP=7.75D-03 DE=-2.21D-02 OVMax= 7.26D-03

 Cycle   3  Pass 1  IDiag  1:
 E= -876.608226632113     Delta-E=       -0.000196933675 Rises=F Damp=F
 DIIS: error= 3.88D-03 at cycle   3 NSaved=   3.
 NSaved= 3 IEnMin= 3 EnMin= -876.608226632113     IErMin= 2 ErrMin= 3.64D-03
 ErrMax= 3.88D-03  0.00D+00 EMaxC= 1.00D-01 BMatC= 9.15D-04 BMatP= 1.07D-03
 IDIUse=3 WtCom= 9.61D-01 WtEn= 3.88D-02
 Coeff-Com: -0.919D-02 0.480D+00 0.529D+00
 Coeff-En:   0.000D+00 0.405D+00 0.595D+00
 Coeff:     -0.883D-02 0.477D+00 0.532D+00
 Gap=     0.284 Goal=   None    Shift=    0.000
 RMSDP=7.52D-05 MaxDP=3.12D-03 DE=-1.97D-04 OVMax= 4.08D-03

 Cycle   4  Pass 1  IDiag  1:
 E= -876.608679993078     Delta-E=       -0.000453360964 Rises=F Damp=F
 DIIS: error= 7.95D-04 at cycle   4 NSaved=   4.
 NSaved= 4 IEnMin= 4 EnMin= -876.608679993078     IErMin= 4 ErrMin= 7.95D-04
 ErrMax= 7.95D-04  0.00D+00 EMaxC= 1.00D-01 BMatC= 7.97D-05 BMatP= 9.15D-04
 IDIUse=3 WtCom= 9.92D-01 WtEn= 7.95D-03
 Coeff-Com: -0.125D-01 0.199D+00 0.303D+00 0.510D+00
 Coeff-En:   0.000D+00 0.000D+00 0.000D+00 0.100D+01
 Coeff:     -0.124D-01 0.197D+00 0.301D+00 0.514D+00
 Gap=     0.283 Goal=   None    Shift=    0.000
 RMSDP=3.12D-05 MaxDP=1.45D-03 DE=-4.53D-04 OVMax= 1.99D-03

 Cycle   5  Pass 1  IDiag  1:
 E= -876.608726266184     Delta-E=       -0.000046273106 Rises=F Damp=F
 DIIS: error= 1.60D-04 at cycle   5 NSaved=   5.
 NSaved= 5 IEnMin= 5 EnMin= -876.608726266184     IErMin= 5 ErrMin= 1.60D-04
 ErrMax= 1.60D-04  0.00D+00 EMaxC= 1.00D-01 BMatC= 6.85D-06 BMatP= 7.97D-05
 IDIUse=3 WtCom= 9.98D-01 WtEn= 1.60D-03
 Coeff-Com: -0.277D-02 0.291D-01 0.657D-01 0.269D+00 0.639D+00
 Coeff-En:   0.000D+00 0.000D+00 0.000D+00 0.825D-01 0.918D+00
 Coeff:     -0.277D-02 0.291D-01 0.656D-01 0.269D+00 0.639D+00
 Gap=     0.284 Goal=   None    Shift=    0.000
 RMSDP=9.56D-06 MaxDP=6.10D-04 DE=-4.63D-05 OVMax= 6.04D-04

 Cycle   6  Pass 1  IDiag  1:
 E= -876.608731651640     Delta-E=       -0.000005385457 Rises=F Damp=F
 DIIS: error= 2.94D-05 at cycle   6 NSaved=   6.
 NSaved= 6 IEnMin= 6 EnMin= -876.608731651640     IErMin= 6 ErrMin= 2.94D-05
 ErrMax= 2.94D-05  0.00D+00 EMaxC= 1.00D-01 BMatC= 4.03D-07 BMatP= 6.85D-06
 IDIUse=1 WtCom= 1.00D+00 WtEn= 0.00D+00
 Coeff-Com: -0.639D-03 0.320D-02 0.126D-01 0.929D-01 0.309D+00 0.583D+00
 Coeff:     -0.639D-03 0.320D-02 0.126D-01 0.929D-01 0.309D+00 0.583D+00
 Gap=     0.284 Goal=   None    Shift=    0.000
 RMSDP=3.43D-06 MaxDP=1.66D-04 DE=-5.39D-06 OVMax= 1.54D-04

 Cycle   7  Pass 1  IDiag  1:
 E= -876.608731906176     Delta-E=       -0.000000254535 Rises=F Damp=F
 DIIS: error= 1.38D-05 at cycle   7 NSaved=   7.
 NSaved= 7 IEnMin= 7 EnMin= -876.608731906176     IErMin= 7 ErrMin= 1.38D-05
 ErrMax= 1.38D-05  0.00D+00 EMaxC= 1.00D-01 BMatC= 7.84D-08 BMatP= 4.03D-07
 IDIUse=1 WtCom= 1.00D+00 WtEn= 0.00D+00
 Coeff-Com: -0.886D-04-0.191D-02-0.115D-02 0.204D-01 0.109D+00 0.349D+00
 Coeff-Com:  0.525D+00
 Coeff:     -0.886D-04-0.191D-02-0.115D-02 0.204D-01 0.109D+00 0.349D+00
 Coeff:      0.525D+00
 Gap=     0.284 Goal=   None    Shift=    0.000
 RMSDP=8.09D-07 MaxDP=3.30D-05 DE=-2.55D-07 OVMax= 4.87D-05

 Cycle   8  Pass 1  IDiag  1:
 E= -876.608731956467     Delta-E=       -0.000000050291 Rises=F Damp=F
 DIIS: error= 3.47D-06 at cycle   8 NSaved=   8.
 NSaved= 8 IEnMin= 8 EnMin= -876.608731956467     IErMin= 8 ErrMin= 3.47D-06
 ErrMax= 3.47D-06  0.00D+00 EMaxC= 1.00D-01 BMatC= 4.40D-09 BMatP= 7.84D-08
 IDIUse=1 WtCom= 1.00D+00 WtEn= 0.00D+00
 Coeff-Com:  0.125D-04-0.118D-02-0.157D-02 0.345D-02 0.338D-01 0.130D+00
 Coeff-Com:  0.269D+00 0.566D+00
 Coeff:      0.125D-04-0.118D-02-0.157D-02 0.345D-02 0.338D-01 0.130D+00
 Coeff:      0.269D+00 0.566D+00
 Gap=     0.284 Goal=   None    Shift=    0.000
 RMSDP=5.48D-07 MaxDP=3.25D-05 DE=-5.03D-08 OVMax= 1.61D-05

 Cycle   9  Pass 1  IDiag  1:
 E= -876.608731959709     Delta-E=       -0.000000003242 Rises=F Damp=F
 DIIS: error= 8.91D-07 at cycle   9 NSaved=   9.
 NSaved= 9 IEnMin= 9 EnMin= -876.608731959709     IErMin= 9 ErrMin= 8.91D-07
 ErrMax= 8.91D-07  0.00D+00 EMaxC= 1.00D-01 BMatC= 3.00D-10 BMatP= 4.40D-09
 IDIUse=1 WtCom= 1.00D+00 WtEn= 0.00D+00
 Coeff-Com:  0.120D-04-0.341D-03-0.633D-03-0.826D-03 0.370D-02 0.241D-01
 Coeff-Com:  0.720D-01 0.259D+00 0.643D+00
 Coeff:      0.120D-04-0.341D-03-0.633D-03-0.826D-03 0.370D-02 0.241D-01
 Coeff:      0.720D-01 0.259D+00 0.643D+00
 Gap=     0.284 Goal=   None    Shift=    0.000
 RMSDP=1.01D-07 MaxDP=4.60D-06 DE=-3.24D-09 OVMax= 6.19D-06

 Cycle  10  Pass 1  IDiag  1:
 E= -876.608731959920     Delta-E=       -0.000000000211 Rises=F Damp=F
 DIIS: error= 3.65D-07 at cycle  10 NSaved=  10.
 NSaved=10 IEnMin=10 EnMin= -876.608731959920     IErMin=10 ErrMin= 3.65D-07
 ErrMax= 3.65D-07  0.00D+00 EMaxC= 1.00D-01 BMatC= 4.60D-11 BMatP= 3.00D-10
 IDIUse=1 WtCom= 1.00D+00 WtEn= 0.00D+00
 Coeff-Com:  0.568D-05-0.704D-04-0.196D-03-0.870D-03-0.164D-02-0.981D-04
 Coeff-Com:  0.125D-01 0.876D-01 0.350D+00 0.552D+00
 Coeff:      0.568D-05-0.704D-04-0.196D-03-0.870D-03-0.164D-02-0.981D-04
 Coeff:      0.125D-01 0.876D-01 0.350D+00 0.552D+00
 Gap=     0.284 Goal=   None    Shift=    0.000
 RMSDP=3.18D-08 MaxDP=1.46D-06 DE=-2.11D-10 OVMax= 1.80D-06

 Cycle  11  Pass 1  IDiag  1:
 E= -876.608731959957     Delta-E=       -0.000000000037 Rises=F Damp=F
 DIIS: error= 6.88D-08 at cycle  11 NSaved=  11.
 NSaved=11 IEnMin=11 EnMin= -876.608731959957     IErMin=11 ErrMin= 6.88D-08
 ErrMax= 6.88D-08  0.00D+00 EMaxC= 1.00D-01 BMatC= 2.23D-12 BMatP= 4.60D-11
 IDIUse=1 WtCom= 1.00D+00 WtEn= 0.00D+00
 Coeff-Com:  0.107D-05 0.645D-05-0.501D-05-0.223D-03-0.967D-03-0.212D-02
 Coeff-Com: -0.214D-02 0.769D-02 0.659D-01 0.219D+00 0.713D+00
 Coeff:      0.107D-05 0.645D-05-0.501D-05-0.223D-03-0.967D-03-0.212D-02
 Coeff:     -0.214D-02 0.769D-02 0.659D-01 0.219D+00 0.713D+00
 Gap=     0.284 Goal=   None    Shift=    0.000
 RMSDP=1.17D-08 MaxDP=4.03D-07 DE=-3.68D-11 OVMax= 4.76D-07

 Cycle  12  Pass 1  IDiag  1:
 E= -876.608731959956     Delta-E=        0.000000000001 Rises=F Damp=F
 DIIS: error= 3.50D-08 at cycle  12 NSaved=  12.
 NSaved=12 IEnMin=11 EnMin= -876.608731959957     IErMin=12 ErrMin= 3.50D-08
 ErrMax= 3.50D-08  0.00D+00 EMaxC= 1.00D-01 BMatC= 3.42D-13 BMatP= 2.23D-12
 IDIUse=1 WtCom= 1.00D+00 WtEn= 0.00D+00
 Coeff-Com:  0.232D-06 0.633D-05 0.906D-05-0.530D-04-0.366D-03-0.979D-03
 Coeff-Com: -0.168D-02-0.137D-02 0.119D-01 0.740D-01 0.368D+00 0.550D+00
 Coeff:      0.232D-06 0.633D-05 0.906D-05-0.530D-04-0.366D-03-0.979D-03
 Coeff:     -0.168D-02-0.137D-02 0.119D-01 0.740D-01 0.368D+00 0.550D+00
 Gap=     0.284 Goal=   None    Shift=    0.000
 RMSDP=3.03D-09 MaxDP=1.34D-07 DE= 9.09D-13 OVMax= 1.04D-07

 SCF Done:  E(RB3LYP) =  -876.608731960     A.U. after   12 cycles
            NFock= 12  Conv=0.30D-08     -V/T= 2.0035
 KE= 8.735720759432D+02 PE=-2.830452564461D+03 EE= 7.046033666046D+02
 Leave Link  502 at Thu Jun 13 12:24:39 2024, MaxMem=  1073741824 cpu:       124.4
 (Enter /apps/z_install_tree/linux-rocky8-ivybridge/gcc-12.2.0/gaussian-09-D.01-wczn3gur5lpur3omlkzwa2l5ecyxp5ef/g09/l508.exe)
 QCSCF skips out because SCF is already converged.
 Leave Link  508 at Thu Jun 13 12:24:39 2024, MaxMem=  1073741824 cpu:         0.0
 (Enter /apps/z_install_tree/linux-rocky8-ivybridge/gcc-12.2.0/gaussian-09-D.01-wczn3gur5lpur3omlkzwa2l5ecyxp5ef/g09/l701.exe)
 Compute integral first derivatives.
 ... and contract with generalized density number  0.
 R6Disp: Adding Grimme-D3 dispersion energy 1st derivatives to the gradient.
 Leave Link  701 at Thu Jun 13 12:24:39 2024, MaxMem=  1073741824 cpu:         4.6
 (Enter /apps/z_install_tree/linux-rocky8-ivybridge/gcc-12.2.0/gaussian-09-D.01-wczn3gur5lpur3omlkzwa2l5ecyxp5ef/g09/l702.exe)
 L702 exits ... SP integral derivatives will be done elsewhere.
 Leave Link  702 at Thu Jun 13 12:24:39 2024, MaxMem=  1073741824 cpu:         0.2
 (Enter /apps/z_install_tree/linux-rocky8-ivybridge/gcc-12.2.0/gaussian-09-D.01-wczn3gur5lpur3omlkzwa2l5ecyxp5ef/g09/l703.exe)
 Compute integral first derivatives, UseDBF=F ICtDFT=           0.
 Integral derivatives from FoFJK, PRISM(SPDF).
 Calling FoFJK, ICntrl=      2127 FMM=F ISym2X=0 I1Cent= 0 IOpClX= 0 NMat=1 NMatS=1 NMatT=0.
 FoFJK:  IHMeth= 1 ICntrl=    2127 DoSepK=F KAlg= 0 I1Cent=   0 FoldK=F
 IRaf=         0 NMat=   1 IRICut=       1 DoRegI=T DoRafI=F ISym2E= 0.
 FoFCou: FMM=F IPFlag=           0 FMFlag=      100000 FMFlg1=         800
         NFxFlg=           0 DoJE=F BraDBF=F KetDBF=F FulRan=T
         wScrn=  0.000000 ICntrl=    2127 IOpCl=  0 I1Cent=           0 NGrid=           0
         NMat0=    1 NMatS0=      1 NMatT0=    0 NMatD0=    1 NMtDS0=    0 NMtDT0=    0
 Symmetry not used in FoFCou.
 Leave Link  703 at Thu Jun 13 12:24:41 2024, MaxMem=  1073741824 cpu:        34.7
 (Enter /apps/z_install_tree/linux-rocky8-ivybridge/gcc-12.2.0/gaussian-09-D.01-wczn3gur5lpur3omlkzwa2l5ecyxp5ef/g09/l716.exe)
 Dipole        = 1.22280596D-01-9.85121433D-02-5.19974517D-01
 -------------------------------------------------------------------
 Center     Atomic                   Forces (Hartrees/Bohr)
 Number     Number              X              Y              Z
 -------------------------------------------------------------------
      1        6           0.015380021    0.021879530   -0.019471156
      2        6          -0.018507662    0.003599716    0.096579561
      3        6          -0.003176912   -0.013849072   -0.010037533
      4        9          -0.027927071   -0.082594666   -0.015844987
      5        9           0.064191827    0.020706367   -0.025711910
      6        9          -0.022291682    0.051479570   -0.039691852
      7       17          -0.000534130    0.001236128    0.003045731
      8        1          -0.005411147   -0.008810622   -0.000158135
      9        1          -0.004294772    0.001469594    0.002182809
     10        1           0.001154930    0.004541973    0.003221224
     11        1           0.001416599    0.000341482    0.005886247
 -------------------------------------------------------------------
 Cartesian Forces:  Max     0.096579561 RMS     0.029684427
 Leave Link  716 at Thu Jun 13 12:24:41 2024, MaxMem=  1073741824 cpu:         0.4
 (Enter /apps/z_install_tree/linux-rocky8-ivybridge/gcc-12.2.0/gaussian-09-D.01-wczn3gur5lpur3omlkzwa2l5ecyxp5ef/g09/l103.exe)

 GradGradGradGradGradGradGradGradGradGradGradGradGradGradGradGradGradGrad
 Berny optimization.
 Using GEDIIS/GDIIS optimizer.
 FormGI is forming the generalized inverse of G from B-inverse, IUseBI=4.
 Internal  Forces:  Max     0.088550213 RMS     0.019979747
 Search for a local minimum.
 Step number   3 out of a maximum of   56
 All quantities printed in internal units (Hartrees-Bohrs-Radians)
 RMS Force = .19980D-01 SwitMx=.10000D-02 MixMth= 1
 Mixed Optimization -- RFO/linear search
 Update second derivatives using D2CorX and points    2    3
 ITU=  0  1  0
 Use linear search instead of GDIIS.
     Eigenvalues ---    0.00230   0.00524   0.03792   0.05069   0.05156
     Eigenvalues ---    0.05907   0.06976   0.07793   0.08141   0.09344
     Eigenvalues ---    0.11938   0.15685   0.16000   0.16031   0.17577
     Eigenvalues ---    0.21749   0.22222   0.22990   0.24982   0.25000
     Eigenvalues ---    0.25259   0.27357   0.33366   0.33960   0.34075
     Eigenvalues ---    0.34081   0.34826
 RFO step:  Lambda=-2.26138875D-02 EMin= 2.30008808D-03
 Quartic linear search produced a step of  0.76380.
 Iteration  1 RMS(Cart)=  0.05962565 RMS(Int)=  0.05167320
 Iteration  2 RMS(Cart)=  0.03584534 RMS(Int)=  0.01696077
 Iteration  3 RMS(Cart)=  0.01563634 RMS(Int)=  0.00077037
 Iteration  4 RMS(Cart)=  0.00003560 RMS(Int)=  0.00077005
 Iteration  5 RMS(Cart)=  0.00000001 RMS(Int)=  0.00077005
 ITry= 1 IFail=0 DXMaxC= 4.70D-01 DCOld= 1.00D+10 DXMaxT= 5.05D-01 DXLimC= 3.00D+00 Rises=F
 Variable       Old X    -DE/DX   Delta X   Delta X   Delta X     New X
                                 (Linear)    (Quad)   (Total)
    R1        2.75463   0.01381  -0.05829   0.13982   0.08153   2.83615
    R2        2.91274  -0.00379  -0.01157  -0.00263  -0.01420   2.89854
    R3        2.06377  -0.00170  -0.00414  -0.00198  -0.00612   2.05765
    R4        2.05292  -0.00098  -0.01091   0.00886  -0.00205   2.05086
    R5        2.93061  -0.08855  -0.27430  -0.23932  -0.51362   2.41699
    R6        2.78671  -0.07111  -0.24580  -0.07391  -0.31971   2.46700
    R7        2.74405  -0.06725  -0.24062  -0.04048  -0.28110   2.46295
    R8        3.46526  -0.00328  -0.02797   0.02349  -0.00448   3.46078
    R9        2.04816  -0.00010  -0.01222   0.01372   0.00150   2.04966
   R10        2.04178   0.00042  -0.01528   0.01934   0.00407   2.04584
    A1        1.94628  -0.00123  -0.03518   0.05156   0.01661   1.96288
    A2        1.84440   0.00103  -0.00640   0.04035   0.03472   1.87912
    A3        1.92665  -0.00270  -0.01737   0.02663   0.00965   1.93630
    A4        1.83961   0.00520   0.05110  -0.06214  -0.01204   1.82757
    A5        1.92801   0.00160   0.02781  -0.04469  -0.01807   1.90995
    A6        1.97631  -0.00369  -0.01844  -0.01022  -0.03078   1.94553
    A7        1.96754   0.00124  -0.00665  -0.00861  -0.01540   1.95214
    A8        1.93918   0.00479   0.02295   0.00348   0.02509   1.96427
    A9        1.99226   0.00072   0.01519  -0.01194   0.00156   1.99382
   A10        1.89632  -0.00813  -0.01874  -0.03357  -0.05207   1.84425
   A11        1.89476  -0.00705  -0.01947  -0.02903  -0.04896   1.84580
   A12        1.76119   0.00843   0.00704   0.08676   0.09127   1.85246
   A13        1.88275   0.00083  -0.04531   0.07885   0.03354   1.91629
   A14        1.95821   0.00130   0.02254  -0.03443  -0.01194   1.94627
   A15        1.97312  -0.00293  -0.01296   0.00104  -0.01243   1.96069
   A16        1.82247   0.00166   0.02302  -0.01837   0.00513   1.82761
   A17        1.82978   0.00235   0.03028  -0.01846   0.01135   1.84113
   A18        1.98305  -0.00250  -0.01667  -0.00241  -0.01952   1.96352
    D1        0.85055   0.00210   0.01277   0.00218   0.01508   0.86563
    D2        2.98395  -0.00405   0.00072  -0.04516  -0.04518   2.93877
    D3       -1.32197   0.01011   0.03241   0.05874   0.09162  -1.23035
    D4       -1.13955  -0.00401  -0.02726   0.02804   0.00082  -1.13873
    D5        0.99384  -0.01016  -0.03931  -0.01930  -0.05944   0.93440
    D6        2.97111   0.00400  -0.00762   0.08460   0.07736   3.04847
    D7        3.00070   0.00137   0.01019   0.00002   0.01058   3.01128
    D8       -1.14909  -0.00479  -0.00186  -0.04731  -0.04968  -1.19877
    D9        0.82818   0.00938   0.02983   0.05659   0.08712   0.91530
   D10        3.07685  -0.00151  -0.00473  -0.00923  -0.01413   3.06271
   D11        1.07900  -0.00471  -0.01879  -0.01537  -0.03384   1.04516
   D12       -1.19141   0.00025  -0.00431   0.01806   0.01385  -1.17757
   D13       -1.21326   0.00200   0.00094   0.02842   0.02820  -1.18505
   D14        3.07208  -0.00120  -0.01313   0.02227   0.00850   3.08058
   D15        0.80167   0.00376   0.00135   0.05570   0.05618   0.85785
   D16        0.92747   0.00168   0.02207  -0.04776  -0.02514   0.90234
   D17       -1.07037  -0.00152   0.00801  -0.05390  -0.04484  -1.11521
   D18        2.94240   0.00343   0.02249  -0.02047   0.00285   2.94524
         Item               Value     Threshold  Converged?
 Maximum Force            0.088550     0.000450     NO 
 RMS     Force            0.019980     0.000300     NO 
 Maximum Displacement     0.470233     0.001800     NO 
 RMS     Displacement     0.100604     0.001200     NO 
 Predicted change in Energy=-7.464872D-02
 Lowest energy point so far.  Saving SCF results.
 GradGradGradGradGradGradGradGradGradGradGradGradGradGradGradGradGradGrad

 Leave Link  103 at Thu Jun 13 12:24:43 2024, MaxMem=  1073741824 cpu:        12.0
 (Enter /apps/z_install_tree/linux-rocky8-ivybridge/gcc-12.2.0/gaussian-09-D.01-wczn3gur5lpur3omlkzwa2l5ecyxp5ef/g09/l202.exe)
                          Input orientation:                          
 ---------------------------------------------------------------------
 Center     Atomic      Atomic             Coordinates (Angstroms)
 Number     Number       Type             X           Y           Z
 ---------------------------------------------------------------------
      1          6           0       50.132738   35.331137   31.964960
      2          6           0       50.059222   35.620585   33.435775
      3          6           0       51.491570   35.707014   31.360840
      4          9           0       50.448724   36.808220   33.707242
      5          9           0       48.843374   35.532865   33.902995
      6          9           0       50.788603   34.831598   34.173467
      7         17           0       51.549263   35.201714   29.601508
      8          1           0       49.417835   35.981949   31.463982
      9          1           0       49.925582   34.284814   31.764701
     10          1           0       52.301153   35.159648   31.831371
     11          1           0       51.659934   36.776456   31.360159
 ---------------------------------------------------------------------
                    Distance matrix (angstroms):
                    1          2          3          4          5
     1  C    0.000000
     2  C    1.500826   0.000000
     3  C    1.533842   2.522786   0.000000
     4  F    2.305898   1.279017   2.793884   0.000000
     5  F    2.336479   1.305480   3.675028   2.059612   0.000000
     6  F    2.357371   1.303336   3.028430   2.059106   2.085388
     7  Cl   2.758477   4.134885   1.831367   4.544128   5.092572
     8  H    1.088863   2.104740   2.094423   2.603396   2.545677
     9  H    1.085270   2.143510   2.153620   3.227185   2.702057
    10  H    2.179283   2.795143   1.084635   3.109368   4.048104
    11  H    2.187935   2.864698   1.082614   2.641370   3.993188
                    6          7          8          9         10
     6  F    0.000000
     7  Cl   4.649559   0.000000
     8  H    3.247095   2.936079   0.000000
     9  H    2.616473   2.855949   1.796805   0.000000
    10  H    2.807283   2.353592   3.020708   2.532413   0.000000
    11  H    3.529361   2.363242   2.380972   3.062664   1.802018
                   11
    11  H    0.000000
 Symmetry turned off by external request.
 Stoichiometry    C3H4ClF3
 Framework group  C1[X(C3H4ClF3)]
 Deg. of freedom    27
 Full point group                 C1      NOp   1
 Rotational constants (GHZ):      5.3587631      0.9224428      0.9114613
 Leave Link  202 at Thu Jun 13 12:24:43 2024, MaxMem=  1073741824 cpu:         1.2
 (Enter /apps/z_install_tree/linux-rocky8-ivybridge/gcc-12.2.0/gaussian-09-D.01-wczn3gur5lpur3omlkzwa2l5ecyxp5ef/g09/l301.exe)
 Basis read from rwf:  (5D, 7F)
 No pseudopotential information found on rwf file.
   233 basis functions,   355 primitive gaussians,   247 cartesian basis functions
    33 alpha electrons       33 beta electrons
       nuclear repulsion energy       395.4288852791 Hartrees.
 IExCor=  402 DFT=T Ex+Corr=B3LYP ExCW=0 ScaHFX=  0.200000
 ScaDFX=  0.800000  0.720000  1.000000  0.810000 ScalE2=  1.000000  1.000000
 IRadAn=      5 IRanWt=     -1 IRanGd=            0 ICorTp=0 IEmpDi=131
 NAtoms=   11 NActive=   11 NUniq=   11 SFac= 1.00D+00 NAtFMM=   60 NAOKFM=F Big=F
 Integral buffers will be    131072 words long.
 Raffenetti 2 integral format.
 Two-electron integral symmetry is turned off.
 R6Disp:  Grimme-D3 Dispersion energy=       -0.0080143774 Hartrees.
 Nuclear repulsion after empirical dispersion term =      395.4208709018 Hartrees.
 No density basis found on file   724.
 Leave Link  301 at Thu Jun 13 12:24:43 2024, MaxMem=  1073741824 cpu:         1.0
 (Enter /apps/z_install_tree/linux-rocky8-ivybridge/gcc-12.2.0/gaussian-09-D.01-wczn3gur5lpur3omlkzwa2l5ecyxp5ef/g09/l302.exe)
 NPDir=0 NMtPBC=     1 NCelOv=     1 NCel=       1 NClECP=     1 NCelD=      1
         NCelK=      1 NCelE2=     1 NClLst=     1 CellRange=     0.0.
 One-electron integrals computed using PRISM.
 NBasis=   233 RedAO= T EigKep=  2.68D-05  NBF=   233
 NBsUse=   233 1.00D-06 EigRej= -1.00D+00 NBFU=   233
 Precomputing XC quadrature grid using
 IXCGrd= 4 IRadAn=           5 IRanWt=          -1 IRanGd=           0 AccXCQ= 0.00D+00.
 Generated NRdTot=       0 NPtTot=           0 NUsed=           0 NTot=          32
 NSgBfM=   247   247   247   247   247 MxSgAt=    11 MxSgA2=    11.
 Leave Link  302 at Thu Jun 13 12:24:44 2024, MaxMem=  1073741824 cpu:         4.0
 (Enter /apps/z_install_tree/linux-rocky8-ivybridge/gcc-12.2.0/gaussian-09-D.01-wczn3gur5lpur3omlkzwa2l5ecyxp5ef/g09/l303.exe)
 DipDrv:  MaxL=1.
 Leave Link  303 at Thu Jun 13 12:24:44 2024, MaxMem=  1073741824 cpu:         2.0
 (Enter /apps/z_install_tree/linux-rocky8-ivybridge/gcc-12.2.0/gaussian-09-D.01-wczn3gur5lpur3omlkzwa2l5ecyxp5ef/g09/l401.exe)
 Initial guess from the checkpoint file:  "chlorotrifluoropropane.chk"
 B after Tr=     0.443029   -0.787096    0.198434
         Rot=    0.999994    0.001388   -0.000087   -0.003241 Ang=   0.40 deg.
 Guess basis will be translated and rotated to current coordinates.
 JPrj=2 DoOrth=T DoCkMO=T.
 Generating alternative initial guess.
 ExpMin= 4.38D-02 ExpMax= 1.06D+05 ExpMxC= 3.62D+03 IAcc=2 IRadAn=         4 AccDes= 0.00D+00
 Harris functional with IExCor=  402 and IRadAn=       4 diagonalized for initial guess.
 HarFok:  IExCor=  402 AccDes= 0.00D+00 IRadAn=         4 IDoV= 1 UseB2=F ITyADJ=14
 ICtDFT=  3500011 ScaDFX=  1.000000  1.000000  1.000000  1.000000
 FoFCou: FMM=F IPFlag=           0 FMFlag=      100000 FMFlg1=           0
         NFxFlg=           0 DoJE=T BraDBF=F KetDBF=T FulRan=T
         wScrn=  0.000000 ICntrl=     500 IOpCl=  0 I1Cent=   200000004 NGrid=           0
         NMat0=    1 NMatS0=      1 NMatT0=    0 NMatD0=    1 NMtDS0=    0 NMtDT0=    0
 Symmetry not used in FoFCou.
 Harris En= -876.553685121513    
 Leave Link  401 at Thu Jun 13 12:24:44 2024, MaxMem=  1073741824 cpu:         5.7
 (Enter /apps/z_install_tree/linux-rocky8-ivybridge/gcc-12.2.0/gaussian-09-D.01-wczn3gur5lpur3omlkzwa2l5ecyxp5ef/g09/l502.exe)
 Closed shell SCF:
 Using DIIS extrapolation, IDIIS=  1040.
 Two-electron integral symmetry not used.
 Keep R1 ints in memory in canonical form, NReq=379421756.
 IVT=      200693 IEndB=      200693 NGot=  1073741824 MDV=   701946441
 LenX=   701946441 LenY=   701884991
 Requested convergence on RMS density matrix=1.00D-08 within  96 cycles.
 Requested convergence on MAX density matrix=1.00D-06.
 Requested convergence on             energy=1.00D-06.
 No special actions if energy rises.
 FoFCou: FMM=F IPFlag=           0 FMFlag=           0 FMFlg1=           0
         NFxFlg=           0 DoJE=F BraDBF=F KetDBF=F FulRan=T
         wScrn=  0.000000 ICntrl=     600 IOpCl=  0 I1Cent=           0 NGrid=           0
         NMat0=    1 NMatS0=  27261 NMatT0=    0 NMatD0=    1 NMtDS0=    0 NMtDT0=    0
 Symmetry not used in FoFCou.

 Cycle   1  Pass 1  IDiag  1:
 E= -876.586182125032    
 DIIS: error= 1.18D-02 at cycle   1 NSaved=   1.
 NSaved= 1 IEnMin= 1 EnMin= -876.586182125032     IErMin= 1 ErrMin= 1.18D-02
 ErrMax= 1.18D-02  0.00D+00 EMaxC= 1.00D-01 BMatC= 5.89D-02 BMatP= 5.89D-02
 IDIUse=3 WtCom= 8.82D-01 WtEn= 1.18D-01
 Coeff-Com:  0.100D+01
 Coeff-En:   0.100D+01
 Coeff:      0.100D+01
 Recover alternate guess density for next cycle.
 RMSDP=2.53D-03 MaxDP=9.30D-02              OVMax= 0.00D+00

 Cycle   2  Pass 1  IDiag  1:
 E= -876.511645040257     Delta-E=        0.074537084775 Rises=F Damp=F
 Switch densities from cycles 1 and 2 for lowest energy.
 DIIS: error= 3.22D-02 at cycle   2 NSaved=   2.
 NSaved= 2 IEnMin= 1 EnMin= -876.586182125032     IErMin= 1 ErrMin= 1.18D-02
 ErrMax= 3.22D-02  0.00D+00 EMaxC= 1.00D+00 BMatC= 2.06D-01 BMatP= 5.89D-02
 IDIUse=1 WtCom= 1.00D+00 WtEn= 0.00D+00
 Coeff-Com:  0.802D+00 0.198D+00
 Coeff:      0.802D+00 0.198D+00
 Gap=     0.312 Goal=   None    Shift=    0.000
 RMSDP=2.15D-03 MaxDP=9.51D-02 DE= 7.45D-02 OVMax= 8.77D-02

 Cycle   3  Pass 1  IDiag  1:
 E= -876.627698999538     Delta-E=       -0.116053959282 Rises=F Damp=F
 DIIS: error= 7.22D-03 at cycle   3 NSaved=   3.
 NSaved= 3 IEnMin= 3 EnMin= -876.627698999538     IErMin= 3 ErrMin= 7.22D-03
 ErrMax= 7.22D-03  0.00D+00 EMaxC= 1.00D+00 BMatC= 1.44D-02 BMatP= 5.89D-02
 IDIUse=1 WtCom= 1.00D+00 WtEn= 0.00D+00
 Coeff-Com:  0.908D-01 0.168D+00 0.741D+00
 Coeff:      0.908D-01 0.168D+00 0.741D+00
 Gap=     0.296 Goal=   None    Shift=    0.000
 RMSDP=4.71D-04 MaxDP=2.95D-02 DE=-1.16D-01 OVMax= 2.56D-02

 Cycle   4  Pass 1  IDiag  1:
 E= -876.637713600613     Delta-E=       -0.010014601075 Rises=F Damp=F
 DIIS: error= 2.25D-03 at cycle   4 NSaved=   4.
 NSaved= 4 IEnMin= 4 EnMin= -876.637713600613     IErMin= 4 ErrMin= 2.25D-03
 ErrMax= 2.25D-03  0.00D+00 EMaxC= 1.00D+00 BMatC= 1.20D-03 BMatP= 1.44D-02
 IDIUse=1 WtCom= 1.00D+00 WtEn= 0.00D+00
 Coeff-Com: -0.775D-02 0.337D-01 0.276D+00 0.699D+00
 Coeff:     -0.775D-02 0.337D-01 0.276D+00 0.699D+00
 Gap=     0.297 Goal=   None    Shift=    0.000
 RMSDP=1.60D-04 MaxDP=6.93D-03 DE=-1.00D-02 OVMax= 8.05D-03

 Cycle   5  Pass 1  IDiag  1:
 E= -876.638601831940     Delta-E=       -0.000888231326 Rises=F Damp=F
 DIIS: error= 8.18D-04 at cycle   5 NSaved=   5.
 NSaved= 5 IEnMin= 5 EnMin= -876.638601831940     IErMin= 5 ErrMin= 8.18D-04
 ErrMax= 8.18D-04  0.00D+00 EMaxC= 1.00D+00 BMatC= 1.20D-04 BMatP= 1.20D-03
 IDIUse=1 WtCom= 1.00D+00 WtEn= 0.00D+00
 Coeff-Com: -0.571D-02 0.468D-02 0.921D-01 0.344D+00 0.565D+00
 Coeff:     -0.571D-02 0.468D-02 0.921D-01 0.344D+00 0.565D+00
 Gap=     0.297 Goal=   None    Shift=    0.000
 RMSDP=4.86D-05 MaxDP=1.63D-03 DE=-8.88D-04 OVMax= 2.55D-03

 Cycle   6  Pass 1  IDiag  1:
 E= -876.638690433649     Delta-E=       -0.000088601709 Rises=F Damp=F
 DIIS: error= 1.35D-04 at cycle   6 NSaved=   6.
 NSaved= 6 IEnMin= 6 EnMin= -876.638690433649     IErMin= 6 ErrMin= 1.35D-04
 ErrMax= 1.35D-04  0.00D+00 EMaxC= 1.00D+00 BMatC= 8.60D-06 BMatP= 1.20D-04
 IDIUse=1 WtCom= 1.00D+00 WtEn= 0.00D+00
 Coeff-Com: -0.151D-02-0.134D-03 0.267D-01 0.123D+00 0.285D+00 0.567D+00
 Coeff:     -0.151D-02-0.134D-03 0.267D-01 0.123D+00 0.285D+00 0.567D+00
 Gap=     0.297 Goal=   None    Shift=    0.000
 RMSDP=1.23D-05 MaxDP=5.50D-04 DE=-8.86D-05 OVMax= 6.86D-04

 Cycle   7  Pass 1  IDiag  1:
 E= -876.638697323303     Delta-E=       -0.000006889654 Rises=F Damp=F
 DIIS: error= 3.04D-05 at cycle   7 NSaved=   7.
 NSaved= 7 IEnMin= 7 EnMin= -876.638697323303     IErMin= 7 ErrMin= 3.04D-05
 ErrMax= 3.04D-05  0.00D+00 EMaxC= 1.00D+00 BMatC= 4.18D-07 BMatP= 8.60D-06
 IDIUse=1 WtCom= 1.00D+00 WtEn= 0.00D+00
 Coeff-Com: -0.470D-03-0.148D-03 0.464D-02 0.257D-01 0.759D-01 0.242D+00
 Coeff-Com:  0.652D+00
 Coeff:     -0.470D-03-0.148D-03 0.464D-02 0.257D-01 0.759D-01 0.242D+00
 Coeff:      0.652D+00
 Gap=     0.297 Goal=   None    Shift=    0.000
 RMSDP=4.54D-06 MaxDP=2.30D-04 DE=-6.89D-06 OVMax= 1.57D-04

 Cycle   8  Pass 1  IDiag  1:
 E= -876.638697662531     Delta-E=       -0.000000339229 Rises=F Damp=F
 DIIS: error= 8.16D-06 at cycle   8 NSaved=   8.
 NSaved= 8 IEnMin= 8 EnMin= -876.638697662531     IErMin= 8 ErrMin= 8.16D-06
 ErrMax= 8.16D-06  0.00D+00 EMaxC= 1.00D+00 BMatC= 3.36D-08 BMatP= 4.18D-07
 IDIUse=1 WtCom= 1.00D+00 WtEn= 0.00D+00
 Coeff-Com: -0.121D-03-0.619D-04 0.392D-03 0.405D-02 0.178D-01 0.798D-01
 Coeff-Com:  0.297D+00 0.602D+00
 Coeff:     -0.121D-03-0.619D-04 0.392D-03 0.405D-02 0.178D-01 0.798D-01
 Coeff:      0.297D+00 0.602D+00
 Gap=     0.297 Goal=   None    Shift=    0.000
 RMSDP=7.79D-07 MaxDP=2.73D-05 DE=-3.39D-07 OVMax= 3.24D-05

 Cycle   9  Pass 1  IDiag  1:
 E= -876.638697686069     Delta-E=       -0.000000023538 Rises=F Damp=F
 DIIS: error= 3.63D-06 at cycle   9 NSaved=   9.
 NSaved= 9 IEnMin= 9 EnMin= -876.638697686069     IErMin= 9 ErrMin= 3.63D-06
 ErrMax= 3.63D-06  0.00D+00 EMaxC= 1.00D+00 BMatC= 3.10D-09 BMatP= 3.36D-08
 IDIUse=1 WtCom= 1.00D+00 WtEn= 0.00D+00
 Coeff-Com: -0.131D-04-0.301D-04-0.172D-03-0.838D-04 0.257D-02 0.191D-01
 Coeff-Com:  0.865D-01 0.284D+00 0.608D+00
 Coeff:     -0.131D-04-0.301D-04-0.172D-03-0.838D-04 0.257D-02 0.191D-01
 Coeff:      0.865D-01 0.284D+00 0.608D+00
 Gap=     0.297 Goal=   None    Shift=    0.000
 RMSDP=2.42D-07 MaxDP=1.28D-05 DE=-2.35D-08 OVMax= 7.85D-06

 Cycle  10  Pass 1  IDiag  1:
 E= -876.638697687859     Delta-E=       -0.000000001790 Rises=F Damp=F
 DIIS: error= 7.41D-07 at cycle  10 NSaved=  10.
 NSaved=10 IEnMin=10 EnMin= -876.638697687859     IErMin=10 ErrMin= 7.41D-07
 ErrMax= 7.41D-07  0.00D+00 EMaxC= 1.00D+00 BMatC= 2.00D-10 BMatP= 3.10D-09
 IDIUse=1 WtCom= 1.00D+00 WtEn= 0.00D+00
 Coeff-Com:  0.235D-05-0.594D-05-0.113D-03-0.413D-03-0.337D-03 0.261D-02
 Coeff-Com:  0.168D-01 0.844D-01 0.273D+00 0.625D+00
 Coeff:      0.235D-05-0.594D-05-0.113D-03-0.413D-03-0.337D-03 0.261D-02
 Coeff:      0.168D-01 0.844D-01 0.273D+00 0.625D+00
 Gap=     0.297 Goal=   None    Shift=    0.000
 RMSDP=7.95D-08 MaxDP=4.09D-06 DE=-1.79D-09 OVMax= 2.90D-06

 Cycle  11  Pass 1  IDiag  1:
 E= -876.638697687986     Delta-E=       -0.000000000127 Rises=F Damp=F
 DIIS: error= 2.19D-07 at cycle  11 NSaved=  11.
 NSaved=11 IEnMin=11 EnMin= -876.638697687986     IErMin=11 ErrMin= 2.19D-07
 ErrMax= 2.19D-07  0.00D+00 EMaxC= 1.00D+00 BMatC= 1.68D-11 BMatP= 2.00D-10
 IDIUse=1 WtCom= 1.00D+00 WtEn= 0.00D+00
 Coeff-Com:  0.134D-05 0.412D-08-0.359D-04-0.171D-03-0.317D-03-0.986D-04
 Coeff-Com:  0.154D-02 0.179D-01 0.799D-01 0.298D+00 0.603D+00
 Coeff:      0.134D-05 0.412D-08-0.359D-04-0.171D-03-0.317D-03-0.986D-04
 Coeff:      0.154D-02 0.179D-01 0.799D-01 0.298D+00 0.603D+00
 Gap=     0.297 Goal=   None    Shift=    0.000
 RMSDP=1.80D-08 MaxDP=8.07D-07 DE=-1.27D-10 OVMax= 6.04D-07

 Cycle  12  Pass 1  IDiag  1:
 E= -876.638697687991     Delta-E=       -0.000000000005 Rises=F Damp=F
 DIIS: error= 6.45D-08 at cycle  12 NSaved=  12.
 NSaved=12 IEnMin=12 EnMin= -876.638697687991     IErMin=12 ErrMin= 6.45D-08
 ErrMax= 6.45D-08  0.00D+00 EMaxC= 1.00D+00 BMatC= 1.23D-12 BMatP= 1.68D-11
 IDIUse=1 WtCom= 1.00D+00 WtEn= 0.00D+00
 Coeff-Com:  0.540D-06 0.251D-06-0.804D-05-0.481D-04-0.135D-03-0.315D-03
 Coeff-Com: -0.796D-03 0.132D-02 0.163D-01 0.965D-01 0.293D+00 0.594D+00
 Coeff:      0.540D-06 0.251D-06-0.804D-05-0.481D-04-0.135D-03-0.315D-03
 Coeff:     -0.796D-03 0.132D-02 0.163D-01 0.965D-01 0.293D+00 0.594D+00
 Gap=     0.297 Goal=   None    Shift=    0.000
 RMSDP=6.66D-09 MaxDP=3.84D-07 DE=-5.00D-12 OVMax= 2.15D-07

 SCF Done:  E(RB3LYP) =  -876.638697688     A.U. after   12 cycles
            NFock= 12  Conv=0.67D-08     -V/T= 2.0022
 KE= 8.747006851526D+02 PE=-2.870565398662D+03 EE= 7.238051449193D+02
 Leave Link  502 at Thu Jun 13 12:24:56 2024, MaxMem=  1073741824 cpu:       124.7
 (Enter /apps/z_install_tree/linux-rocky8-ivybridge/gcc-12.2.0/gaussian-09-D.01-wczn3gur5lpur3omlkzwa2l5ecyxp5ef/g09/l508.exe)
 QCSCF skips out because SCF is already converged.
 Leave Link  508 at Thu Jun 13 12:24:56 2024, MaxMem=  1073741824 cpu:         0.0
 (Enter /apps/z_install_tree/linux-rocky8-ivybridge/gcc-12.2.0/gaussian-09-D.01-wczn3gur5lpur3omlkzwa2l5ecyxp5ef/g09/l701.exe)
 Compute integral first derivatives.
 ... and contract with generalized density number  0.
 R6Disp: Adding Grimme-D3 dispersion energy 1st derivatives to the gradient.
 Leave Link  701 at Thu Jun 13 12:24:57 2024, MaxMem=  1073741824 cpu:         4.1
 (Enter /apps/z_install_tree/linux-rocky8-ivybridge/gcc-12.2.0/gaussian-09-D.01-wczn3gur5lpur3omlkzwa2l5ecyxp5ef/g09/l702.exe)
 L702 exits ... SP integral derivatives will be done elsewhere.
 Leave Link  702 at Thu Jun 13 12:24:57 2024, MaxMem=  1073741824 cpu:         0.2
 (Enter /apps/z_install_tree/linux-rocky8-ivybridge/gcc-12.2.0/gaussian-09-D.01-wczn3gur5lpur3omlkzwa2l5ecyxp5ef/g09/l703.exe)
 Compute integral first derivatives, UseDBF=F ICtDFT=           0.
 Integral derivatives from FoFJK, PRISM(SPDF).
 Calling FoFJK, ICntrl=      2127 FMM=F ISym2X=0 I1Cent= 0 IOpClX= 0 NMat=1 NMatS=1 NMatT=0.
 FoFJK:  IHMeth= 1 ICntrl=    2127 DoSepK=F KAlg= 0 I1Cent=   0 FoldK=F
 IRaf=         0 NMat=   1 IRICut=       1 DoRegI=T DoRafI=F ISym2E= 0.
 FoFCou: FMM=F IPFlag=           0 FMFlag=      100000 FMFlg1=         800
         NFxFlg=           0 DoJE=F BraDBF=F KetDBF=F FulRan=T
         wScrn=  0.000000 ICntrl=    2127 IOpCl=  0 I1Cent=           0 NGrid=           0
         NMat0=    1 NMatS0=      1 NMatT0=    0 NMatD0=    1 NMtDS0=    0 NMtDT0=    0
 Symmetry not used in FoFCou.
 Leave Link  703 at Thu Jun 13 12:24:59 2024, MaxMem=  1073741824 cpu:        36.9
 (Enter /apps/z_install_tree/linux-rocky8-ivybridge/gcc-12.2.0/gaussian-09-D.01-wczn3gur5lpur3omlkzwa2l5ecyxp5ef/g09/l716.exe)
 Dipole        = 3.90289468D-02 7.74982609D-02-1.00349344D-01
 -------------------------------------------------------------------
 Center     Atomic                   Forces (Hartrees/Bohr)
 Number     Number              X              Y              Z
 -------------------------------------------------------------------
      1        6           0.008938895    0.007191472   -0.019524817
      2        6          -0.006996272   -0.020101729   -0.025656056
      3        6          -0.000500527   -0.010809516   -0.001790452
      4        9           0.026839989    0.076744718    0.006839644
      5        9          -0.052208039   -0.010698844    0.007738838
      6        9           0.033149975   -0.041346403    0.019396831
      7       17          -0.001624347    0.001566972    0.003724141
      8        1          -0.007532862   -0.006305374    0.002634215
      9        1          -0.004145237    0.000093401    0.001798081
     10        1           0.002076996    0.003902757    0.001566837
     11        1           0.002001428   -0.000237456    0.003272740
 -------------------------------------------------------------------
 Cartesian Forces:  Max     0.076744718 RMS     0.021081112
 Leave Link  716 at Thu Jun 13 12:24:59 2024, MaxMem=  1073741824 cpu:         0.3
 (Enter /apps/z_install_tree/linux-rocky8-ivybridge/gcc-12.2.0/gaussian-09-D.01-wczn3gur5lpur3omlkzwa2l5ecyxp5ef/g09/l103.exe)

 GradGradGradGradGradGradGradGradGradGradGradGradGradGradGradGradGradGrad
 Berny optimization.
 Using GEDIIS/GDIIS optimizer.
 FormGI is forming the generalized inverse of G from B-inverse, IUseBI=4.
 Internal  Forces:  Max     0.080887214 RMS     0.017409254
 Search for a local minimum.
 Step number   4 out of a maximum of   56
 All quantities printed in internal units (Hartrees-Bohrs-Radians)
 RMS Force = .17409D-01 SwitMx=.10000D-02 MixMth= 1
 Mixed Optimization -- RFO/linear search
 Update second derivatives using D2CorX and points    3    4
 DE= -3.00D-02 DEPred=-7.46D-02 R= 4.01D-01
 Trust test= 4.01D-01 RLast= 7.14D-01 DXMaxT set to 5.05D-01
 ITU=  0  0  1  0
 Use linear search instead of GDIIS.
     Eigenvalues ---    0.00230   0.00525   0.03678   0.05037   0.05308
     Eigenvalues ---    0.05703   0.07905   0.08270   0.08395   0.12081
     Eigenvalues ---    0.15163   0.16000   0.16029   0.17370   0.21727
     Eigenvalues ---    0.22119   0.22918   0.23414   0.24995   0.25057
     Eigenvalues ---    0.27340   0.31088   0.33946   0.34074   0.34080
     Eigenvalues ---    0.34158   0.41435
 RFO step:  Lambda=-9.75123776D-03 EMin= 2.30014081D-03
 Quartic linear search produced a step of -0.28634.
 Iteration  1 RMS(Cart)=  0.06764720 RMS(Int)=  0.00316619
 Iteration  2 RMS(Cart)=  0.00320732 RMS(Int)=  0.00050368
 Iteration  3 RMS(Cart)=  0.00000908 RMS(Int)=  0.00050362
 Iteration  4 RMS(Cart)=  0.00000001 RMS(Int)=  0.00050362
 ITry= 1 IFail=0 DXMaxC= 2.55D-01 DCOld= 1.00D+10 DXMaxT= 5.05D-01 DXLimC= 3.00D+00 Rises=F
 Variable       Old X    -DE/DX   Delta X   Delta X   Delta X     New X
                                 (Linear)    (Quad)   (Total)
    R1        2.83615   0.00900  -0.02334   0.04427   0.02092   2.85707
    R2        2.89854  -0.00230   0.00407  -0.01307  -0.00901   2.88953
    R3        2.05765  -0.00003   0.00175  -0.00268  -0.00093   2.05673
    R4        2.05086   0.00037   0.00059  -0.00093  -0.00034   2.05052
    R5        2.41699   0.08089   0.14707   0.01731   0.16438   2.58137
    R6        2.46700   0.05211   0.09155  -0.01893   0.07262   2.53961
    R7        2.46295   0.05456   0.08049   0.00737   0.08786   2.55081
    R8        3.46078  -0.00406   0.00128  -0.01944  -0.01815   3.44263
    R9        2.04966   0.00026  -0.00043   0.00010  -0.00033   2.04933
   R10        2.04584   0.00007  -0.00116   0.00042  -0.00075   2.04510
    A1        1.96288  -0.00598  -0.00476  -0.00525  -0.01085   1.95203
    A2        1.87912  -0.00110  -0.00994   0.02891   0.01747   1.89659
    A3        1.93630  -0.00025  -0.00276  -0.03307  -0.03614   1.90017
    A4        1.82757   0.00833   0.00345   0.08687   0.08982   1.91739
    A5        1.90995   0.00272   0.00517  -0.00319   0.00160   1.91155
    A6        1.94553  -0.00350   0.00881  -0.06936  -0.06075   1.88479
    A7        1.95214  -0.00861   0.00441  -0.04476  -0.04146   1.91068
    A8        1.96427  -0.01477  -0.00718  -0.01566  -0.02271   1.94156
    A9        1.99382  -0.01779  -0.00045  -0.04130  -0.04205   1.95177
   A10        1.84425   0.01521   0.01491   0.00965   0.02391   1.86816
   A11        1.84580   0.01567   0.01402   0.00025   0.01276   1.85856
   A12        1.85246   0.01524  -0.02613   0.10215   0.07679   1.92926
   A13        1.91629  -0.00257  -0.00960   0.01210   0.00240   1.91869
   A14        1.94627   0.00326   0.00342   0.00636   0.00939   1.95566
   A15        1.96069  -0.00043   0.00356  -0.02252  -0.01916   1.94154
   A16        1.82761   0.00164  -0.00147   0.03768   0.03592   1.86353
   A17        1.84113   0.00160  -0.00325   0.03137   0.02821   1.86935
   A18        1.96352  -0.00350   0.00559  -0.05719  -0.05204   1.91149
    D1        0.86563   0.00210  -0.00432   0.11629   0.11201   0.97764
    D2        2.93877   0.00549   0.01294   0.08687   0.09997   3.03874
    D3       -1.23035   0.00086  -0.02623   0.17956   0.15252  -1.07783
    D4       -1.13873  -0.00408  -0.00023  -0.00344  -0.00328  -1.14202
    D5        0.93440  -0.00069   0.01702  -0.03287  -0.01532   0.91908
    D6        3.04847  -0.00532  -0.02215   0.05983   0.03723   3.08570
    D7        3.01128   0.00112  -0.00303   0.08384   0.08109   3.09237
    D8       -1.19877   0.00451   0.01422   0.05442   0.06906  -1.12971
    D9        0.91530  -0.00012  -0.02495   0.14711   0.12161   1.03691
   D10        3.06271   0.00000   0.00405  -0.01667  -0.01295   3.04977
   D11        1.04516  -0.00236   0.00969  -0.07396  -0.06466   0.98050
   D12       -1.17757   0.00006  -0.00396   0.01631   0.01179  -1.16578
   D13       -1.18505   0.00065  -0.00808   0.06679   0.05924  -1.12581
   D14        3.08058  -0.00171  -0.00243   0.00950   0.00752   3.08811
   D15        0.85785   0.00070  -0.01609   0.09977   0.08397   0.94182
   D16        0.90234   0.00253   0.00720   0.03199   0.03929   0.94163
   D17       -1.11521   0.00017   0.01284  -0.02529  -0.01242  -1.12763
   D18        2.94524   0.00258  -0.00081   0.06498   0.06402   3.00927
         Item               Value     Threshold  Converged?
 Maximum Force            0.080887     0.000450     NO 
 RMS     Force            0.017409     0.000300     NO 
 Maximum Displacement     0.254935     0.001800     NO 
 RMS     Displacement     0.068398     0.001200     NO 
 Predicted change in Energy=-1.712620D-02
 Lowest energy point so far.  Saving SCF results.
 GradGradGradGradGradGradGradGradGradGradGradGradGradGradGradGradGradGrad

 Leave Link  103 at Thu Jun 13 12:25:00 2024, MaxMem=  1073741824 cpu:         7.9
 (Enter /apps/z_install_tree/linux-rocky8-ivybridge/gcc-12.2.0/gaussian-09-D.01-wczn3gur5lpur3omlkzwa2l5ecyxp5ef/g09/l202.exe)
                          Input orientation:                          
 ---------------------------------------------------------------------
 Center     Atomic      Atomic             Coordinates (Angstroms)
 Number     Number       Type             X           Y           Z
 ---------------------------------------------------------------------
      1          6           0       50.117470   35.361934   31.945057
      2          6           0       50.057113   35.619212   33.433681
      3          6           0       51.497631   35.679196   31.368371
      4          9           0       50.418590   36.911846   33.687446
      5          9           0       48.808799   35.459613   33.905193
      6          9           0       50.923509   34.838638   34.113465
      7         17           0       51.559955   35.205753   29.610309
      8          1           0       49.362434   35.973690   31.454922
      9          1           0       49.877390   34.320241   31.758904
     10          1           0       52.285006   35.126799   31.869323
     11          1           0       51.710103   36.739079   31.420328
 ---------------------------------------------------------------------
                    Distance matrix (angstroms):
                    1          2          3          4          5
     1  C    0.000000
     2  C    1.511898   0.000000
     3  C    1.529074   2.518769   0.000000
     4  F    2.351344   1.366003   2.839342   0.000000
     5  F    2.358876   1.343906   3.703175   2.178949   0.000000
     6  F    2.371820   1.349831   2.927747   2.175920   2.213817
     7  Cl   2.748855   4.128881   1.821761   4.564703   5.106793
     8  H    1.088373   2.126903   2.157147   2.641924   2.564101
     9  H    1.085088   2.127088   2.150454   3.275452   2.654546
    10  H    2.181567   2.766440   1.084461   3.158397   4.042220
    11  H    2.169873   2.835501   1.082218   2.614895   4.028542
                    6          7          8          9         10
     6  F    0.000000
     7  Cl   4.562703   0.000000
     8  H    3.285292   2.970088   0.000000
     9  H    2.628128   2.869079   1.758260   0.000000
    10  H    2.640622   2.373831   3.070892   2.541523   0.000000
    11  H    3.388715   2.376931   2.469527   3.053563   1.769620
                   11
    11  H    0.000000
 Symmetry turned off by external request.
 Stoichiometry    C3H4ClF3
 Framework group  C1[X(C3H4ClF3)]
 Deg. of freedom    27
 Full point group                 C1      NOp   1
 Rotational constants (GHZ):      4.8779905      0.9261358      0.9144115
 Leave Link  202 at Thu Jun 13 12:25:00 2024, MaxMem=  1073741824 cpu:         2.0
 (Enter /apps/z_install_tree/linux-rocky8-ivybridge/gcc-12.2.0/gaussian-09-D.01-wczn3gur5lpur3omlkzwa2l5ecyxp5ef/g09/l301.exe)
 Basis read from rwf:  (5D, 7F)
 No pseudopotential information found on rwf file.
   233 basis functions,   355 primitive gaussians,   247 cartesian basis functions
    33 alpha electrons       33 beta electrons
       nuclear repulsion energy       389.2361647897 Hartrees.
 IExCor=  402 DFT=T Ex+Corr=B3LYP ExCW=0 ScaHFX=  0.200000
 ScaDFX=  0.800000  0.720000  1.000000  0.810000 ScalE2=  1.000000  1.000000
 IRadAn=      5 IRanWt=     -1 IRanGd=            0 ICorTp=0 IEmpDi=131
 NAtoms=   11 NActive=   11 NUniq=   11 SFac= 1.00D+00 NAtFMM=   60 NAOKFM=F Big=F
 Integral buffers will be    131072 words long.
 Raffenetti 2 integral format.
 Two-electron integral symmetry is turned off.
 R6Disp:  Grimme-D3 Dispersion energy=       -0.0083480219 Hartrees.
 Nuclear repulsion after empirical dispersion term =      389.2278167678 Hartrees.
 No density basis found on file   724.
 Leave Link  301 at Thu Jun 13 12:25:00 2024, MaxMem=  1073741824 cpu:         1.1
 (Enter /apps/z_install_tree/linux-rocky8-ivybridge/gcc-12.2.0/gaussian-09-D.01-wczn3gur5lpur3omlkzwa2l5ecyxp5ef/g09/l302.exe)
 NPDir=0 NMtPBC=     1 NCelOv=     1 NCel=       1 NClECP=     1 NCelD=      1
         NCelK=      1 NCelE2=     1 NClLst=     1 CellRange=     0.0.
 One-electron integrals computed using PRISM.
 NBasis=   233 RedAO= T EigKep=  2.63D-05  NBF=   233
 NBsUse=   233 1.00D-06 EigRej= -1.00D+00 NBFU=   233
 Precomputing XC quadrature grid using
 IXCGrd= 4 IRadAn=           5 IRanWt=          -1 IRanGd=           0 AccXCQ= 0.00D+00.
 Generated NRdTot=       0 NPtTot=           0 NUsed=           0 NTot=          32
 NSgBfM=   247   247   247   247   247 MxSgAt=    11 MxSgA2=    11.
 Leave Link  302 at Thu Jun 13 12:25:01 2024, MaxMem=  1073741824 cpu:         3.8
 (Enter /apps/z_install_tree/linux-rocky8-ivybridge/gcc-12.2.0/gaussian-09-D.01-wczn3gur5lpur3omlkzwa2l5ecyxp5ef/g09/l303.exe)
 DipDrv:  MaxL=1.
 Leave Link  303 at Thu Jun 13 12:25:01 2024, MaxMem=  1073741824 cpu:         3.5
 (Enter /apps/z_install_tree/linux-rocky8-ivybridge/gcc-12.2.0/gaussian-09-D.01-wczn3gur5lpur3omlkzwa2l5ecyxp5ef/g09/l401.exe)
 Initial guess from the checkpoint file:  "chlorotrifluoropropane.chk"
 B after Tr=     2.033820   -3.874537    1.275476
         Rot=    0.999838    0.005757   -0.002619   -0.016859 Ang=   2.06 deg.
 Guess basis will be translated and rotated to current coordinates.
 JPrj=2 DoOrth=T DoCkMO=T.
 Generating alternative initial guess.
 ExpMin= 4.38D-02 ExpMax= 1.06D+05 ExpMxC= 3.62D+03 IAcc=2 IRadAn=         4 AccDes= 0.00D+00
 Harris functional with IExCor=  402 and IRadAn=       4 diagonalized for initial guess.
 HarFok:  IExCor=  402 AccDes= 0.00D+00 IRadAn=         4 IDoV= 1 UseB2=F ITyADJ=14
 ICtDFT=  3500011 ScaDFX=  1.000000  1.000000  1.000000  1.000000
 FoFCou: FMM=F IPFlag=           0 FMFlag=      100000 FMFlg1=           0
         NFxFlg=           0 DoJE=T BraDBF=F KetDBF=T FulRan=T
         wScrn=  0.000000 ICntrl=     500 IOpCl=  0 I1Cent=   200000004 NGrid=           0
         NMat0=    1 NMatS0=      1 NMatT0=    0 NMatD0=    1 NMtDS0=    0 NMtDT0=    0
 Symmetry not used in FoFCou.
 Harris En= -876.574883360155    
 Leave Link  401 at Thu Jun 13 12:25:02 2024, MaxMem=  1073741824 cpu:        10.0
 (Enter /apps/z_install_tree/linux-rocky8-ivybridge/gcc-12.2.0/gaussian-09-D.01-wczn3gur5lpur3omlkzwa2l5ecyxp5ef/g09/l502.exe)
 Closed shell SCF:
 Using DIIS extrapolation, IDIIS=  1040.
 Two-electron integral symmetry not used.
 Keep R1 ints in memory in canonical form, NReq=379421756.
 IVT=      200693 IEndB=      200693 NGot=  1073741824 MDV=   701946441
 LenX=   701946441 LenY=   701884991
 Requested convergence on RMS density matrix=1.00D-08 within  96 cycles.
 Requested convergence on MAX density matrix=1.00D-06.
 Requested convergence on             energy=1.00D-06.
 No special actions if energy rises.
 FoFCou: FMM=F IPFlag=           0 FMFlag=           0 FMFlg1=           0
         NFxFlg=           0 DoJE=F BraDBF=F KetDBF=F FulRan=T
         wScrn=  0.000000 ICntrl=     600 IOpCl=  0 I1Cent=           0 NGrid=           0
         NMat0=    1 NMatS0=  27261 NMatT0=    0 NMatD0=    1 NMtDS0=    0 NMtDT0=    0
 Symmetry not used in FoFCou.

 Cycle   1  Pass 1  IDiag  1:
 E= -876.637627033029    
 DIIS: error= 4.29D-03 at cycle   1 NSaved=   1.
 NSaved= 1 IEnMin= 1 EnMin= -876.637627033029     IErMin= 1 ErrMin= 4.29D-03
 ErrMax= 4.29D-03  0.00D+00 EMaxC= 1.00D-01 BMatC= 1.30D-02 BMatP= 1.30D-02
 IDIUse=3 WtCom= 9.57D-01 WtEn= 4.29D-02
 Coeff-Com:  0.100D+01
 Coeff-En:   0.100D+01
 Coeff:      0.100D+01
 Gap=     0.553 Goal=   None    Shift=    0.000
 GapD=    0.553 DampG=2.000 DampE=1.000 DampFc=2.0000 IDamp=-1.
 RMSDP=1.19D-03 MaxDP=4.76D-02              OVMax= 2.18D-02

 Cycle   2  Pass 1  IDiag  1:
 E= -876.649975846153     Delta-E=       -0.012348813125 Rises=F Damp=F
 DIIS: error= 2.05D-03 at cycle   2 NSaved=   2.
 NSaved= 2 IEnMin= 2 EnMin= -876.649975846153     IErMin= 2 ErrMin= 2.05D-03
 ErrMax= 2.05D-03  0.00D+00 EMaxC= 1.00D-01 BMatC= 6.17D-04 BMatP= 1.30D-02
 IDIUse=3 WtCom= 9.79D-01 WtEn= 2.05D-02
 Coeff-Com:  0.602D-01 0.940D+00
 Coeff-En:   0.000D+00 0.100D+01
 Coeff:      0.589D-01 0.941D+00
 Gap=     0.299 Goal=   None    Shift=    0.000
 RMSDP=1.34D-04 MaxDP=8.90D-03 DE=-1.23D-02 OVMax= 6.42D-03

 Cycle   3  Pass 1  IDiag  1:
 E= -876.650066794594     Delta-E=       -0.000090948441 Rises=F Damp=F
 DIIS: error= 1.37D-03 at cycle   3 NSaved=   3.
 NSaved= 3 IEnMin= 3 EnMin= -876.650066794594     IErMin= 3 ErrMin= 1.37D-03
 ErrMax= 1.37D-03  0.00D+00 EMaxC= 1.00D-01 BMatC= 5.11D-04 BMatP= 6.17D-04
 IDIUse=3 WtCom= 9.86D-01 WtEn= 1.37D-02
 Coeff-Com: -0.176D-01 0.475D+00 0.542D+00
 Coeff-En:   0.000D+00 0.434D+00 0.566D+00
 Coeff:     -0.173D-01 0.475D+00 0.543D+00
 Gap=     0.299 Goal=   None    Shift=    0.000
 RMSDP=6.52D-05 MaxDP=3.75D-03 DE=-9.09D-05 OVMax= 3.49D-03

 Cycle   4  Pass 1  IDiag  1:
 E= -876.650384184922     Delta-E=       -0.000317390328 Rises=F Damp=F
 DIIS: error= 4.53D-04 at cycle   4 NSaved=   4.
 NSaved= 4 IEnMin= 4 EnMin= -876.650384184922     IErMin= 4 ErrMin= 4.53D-04
 ErrMax= 4.53D-04  0.00D+00 EMaxC= 1.00D-01 BMatC= 3.45D-05 BMatP= 5.11D-04
 IDIUse=3 WtCom= 9.95D-01 WtEn= 4.53D-03
 Coeff-Com: -0.110D-01 0.193D+00 0.291D+00 0.527D+00
 Coeff-En:   0.000D+00 0.000D+00 0.000D+00 0.100D+01
 Coeff:     -0.109D-01 0.192D+00 0.289D+00 0.529D+00
 Gap=     0.299 Goal=   None    Shift=    0.000
 RMSDP=1.81D-05 MaxDP=7.57D-04 DE=-3.17D-04 OVMax= 9.35D-04

 Cycle   5  Pass 1  IDiag  1:
 E= -876.650403010778     Delta-E=       -0.000018825855 Rises=F Damp=F
 DIIS: error= 1.13D-04 at cycle   5 NSaved=   5.
 NSaved= 5 IEnMin= 5 EnMin= -876.650403010778     IErMin= 5 ErrMin= 1.13D-04
 ErrMax= 1.13D-04  0.00D+00 EMaxC= 1.00D-01 BMatC= 2.08D-06 BMatP= 3.45D-05
 IDIUse=3 WtCom= 9.99D-01 WtEn= 1.13D-03
 Coeff-Com: -0.227D-02 0.254D-01 0.654D-01 0.239D+00 0.672D+00
 Coeff-En:   0.000D+00 0.000D+00 0.000D+00 0.000D+00 0.100D+01
 Coeff:     -0.227D-02 0.254D-01 0.654D-01 0.239D+00 0.673D+00
 Gap=     0.299 Goal=   None    Shift=    0.000
 RMSDP=4.83D-06 MaxDP=2.35D-04 DE=-1.88D-05 OVMax= 2.83D-04

 Cycle   6  Pass 1  IDiag  1:
 E= -876.650404323632     Delta-E=       -0.000001312855 Rises=F Damp=F
 DIIS: error= 1.76D-05 at cycle   6 NSaved=   6.
 NSaved= 6 IEnMin= 6 EnMin= -876.650404323632     IErMin= 6 ErrMin= 1.76D-05
 ErrMax= 1.76D-05  0.00D+00 EMaxC= 1.00D-01 BMatC= 8.69D-08 BMatP= 2.08D-06
 IDIUse=1 WtCom= 1.00D+00 WtEn= 0.00D+00
 Coeff-Com: -0.313D-03-0.142D-02 0.765D-02 0.622D-01 0.260D+00 0.672D+00
 Coeff:     -0.313D-03-0.142D-02 0.765D-02 0.622D-01 0.260D+00 0.672D+00
 Gap=     0.299 Goal=   None    Shift=    0.000
 RMSDP=2.13D-06 MaxDP=1.28D-04 DE=-1.31D-06 OVMax= 6.67D-05

 Cycle   7  Pass 1  IDiag  1:
 E= -876.650404392198     Delta-E=       -0.000000068566 Rises=F Damp=F
 DIIS: error= 8.15D-06 at cycle   7 NSaved=   7.
 NSaved= 7 IEnMin= 7 EnMin= -876.650404392198     IErMin= 7 ErrMin= 8.15D-06
 ErrMax= 8.15D-06  0.00D+00 EMaxC= 1.00D-01 BMatC= 1.30D-08 BMatP= 8.69D-08
 IDIUse=1 WtCom= 1.00D+00 WtEn= 0.00D+00
 Coeff-Com:  0.767D-05-0.254D-02-0.128D-02 0.142D-01 0.842D-01 0.347D+00
 Coeff-Com:  0.558D+00
 Coeff:      0.767D-05-0.254D-02-0.128D-02 0.142D-01 0.842D-01 0.347D+00
 Coeff:      0.558D+00
 Gap=     0.299 Goal=   None    Shift=    0.000
 RMSDP=5.45D-07 MaxDP=2.20D-05 DE=-6.86D-08 OVMax= 2.24D-05

 Cycle   8  Pass 1  IDiag  1:
 E= -876.650404402144     Delta-E=       -0.000000009945 Rises=F Damp=F
 DIIS: error= 1.31D-06 at cycle   8 NSaved=   8.
 NSaved= 8 IEnMin= 8 EnMin= -876.650404402144     IErMin= 8 ErrMin= 1.31D-06
 ErrMax= 1.31D-06  0.00D+00 EMaxC= 1.00D-01 BMatC= 6.01D-10 BMatP= 1.30D-08
 IDIUse=1 WtCom= 1.00D+00 WtEn= 0.00D+00
 Coeff-Com:  0.173D-04-0.101D-02-0.105D-02 0.271D-02 0.215D-01 0.114D+00
 Coeff-Com:  0.249D+00 0.615D+00
 Coeff:      0.173D-04-0.101D-02-0.105D-02 0.271D-02 0.215D-01 0.114D+00
 Coeff:      0.249D+00 0.615D+00
 Gap=     0.299 Goal=   None    Shift=    0.000
 RMSDP=1.91D-07 MaxDP=1.06D-05 DE=-9.95D-09 OVMax= 7.17D-06

 Cycle   9  Pass 1  IDiag  1:
 E= -876.650404402629     Delta-E=       -0.000000000485 Rises=F Damp=F
 DIIS: error= 4.06D-07 at cycle   9 NSaved=   9.
 NSaved= 9 IEnMin= 9 EnMin= -876.650404402629     IErMin= 9 ErrMin= 4.06D-07
 ErrMax= 4.06D-07  0.00D+00 EMaxC= 1.00D-01 BMatC= 6.13D-11 BMatP= 6.01D-10
 IDIUse=1 WtCom= 1.00D+00 WtEn= 0.00D+00
 Coeff-Com:  0.673D-05-0.172D-03-0.364D-03-0.405D-03 0.226D-03 0.144D-01
 Coeff-Com:  0.507D-01 0.282D+00 0.654D+00
 Coeff:      0.673D-05-0.172D-03-0.364D-03-0.405D-03 0.226D-03 0.144D-01
 Coeff:      0.507D-01 0.282D+00 0.654D+00
 Gap=     0.299 Goal=   None    Shift=    0.000
 RMSDP=5.29D-08 MaxDP=3.05D-06 DE=-4.85D-10 OVMax= 1.81D-06

 Cycle  10  Pass 1  IDiag  1:
 E= -876.650404402668     Delta-E=       -0.000000000039 Rises=F Damp=F
 DIIS: error= 5.61D-08 at cycle  10 NSaved=  10.
 NSaved=10 IEnMin=10 EnMin= -876.650404402668     IErMin=10 ErrMin= 5.61D-08
 ErrMax= 5.61D-08  0.00D+00 EMaxC= 1.00D-01 BMatC= 1.49D-12 BMatP= 6.13D-11
 IDIUse=1 WtCom= 1.00D+00 WtEn= 0.00D+00
 Coeff-Com:  0.178D-05-0.171D-04-0.816D-04-0.289D-03-0.983D-03-0.182D-03
 Coeff-Com:  0.671D-02 0.720D-01 0.224D+00 0.699D+00
 Coeff:      0.178D-05-0.171D-04-0.816D-04-0.289D-03-0.983D-03-0.182D-03
 Coeff:      0.671D-02 0.720D-01 0.224D+00 0.699D+00
 Gap=     0.299 Goal=   None    Shift=    0.000
 RMSDP=7.56D-09 MaxDP=3.71D-07 DE=-3.87D-11 OVMax= 2.54D-07

 SCF Done:  E(RB3LYP) =  -876.650404403     A.U. after   10 cycles
            NFock= 10  Conv=0.76D-08     -V/T= 2.0028
 KE= 8.742073540153D+02 PE=-2.857893957260D+03 EE= 7.178083820745D+02
 Leave Link  502 at Thu Jun 13 12:25:12 2024, MaxMem=  1073741824 cpu:       107.8
 (Enter /apps/z_install_tree/linux-rocky8-ivybridge/gcc-12.2.0/gaussian-09-D.01-wczn3gur5lpur3omlkzwa2l5ecyxp5ef/g09/l508.exe)
 QCSCF skips out because SCF is already converged.
 Leave Link  508 at Thu Jun 13 12:25:12 2024, MaxMem=  1073741824 cpu:         0.0
 (Enter /apps/z_install_tree/linux-rocky8-ivybridge/gcc-12.2.0/gaussian-09-D.01-wczn3gur5lpur3omlkzwa2l5ecyxp5ef/g09/l701.exe)
 Compute integral first derivatives.
 ... and contract with generalized density number  0.
 R6Disp: Adding Grimme-D3 dispersion energy 1st derivatives to the gradient.
 Leave Link  701 at Thu Jun 13 12:25:13 2024, MaxMem=  1073741824 cpu:         6.0
 (Enter /apps/z_install_tree/linux-rocky8-ivybridge/gcc-12.2.0/gaussian-09-D.01-wczn3gur5lpur3omlkzwa2l5ecyxp5ef/g09/l702.exe)
 L702 exits ... SP integral derivatives will be done elsewhere.
 Leave Link  702 at Thu Jun 13 12:25:13 2024, MaxMem=  1073741824 cpu:         0.3
 (Enter /apps/z_install_tree/linux-rocky8-ivybridge/gcc-12.2.0/gaussian-09-D.01-wczn3gur5lpur3omlkzwa2l5ecyxp5ef/g09/l703.exe)
 Compute integral first derivatives, UseDBF=F ICtDFT=           0.
 Integral derivatives from FoFJK, PRISM(SPDF).
 Calling FoFJK, ICntrl=      2127 FMM=F ISym2X=0 I1Cent= 0 IOpClX= 0 NMat=1 NMatS=1 NMatT=0.
 FoFJK:  IHMeth= 1 ICntrl=    2127 DoSepK=F KAlg= 0 I1Cent=   0 FoldK=F
 IRaf=         0 NMat=   1 IRICut=       1 DoRegI=T DoRafI=F ISym2E= 0.
 FoFCou: FMM=F IPFlag=           0 FMFlag=      100000 FMFlg1=         800
         NFxFlg=           0 DoJE=F BraDBF=F KetDBF=F FulRan=T
         wScrn=  0.000000 ICntrl=    2127 IOpCl=  0 I1Cent=           0 NGrid=           0
         NMat0=    1 NMatS0=      1 NMatT0=    0 NMatD0=    1 NMtDS0=    0 NMtDT0=    0
 Symmetry not used in FoFCou.
 Leave Link  703 at Thu Jun 13 12:25:15 2024, MaxMem=  1073741824 cpu:        36.9
 (Enter /apps/z_install_tree/linux-rocky8-ivybridge/gcc-12.2.0/gaussian-09-D.01-wczn3gur5lpur3omlkzwa2l5ecyxp5ef/g09/l716.exe)
 Dipole        =-2.31090650D-02-2.39051109D-02-1.15332867D-01
 -------------------------------------------------------------------
 Center     Atomic                   Forces (Hartrees/Bohr)
 Number     Number              X              Y              Z
 -------------------------------------------------------------------
      1        6           0.004239487   -0.002051297   -0.005343805
      2        6           0.005419140    0.013951232   -0.012154315
      3        6          -0.002986206   -0.001586387    0.000144026
      4        9          -0.002183396   -0.004207559    0.003582376
      5        9           0.004904971   -0.004897716    0.004619449
      6        9          -0.007757731   -0.000880415    0.002674922
      7       17          -0.000253278    0.001401894    0.003499941
      8        1          -0.000665123    0.000129654    0.002115414
      9        1          -0.001653128   -0.002386238    0.001814128
     10        1          -0.000004444   -0.000811303   -0.000157931
     11        1           0.000939707    0.001338134   -0.000794204
 -------------------------------------------------------------------
 Cartesian Forces:  Max     0.013951232 RMS     0.004409511
 Leave Link  716 at Thu Jun 13 12:25:15 2024, MaxMem=  1073741824 cpu:         0.2
 (Enter /apps/z_install_tree/linux-rocky8-ivybridge/gcc-12.2.0/gaussian-09-D.01-wczn3gur5lpur3omlkzwa2l5ecyxp5ef/g09/l103.exe)

 GradGradGradGradGradGradGradGradGradGradGradGradGradGradGradGradGradGrad
 Berny optimization.
 Using GEDIIS/GDIIS optimizer.
 FormGI is forming the generalized inverse of G from B-inverse, IUseBI=4.
 Internal  Forces:  Max     0.009911990 RMS     0.002844315
 Search for a local minimum.
 Step number   5 out of a maximum of   56
 All quantities printed in internal units (Hartrees-Bohrs-Radians)
 RMS Force = .28443D-02 SwitMx=.10000D-02 MixMth= 1
 Mixed Optimization -- RFO/linear search
 Update second derivatives using D2CorX and points    4    5
 DE= -1.17D-02 DEPred=-1.71D-02 R= 6.84D-01
 TightC=F SS=  1.41D+00  RLast= 4.06D-01 DXNew= 8.4853D-01 1.2175D+00
 Trust test= 6.84D-01 RLast= 4.06D-01 DXMaxT set to 8.49D-01
 ITU=  1  0  0  1  0
 Use linear search instead of GDIIS.
     Eigenvalues ---    0.00230   0.00519   0.03642   0.04793   0.05414
     Eigenvalues ---    0.05590   0.08227   0.08511   0.08961   0.12062
     Eigenvalues ---    0.15311   0.15995   0.16057   0.17382   0.21538
     Eigenvalues ---    0.21899   0.22748   0.23408   0.24986   0.25087
     Eigenvalues ---    0.27286   0.31908   0.33950   0.34073   0.34078
     Eigenvalues ---    0.34281   0.59377
 RFO step:  Lambda=-1.99914098D-03 EMin= 2.30037452D-03
 Quartic linear search produced a step of -0.10818.
 Iteration  1 RMS(Cart)=  0.02278153 RMS(Int)=  0.00055879
 Iteration  2 RMS(Cart)=  0.00059110 RMS(Int)=  0.00020617
 Iteration  3 RMS(Cart)=  0.00000017 RMS(Int)=  0.00020617
 ITry= 1 IFail=0 DXMaxC= 8.29D-02 DCOld= 1.00D+10 DXMaxT= 8.49D-01 DXLimC= 3.00D+00 Rises=F
 Variable       Old X    -DE/DX   Delta X   Delta X   Delta X     New X
                                 (Linear)    (Quad)   (Total)
    R1        2.85707  -0.00060  -0.00226   0.00135  -0.00091   2.85616
    R2        2.88953  -0.00303   0.00097  -0.00997  -0.00900   2.88053
    R3        2.05673  -0.00042   0.00010  -0.00096  -0.00086   2.05587
    R4        2.05052   0.00234   0.00004   0.00650   0.00654   2.05705
    R5        2.58137  -0.00389  -0.01778   0.01280  -0.00498   2.57639
    R6        2.53961  -0.00235  -0.00786   0.01114   0.00328   2.54290
    R7        2.55081  -0.00312  -0.00951   0.00810  -0.00141   2.54940
    R8        3.44263  -0.00375   0.00196  -0.01581  -0.01384   3.42878
    R9        2.04933   0.00034   0.00004   0.00124   0.00127   2.05060
   R10        2.04510   0.00146   0.00008   0.00418   0.00426   2.04936
    A1        1.95203  -0.00069   0.00117  -0.00512  -0.00383   1.94820
    A2        1.89659  -0.00135  -0.00189  -0.01840  -0.02013   1.87646
    A3        1.90017  -0.00103   0.00391  -0.01344  -0.00948   1.89068
    A4        1.91739   0.00153  -0.00972   0.01706   0.00725   1.92464
    A5        1.91155   0.00143  -0.00017   0.01581   0.01562   1.92717
    A6        1.88479   0.00009   0.00657   0.00392   0.01026   1.89505
    A7        1.91068   0.00804   0.00449   0.04289   0.04670   1.95738
    A8        1.94156   0.00445   0.00246   0.00261   0.00459   1.94614
    A9        1.95177   0.00373   0.00455   0.00040   0.00447   1.95624
   A10        1.86816  -0.00365  -0.00259   0.00672   0.00350   1.87166
   A11        1.85856  -0.00307  -0.00138   0.01008   0.00810   1.86666
   A12        1.92926  -0.00991  -0.00831  -0.06059  -0.06917   1.86009
   A13        1.91869  -0.00029  -0.00026  -0.00260  -0.00284   1.91585
   A14        1.95566  -0.00049  -0.00102  -0.00062  -0.00163   1.95404
   A15        1.94154   0.00149   0.00207   0.00897   0.01105   1.95259
   A16        1.86353   0.00017  -0.00389  -0.00114  -0.00501   1.85852
   A17        1.86935  -0.00086  -0.00305  -0.00803  -0.01107   1.85827
   A18        1.91149  -0.00008   0.00563   0.00262   0.00825   1.91974
    D1        0.97764   0.00028  -0.01212  -0.00574  -0.01781   0.95982
    D2        3.03874   0.00353  -0.01082   0.03112   0.02045   3.05919
    D3       -1.07783  -0.00333  -0.01650  -0.04586  -0.06240  -1.14022
    D4       -1.14202  -0.00029   0.00036  -0.01139  -0.01106  -1.15308
    D5        0.91908   0.00297   0.00166   0.02548   0.02720   0.94629
    D6        3.08570  -0.00390  -0.00403  -0.05151  -0.05565   3.03006
    D7        3.09237   0.00093  -0.00877   0.00172  -0.00709   3.08528
    D8       -1.12971   0.00419  -0.00747   0.03859   0.03118  -1.09853
    D9        1.03691  -0.00268  -0.01316  -0.03840  -0.05167   0.98523
   D10        3.04977   0.00033   0.00140   0.03577   0.03723   3.08699
   D11        0.98050   0.00063   0.00700   0.03929   0.04635   1.02686
   D12       -1.16578   0.00000  -0.00127   0.02974   0.02852  -1.13726
   D13       -1.12581  -0.00078  -0.00641   0.02077   0.01425  -1.11157
   D14        3.08811  -0.00048  -0.00081   0.02430   0.02337   3.11148
   D15        0.94182  -0.00111  -0.00908   0.01474   0.00554   0.94736
   D16        0.94163   0.00111  -0.00425   0.04531   0.04111   0.98274
   D17       -1.12763   0.00140   0.00134   0.04883   0.05024  -1.07739
   D18        3.00927   0.00078  -0.00693   0.03928   0.03241   3.04167
         Item               Value     Threshold  Converged?
 Maximum Force            0.009912     0.000450     NO 
 RMS     Force            0.002844     0.000300     NO 
 Maximum Displacement     0.082925     0.001800     NO 
 RMS     Displacement     0.022842     0.001200     NO 
 Predicted change in Energy=-1.127791D-03
 Lowest energy point so far.  Saving SCF results.
 GradGradGradGradGradGradGradGradGradGradGradGradGradGradGradGradGradGrad

 Leave Link  103 at Thu Jun 13 12:25:16 2024, MaxMem=  1073741824 cpu:        10.5
 (Enter /apps/z_install_tree/linux-rocky8-ivybridge/gcc-12.2.0/gaussian-09-D.01-wczn3gur5lpur3omlkzwa2l5ecyxp5ef/g09/l202.exe)
                          Input orientation:                          
 ---------------------------------------------------------------------
 Center     Atomic      Atomic             Coordinates (Angstroms)
 Number     Number       Type             X           Y           Z
 ---------------------------------------------------------------------
      1          6           0       50.126689   35.354701   31.937520
      2          6           0       50.061740   35.642179   33.419921
      3          6           0       51.500468   35.678984   31.362109
      4          9           0       50.417554   36.925778   33.710676
      5          9           0       48.821086   35.452583   33.905292
      6          9           0       50.879627   34.837044   34.129040
      7         17           0       51.551398   35.229955   29.604852
      8          1           0       49.362808   35.959136   31.453047
      9          1           0       49.888081   34.304106   31.781802
     10          1           0       52.287958   35.111969   31.847771
     11          1           0       51.720590   36.739565   31.414970
 ---------------------------------------------------------------------
                    Distance matrix (angstroms):
                    1          2          3          4          5
     1  C    0.000000
     2  C    1.511415   0.000000
     3  C    1.524311   2.511152   0.000000
     4  F    2.386832   1.363366   2.871057   0.000000
     5  F    2.363537   1.345643   3.701098   2.181030   0.000000
     6  F    2.374372   1.349085   2.958076   2.179759   2.160218
     7  Cl   2.736183   4.116280   1.814435   4.584672   5.098819
     8  H    1.087920   2.111294   2.157857   2.672785   2.561945
     9  H    1.088546   2.122270   2.160145   3.297584   2.639447
    10  H    2.176708   2.776477   1.085133   3.202925   4.045814
    11  H    2.175184   2.824158   1.084473   2.646289   4.033008
                    6          7          8          9         10
     6  F    0.000000
     7  Cl   4.590636   0.000000
     8  H    3.274259   2.955920   0.000000
     9  H    2.603212   2.891874   1.767233   0.000000
    10  H    2.695027   2.363711   3.070831   2.533063   0.000000
    11  H    3.419501   2.363065   2.483880   3.069873   1.777159
                   11
    11  H    0.000000
 Symmetry turned off by external request.
 Stoichiometry    C3H4ClF3
 Framework group  C1[X(C3H4ClF3)]
 Deg. of freedom    27
 Full point group                 C1      NOp   1
 Rotational constants (GHZ):      4.9223025      0.9221991      0.9114477
 Leave Link  202 at Thu Jun 13 12:25:16 2024, MaxMem=  1073741824 cpu:         1.2
 (Enter /apps/z_install_tree/linux-rocky8-ivybridge/gcc-12.2.0/gaussian-09-D.01-wczn3gur5lpur3omlkzwa2l5ecyxp5ef/g09/l301.exe)
 Basis read from rwf:  (5D, 7F)
 No pseudopotential information found on rwf file.
   233 basis functions,   355 primitive gaussians,   247 cartesian basis functions
    33 alpha electrons       33 beta electrons
       nuclear repulsion energy       389.3442229241 Hartrees.
 IExCor=  402 DFT=T Ex+Corr=B3LYP ExCW=0 ScaHFX=  0.200000
 ScaDFX=  0.800000  0.720000  1.000000  0.810000 ScalE2=  1.000000  1.000000
 IRadAn=      5 IRanWt=     -1 IRanGd=            0 ICorTp=0 IEmpDi=131
 NAtoms=   11 NActive=   11 NUniq=   11 SFac= 1.00D+00 NAtFMM=   60 NAOKFM=F Big=F
 Integral buffers will be    131072 words long.
 Raffenetti 2 integral format.
 Two-electron integral symmetry is turned off.
 R6Disp:  Grimme-D3 Dispersion energy=       -0.0082441658 Hartrees.
 Nuclear repulsion after empirical dispersion term =      389.3359787583 Hartrees.
 No density basis found on file   724.
 Leave Link  301 at Thu Jun 13 12:25:16 2024, MaxMem=  1073741824 cpu:         0.7
 (Enter /apps/z_install_tree/linux-rocky8-ivybridge/gcc-12.2.0/gaussian-09-D.01-wczn3gur5lpur3omlkzwa2l5ecyxp5ef/g09/l302.exe)
 NPDir=0 NMtPBC=     1 NCelOv=     1 NCel=       1 NClECP=     1 NCelD=      1
         NCelK=      1 NCelE2=     1 NClLst=     1 CellRange=     0.0.
 One-electron integrals computed using PRISM.
 NBasis=   233 RedAO= T EigKep=  2.58D-05  NBF=   233
 NBsUse=   233 1.00D-06 EigRej= -1.00D+00 NBFU=   233
 Precomputing XC quadrature grid using
 IXCGrd= 4 IRadAn=           5 IRanWt=          -1 IRanGd=           0 AccXCQ= 0.00D+00.
 Generated NRdTot=       0 NPtTot=           0 NUsed=           0 NTot=          32
 NSgBfM=   247   247   247   247   247 MxSgAt=    11 MxSgA2=    11.
 Leave Link  302 at Thu Jun 13 12:25:17 2024, MaxMem=  1073741824 cpu:         3.0
 (Enter /apps/z_install_tree/linux-rocky8-ivybridge/gcc-12.2.0/gaussian-09-D.01-wczn3gur5lpur3omlkzwa2l5ecyxp5ef/g09/l303.exe)
 DipDrv:  MaxL=1.
 Leave Link  303 at Thu Jun 13 12:25:17 2024, MaxMem=  1073741824 cpu:         3.0
 (Enter /apps/z_install_tree/linux-rocky8-ivybridge/gcc-12.2.0/gaussian-09-D.01-wczn3gur5lpur3omlkzwa2l5ecyxp5ef/g09/l401.exe)
 Initial guess from the checkpoint file:  "chlorotrifluoropropane.chk"
 B after Tr=    -0.188073    0.661129   -0.424348
         Rot=    0.999995   -0.002666    0.000368    0.001676 Ang=  -0.36 deg.
 Guess basis will be translated and rotated to current coordinates.
 JPrj=2 DoOrth=T DoCkMO=T.
 Generating alternative initial guess.
 ExpMin= 4.38D-02 ExpMax= 1.06D+05 ExpMxC= 3.62D+03 IAcc=2 IRadAn=         4 AccDes= 0.00D+00
 Harris functional with IExCor=  402 and IRadAn=       4 diagonalized for initial guess.
 HarFok:  IExCor=  402 AccDes= 0.00D+00 IRadAn=         4 IDoV= 1 UseB2=F ITyADJ=14
 ICtDFT=  3500011 ScaDFX=  1.000000  1.000000  1.000000  1.000000
 FoFCou: FMM=F IPFlag=           0 FMFlag=      100000 FMFlg1=           0
         NFxFlg=           0 DoJE=T BraDBF=F KetDBF=T FulRan=T
         wScrn=  0.000000 ICntrl=     500 IOpCl=  0 I1Cent=   200000004 NGrid=           0
         NMat0=    1 NMatS0=      1 NMatT0=    0 NMatD0=    1 NMtDS0=    0 NMtDT0=    0
 Symmetry not used in FoFCou.
 Harris En= -876.574437440232    
 Leave Link  401 at Thu Jun 13 12:25:17 2024, MaxMem=  1073741824 cpu:         5.7
 (Enter /apps/z_install_tree/linux-rocky8-ivybridge/gcc-12.2.0/gaussian-09-D.01-wczn3gur5lpur3omlkzwa2l5ecyxp5ef/g09/l502.exe)
 Closed shell SCF:
 Using DIIS extrapolation, IDIIS=  1040.
 Two-electron integral symmetry not used.
 Keep R1 ints in memory in canonical form, NReq=379421756.
 IVT=      200693 IEndB=      200693 NGot=  1073741824 MDV=   701946441
 LenX=   701946441 LenY=   701884991
 Requested convergence on RMS density matrix=1.00D-08 within  96 cycles.
 Requested convergence on MAX density matrix=1.00D-06.
 Requested convergence on             energy=1.00D-06.
 No special actions if energy rises.
 FoFCou: FMM=F IPFlag=           0 FMFlag=           0 FMFlg1=           0
         NFxFlg=           0 DoJE=F BraDBF=F KetDBF=F FulRan=T
         wScrn=  0.000000 ICntrl=     600 IOpCl=  0 I1Cent=           0 NGrid=           0
         NMat0=    1 NMatS0=  27261 NMatT0=    0 NMatD0=    1 NMtDS0=    0 NMtDT0=    0
 Symmetry not used in FoFCou.

 Cycle   1  Pass 1  IDiag  1:
 E= -876.649580943850    
 DIIS: error= 1.52D-03 at cycle   1 NSaved=   1.
 NSaved= 1 IEnMin= 1 EnMin= -876.649580943850     IErMin= 1 ErrMin= 1.52D-03
 ErrMax= 1.52D-03  0.00D+00 EMaxC= 1.00D-01 BMatC= 1.36D-03 BMatP= 1.36D-03
 IDIUse=3 WtCom= 9.85D-01 WtEn= 1.52D-02
 Coeff-Com:  0.100D+01
 Coeff-En:   0.100D+01
 Coeff:      0.100D+01
 Gap=     0.549 Goal=   None    Shift=    0.000
 GapD=    0.549 DampG=2.000 DampE=1.000 DampFc=2.0000 IDamp=-1.
 RMSDP=5.44D-04 MaxDP=2.77D-02              OVMax= 1.12D-02

 Cycle   2  Pass 1  IDiag  1:
 E= -876.651247321240     Delta-E=       -0.001666377390 Rises=F Damp=F
 DIIS: error= 3.59D-04 at cycle   2 NSaved=   2.
 NSaved= 2 IEnMin= 2 EnMin= -876.651247321240     IErMin= 2 ErrMin= 3.59D-04
 ErrMax= 3.59D-04  0.00D+00 EMaxC= 1.00D-01 BMatC= 6.20D-05 BMatP= 1.36D-03
 IDIUse=3 WtCom= 9.96D-01 WtEn= 3.59D-03
 Coeff-Com:  0.671D-02 0.993D+00
 Coeff-En:   0.000D+00 0.100D+01
 Coeff:      0.669D-02 0.993D+00
 Gap=     0.300 Goal=   None    Shift=    0.000
 RMSDP=5.37D-05 MaxDP=1.44D-03 DE=-1.67D-03 OVMax= 2.08D-03

 Cycle   3  Pass 1  IDiag  1:
 E= -876.651224576150     Delta-E=        0.000022745090 Rises=F Damp=F
 DIIS: error= 5.79D-04 at cycle   3 NSaved=   3.
 NSaved= 3 IEnMin= 2 EnMin= -876.651247321240     IErMin= 2 ErrMin= 3.59D-04
 ErrMax= 5.79D-04  0.00D+00 EMaxC= 1.00D-01 BMatC= 1.08D-04 BMatP= 6.20D-05
 IDIUse=3 WtCom= 2.94D-01 WtEn= 7.06D-01
 Coeff-Com: -0.373D-01 0.595D+00 0.442D+00
 Coeff-En:   0.000D+00 0.605D+00 0.395D+00
 Coeff:     -0.109D-01 0.602D+00 0.409D+00
 Gap=     0.300 Goal=   None    Shift=    0.000
 RMSDP=2.89D-05 MaxDP=7.57D-04 DE= 2.27D-05 OVMax= 1.27D-03

 Cycle   4  Pass 1  IDiag  1:
 E= -876.651291720291     Delta-E=       -0.000067144141 Rises=F Damp=F
 DIIS: error= 3.77D-05 at cycle   4 NSaved=   4.
 NSaved= 4 IEnMin= 4 EnMin= -876.651291720291     IErMin= 4 ErrMin= 3.77D-05
 ErrMax= 3.77D-05  0.00D+00 EMaxC= 1.00D-01 BMatC= 6.29D-07 BMatP= 6.20D-05
 IDIUse=1 WtCom= 1.00D+00 WtEn= 0.00D+00
 Coeff-Com: -0.721D-02 0.754D-01 0.998D-01 0.832D+00
 Coeff:     -0.721D-02 0.754D-01 0.998D-01 0.832D+00
 Gap=     0.300 Goal=   None    Shift=    0.000
 RMSDP=5.42D-06 MaxDP=1.88D-04 DE=-6.71D-05 OVMax= 1.68D-04

 Cycle   5  Pass 1  IDiag  1:
 E= -876.651292134571     Delta-E=       -0.000000414280 Rises=F Damp=F
 DIIS: error= 1.80D-05 at cycle   5 NSaved=   5.
 NSaved= 5 IEnMin= 5 EnMin= -876.651292134571     IErMin= 5 ErrMin= 1.80D-05
 ErrMax= 1.80D-05  0.00D+00 EMaxC= 1.00D-01 BMatC= 9.35D-08 BMatP= 6.29D-07
 IDIUse=1 WtCom= 1.00D+00 WtEn= 0.00D+00
 Coeff-Com: -0.144D-02 0.237D-02 0.212D-01 0.345D+00 0.633D+00
 Coeff:     -0.144D-02 0.237D-02 0.212D-01 0.345D+00 0.633D+00
 Gap=     0.300 Goal=   None    Shift=    0.000
 RMSDP=1.55D-06 MaxDP=6.12D-05 DE=-4.14D-07 OVMax= 6.52D-05

 Cycle   6  Pass 1  IDiag  1:
 E= -876.651292193699     Delta-E=       -0.000000059128 Rises=F Damp=F
 DIIS: error= 8.96D-06 at cycle   6 NSaved=   6.
 NSaved= 6 IEnMin= 6 EnMin= -876.651292193699     IErMin= 6 ErrMin= 8.96D-06
 ErrMax= 8.96D-06  0.00D+00 EMaxC= 1.00D-01 BMatC= 1.76D-08 BMatP= 9.35D-08
 IDIUse=1 WtCom= 1.00D+00 WtEn= 0.00D+00
 Coeff-Com: -0.689D-04-0.827D-02 0.438D-03 0.117D+00 0.351D+00 0.540D+00
 Coeff:     -0.689D-04-0.827D-02 0.438D-03 0.117D+00 0.351D+00 0.540D+00
 Gap=     0.300 Goal=   None    Shift=    0.000
 RMSDP=4.29D-07 MaxDP=1.40D-05 DE=-5.91D-08 OVMax= 2.20D-05

 Cycle   7  Pass 1  IDiag  1:
 E= -876.651292203964     Delta-E=       -0.000000010265 Rises=F Damp=F
 DIIS: error= 3.00D-06 at cycle   7 NSaved=   7.
 NSaved= 7 IEnMin= 7 EnMin= -876.651292203964     IErMin= 7 ErrMin= 3.00D-06
 ErrMax= 3.00D-06  0.00D+00 EMaxC= 1.00D-01 BMatC= 1.02D-09 BMatP= 1.76D-08
 IDIUse=1 WtCom= 1.00D+00 WtEn= 0.00D+00
 Coeff-Com:  0.789D-04-0.448D-02-0.200D-02 0.301D-01 0.122D+00 0.268D+00
 Coeff-Com:  0.587D+00
 Coeff:      0.789D-04-0.448D-02-0.200D-02 0.301D-01 0.122D+00 0.268D+00
 Coeff:      0.587D+00
 Gap=     0.300 Goal=   None    Shift=    0.000
 RMSDP=1.14D-07 MaxDP=4.33D-06 DE=-1.03D-08 OVMax= 3.99D-06

 Cycle   8  Pass 1  IDiag  1:
 E= -876.651292204570     Delta-E=       -0.000000000606 Rises=F Damp=F
 DIIS: error= 2.54D-07 at cycle   8 NSaved=   8.
 NSaved= 8 IEnMin= 8 EnMin= -876.651292204570     IErMin= 8 ErrMin= 2.54D-07
 ErrMax= 2.54D-07  0.00D+00 EMaxC= 1.00D-01 BMatC= 1.38D-11 BMatP= 1.02D-09
 IDIUse=1 WtCom= 1.00D+00 WtEn= 0.00D+00
 Coeff-Com:  0.211D-04-0.671D-03-0.566D-03 0.254D-02 0.147D-01 0.484D-01
 Coeff-Com:  0.152D+00 0.784D+00
 Coeff:      0.211D-04-0.671D-03-0.566D-03 0.254D-02 0.147D-01 0.484D-01
 Coeff:      0.152D+00 0.784D+00
 Gap=     0.300 Goal=   None    Shift=    0.000
 RMSDP=2.44D-08 MaxDP=9.76D-07 DE=-6.06D-10 OVMax= 7.53D-07

 Cycle   9  Pass 1  IDiag  1:
 E= -876.651292204578     Delta-E=       -0.000000000008 Rises=F Damp=F
 DIIS: error= 5.78D-08 at cycle   9 NSaved=   9.
 NSaved= 9 IEnMin= 9 EnMin= -876.651292204578     IErMin= 9 ErrMin= 5.78D-08
 ErrMax= 5.78D-08  0.00D+00 EMaxC= 1.00D-01 BMatC= 1.55D-12 BMatP= 1.38D-11
 IDIUse=1 WtCom= 1.00D+00 WtEn= 0.00D+00
 Coeff-Com:  0.538D-05-0.805D-04-0.153D-03-0.302D-03 0.738D-03 0.842D-02
 Coeff-Com:  0.374D-01 0.332D+00 0.622D+00
 Coeff:      0.538D-05-0.805D-04-0.153D-03-0.302D-03 0.738D-03 0.842D-02
 Coeff:      0.374D-01 0.332D+00 0.622D+00
 Gap=     0.300 Goal=   None    Shift=    0.000
 RMSDP=6.98D-09 MaxDP=2.73D-07 DE=-8.41D-12 OVMax= 3.13D-07

 SCF Done:  E(RB3LYP) =  -876.651292205     A.U. after    9 cycles
            NFock=  9  Conv=0.70D-08     -V/T= 2.0028
 KE= 8.742302426836D+02 PE=-2.858145098335D+03 EE= 7.179275846883D+02
 Leave Link  502 at Thu Jun 13 12:25:27 2024, MaxMem=  1073741824 cpu:       101.8
 (Enter /apps/z_install_tree/linux-rocky8-ivybridge/gcc-12.2.0/gaussian-09-D.01-wczn3gur5lpur3omlkzwa2l5ecyxp5ef/g09/l508.exe)
 QCSCF skips out because SCF is already converged.
 Leave Link  508 at Thu Jun 13 12:25:27 2024, MaxMem=  1073741824 cpu:         0.0
 (Enter /apps/z_install_tree/linux-rocky8-ivybridge/gcc-12.2.0/gaussian-09-D.01-wczn3gur5lpur3omlkzwa2l5ecyxp5ef/g09/l701.exe)
 Compute integral first derivatives.
 ... and contract with generalized density number  0.
 R6Disp: Adding Grimme-D3 dispersion energy 1st derivatives to the gradient.
 Leave Link  701 at Thu Jun 13 12:25:28 2024, MaxMem=  1073741824 cpu:         5.4
 (Enter /apps/z_install_tree/linux-rocky8-ivybridge/gcc-12.2.0/gaussian-09-D.01-wczn3gur5lpur3omlkzwa2l5ecyxp5ef/g09/l702.exe)
 L702 exits ... SP integral derivatives will be done elsewhere.
 Leave Link  702 at Thu Jun 13 12:25:28 2024, MaxMem=  1073741824 cpu:         0.3
 (Enter /apps/z_install_tree/linux-rocky8-ivybridge/gcc-12.2.0/gaussian-09-D.01-wczn3gur5lpur3omlkzwa2l5ecyxp5ef/g09/l703.exe)
 Compute integral first derivatives, UseDBF=F ICtDFT=           0.
 Integral derivatives from FoFJK, PRISM(SPDF).
 Calling FoFJK, ICntrl=      2127 FMM=F ISym2X=0 I1Cent= 0 IOpClX= 0 NMat=1 NMatS=1 NMatT=0.
 FoFJK:  IHMeth= 1 ICntrl=    2127 DoSepK=F KAlg= 0 I1Cent=   0 FoldK=F
 IRaf=         0 NMat=   1 IRICut=       1 DoRegI=T DoRafI=F ISym2E= 0.
 FoFCou: FMM=F IPFlag=           0 FMFlag=      100000 FMFlg1=         800
         NFxFlg=           0 DoJE=F BraDBF=F KetDBF=F FulRan=T
         wScrn=  0.000000 ICntrl=    2127 IOpCl=  0 I1Cent=           0 NGrid=           0
         NMat0=    1 NMatS0=      1 NMatT0=    0 NMatD0=    1 NMtDS0=    0 NMtDT0=    0
 Symmetry not used in FoFCou.
 Leave Link  703 at Thu Jun 13 12:25:30 2024, MaxMem=  1073741824 cpu:        33.8
 (Enter /apps/z_install_tree/linux-rocky8-ivybridge/gcc-12.2.0/gaussian-09-D.01-wczn3gur5lpur3omlkzwa2l5ecyxp5ef/g09/l716.exe)
 Dipole        = 1.30933345D-02-5.65479962D-03-1.79880636D-01
 -------------------------------------------------------------------
 Center     Atomic                   Forces (Hartrees/Bohr)
 Number     Number              X              Y              Z
 -------------------------------------------------------------------
      1        6           0.002559852    0.002950498   -0.000991865
      2        6           0.000115466    0.002829543    0.002954697
      3        6          -0.001100591   -0.001173198   -0.000814108
      4        9          -0.001773327   -0.006228853   -0.002466196
      5        9          -0.001949544    0.001213435   -0.001208519
      6        9           0.003333474    0.000049749   -0.000420782
      7       17          -0.000069135    0.000130045    0.000056967
      8        1          -0.000581227   -0.000429512   -0.000139722
      9        1          -0.000676992    0.000496832    0.001601848
     10        1          -0.000087565    0.000349503    0.000482504
     11        1           0.000229588   -0.000188041    0.000945176
 -------------------------------------------------------------------
 Cartesian Forces:  Max     0.006228853 RMS     0.001804666
 Leave Link  716 at Thu Jun 13 12:25:30 2024, MaxMem=  1073741824 cpu:         0.2
 (Enter /apps/z_install_tree/linux-rocky8-ivybridge/gcc-12.2.0/gaussian-09-D.01-wczn3gur5lpur3omlkzwa2l5ecyxp5ef/g09/l103.exe)

 GradGradGradGradGradGradGradGradGradGradGradGradGradGradGradGradGradGrad
 Berny optimization.
 Using GEDIIS/GDIIS optimizer.
 FormGI is forming the generalized inverse of G from B-inverse, IUseBI=4.
 Internal  Forces:  Max     0.006852203 RMS     0.001381992
 Search for a local minimum.
 Step number   6 out of a maximum of   56
 All quantities printed in internal units (Hartrees-Bohrs-Radians)
 RMS Force = .13820D-02 SwitMx=.10000D-02 MixMth= 1
 Mixed Optimization -- RFO/linear search
 Update second derivatives using D2CorX and points    4    5    6
 DE= -8.88D-04 DEPred=-1.13D-03 R= 7.87D-01
 TightC=F SS=  1.41D+00  RLast= 1.77D-01 DXNew= 1.4270D+00 5.3153D-01
 Trust test= 7.87D-01 RLast= 1.77D-01 DXMaxT set to 8.49D-01
 ITU=  1  1  0  0  1  0
 Use linear search instead of GDIIS.
     Eigenvalues ---    0.00229   0.00518   0.03690   0.04767   0.05369
     Eigenvalues ---    0.05609   0.07294   0.08270   0.09017   0.12053
     Eigenvalues ---    0.15921   0.16009   0.16572   0.17852   0.21445
     Eigenvalues ---    0.21946   0.22762   0.24914   0.25015   0.27009
     Eigenvalues ---    0.29155   0.32215   0.34044   0.34073   0.34130
     Eigenvalues ---    0.34586   0.59469
 RFO step:  Lambda=-4.72022745D-04 EMin= 2.29370731D-03
 Quartic linear search produced a step of -0.18271.
 Iteration  1 RMS(Cart)=  0.03754654 RMS(Int)=  0.00074085
 Iteration  2 RMS(Cart)=  0.00084239 RMS(Int)=  0.00004112
 Iteration  3 RMS(Cart)=  0.00000036 RMS(Int)=  0.00004111
 ITry= 1 IFail=0 DXMaxC= 9.84D-02 DCOld= 1.00D+10 DXMaxT= 8.49D-01 DXLimC= 3.00D+00 Rises=F
 Variable       Old X    -DE/DX   Delta X   Delta X   Delta X     New X
                                 (Linear)    (Quad)   (Total)
    R1        2.85616  -0.00151   0.00017  -0.00355  -0.00339   2.85277
    R2        2.88053  -0.00137   0.00164  -0.00757  -0.00593   2.87461
    R3        2.05587   0.00023   0.00016   0.00019   0.00034   2.05622
    R4        2.05705  -0.00056  -0.00119   0.00079  -0.00040   2.05665
    R5        2.57639  -0.00685   0.00091  -0.02840  -0.02749   2.54890
    R6        2.54290   0.00119  -0.00060   0.01369   0.01309   2.55598
    R7        2.54940   0.00177   0.00026   0.01443   0.01469   2.56409
    R8        3.42878  -0.00009   0.00253  -0.00603  -0.00350   3.42529
    R9        2.05060  -0.00003  -0.00023   0.00026   0.00003   2.05063
   R10        2.04936  -0.00009  -0.00078   0.00108   0.00030   2.04966
    A1        1.94820  -0.00017   0.00070  -0.00276  -0.00208   1.94612
    A2        1.87646   0.00019   0.00368  -0.00282   0.00083   1.87728
    A3        1.89068  -0.00115   0.00173  -0.01821  -0.01648   1.87420
    A4        1.92464   0.00047  -0.00132   0.01540   0.01408   1.93872
    A5        1.92717   0.00080  -0.00285   0.00862   0.00571   1.93287
    A6        1.89505  -0.00019  -0.00188  -0.00105  -0.00297   1.89208
    A7        1.95738  -0.00174  -0.00853   0.00390  -0.00450   1.95288
    A8        1.94614  -0.00138  -0.00084  -0.00207  -0.00282   1.94332
    A9        1.95624  -0.00126  -0.00082  -0.00316  -0.00389   1.95236
   A10        1.87166   0.00090  -0.00064   0.00198   0.00145   1.87312
   A11        1.86666   0.00072  -0.00148   0.00170   0.00035   1.86701
   A12        1.86009   0.00315   0.01264  -0.00231   0.01038   1.87046
   A13        1.91585   0.00023   0.00052   0.00131   0.00183   1.91768
   A14        1.95404  -0.00033   0.00030  -0.00263  -0.00234   1.95170
   A15        1.95259  -0.00029  -0.00202   0.00044  -0.00159   1.95100
   A16        1.85852   0.00033   0.00091   0.00422   0.00514   1.86366
   A17        1.85827   0.00031   0.00202   0.00165   0.00367   1.86195
   A18        1.91974  -0.00018  -0.00151  -0.00454  -0.00606   1.91368
    D1        0.95982   0.00033   0.00325   0.04296   0.04618   1.00601
    D2        3.05919  -0.00069  -0.00374   0.04676   0.04297   3.10217
    D3       -1.14022   0.00153   0.01140   0.04023   0.05163  -1.08860
    D4       -1.15308  -0.00028   0.00202   0.02745   0.02949  -1.12359
    D5        0.94629  -0.00130  -0.00497   0.03125   0.02628   0.97257
    D6        3.03006   0.00092   0.01017   0.02473   0.03493   3.06499
    D7        3.08528   0.00045   0.00130   0.03975   0.04106   3.12634
    D8       -1.09853  -0.00057  -0.00570   0.04355   0.03785  -1.06069
    D9        0.98523   0.00164   0.00944   0.03702   0.04650   1.03173
   D10        3.08699  -0.00036  -0.00680   0.05345   0.04662   3.13362
   D11        1.02686  -0.00072  -0.00847   0.04898   0.04049   1.06735
   D12       -1.13726  -0.00001  -0.00521   0.05662   0.05139  -1.08588
   D13       -1.11157   0.00009  -0.00260   0.05833   0.05573  -1.05584
   D14        3.11148  -0.00027  -0.00427   0.05387   0.04960  -3.12210
   D15        0.94736   0.00044  -0.00101   0.06151   0.06049   1.00786
   D16        0.98274   0.00067  -0.00751   0.07246   0.06497   1.04771
   D17       -1.07739   0.00031  -0.00918   0.06800   0.05884  -1.01855
   D18        3.04167   0.00102  -0.00592   0.07564   0.06973   3.11141
         Item               Value     Threshold  Converged?
 Maximum Force            0.006852     0.000450     NO 
 RMS     Force            0.001382     0.000300     NO 
 Maximum Displacement     0.098359     0.001800     NO 
 RMS     Displacement     0.037566     0.001200     NO 
 Predicted change in Energy=-2.910929D-04
 Lowest energy point so far.  Saving SCF results.
 GradGradGradGradGradGradGradGradGradGradGradGradGradGradGradGradGradGrad

 Leave Link  103 at Thu Jun 13 12:25:31 2024, MaxMem=  1073741824 cpu:         7.9
 (Enter /apps/z_install_tree/linux-rocky8-ivybridge/gcc-12.2.0/gaussian-09-D.01-wczn3gur5lpur3omlkzwa2l5ecyxp5ef/g09/l202.exe)
                          Input orientation:                          
 ---------------------------------------------------------------------
 Center     Atomic      Atomic             Coordinates (Angstroms)
 Number     Number       Type             X           Y           Z
 ---------------------------------------------------------------------
      1          6           0       50.127168   35.357460   31.935140
      2          6           0       50.060827   35.654195   33.413825
      3          6           0       51.504453   35.663187   31.366288
      4          9           0       50.371807   36.938683   33.683448
      5          9           0       48.821541   35.427999   33.906212
      6          9           0       50.921013   34.881100   34.123383
      7         17           0       51.538774   35.279216   29.595173
      8          1           0       49.360279   35.954427   31.445774
      9          1           0       49.880333   34.305736   31.803154
     10          1           0       52.276544   35.059920   31.832647
     11          1           0       51.755262   36.714076   31.461956
 ---------------------------------------------------------------------
                    Distance matrix (angstroms):
                    1          2          3          4          5
     1  C    0.000000
     2  C    1.509623   0.000000
     3  C    1.521176   2.505303   0.000000
     4  F    2.369957   1.348820   2.877326   0.000000
     5  F    2.365325   1.352568   3.701965   2.176031   0.000000
     6  F    2.376029   1.356860   2.924660   2.174585   2.180377
     7  Cl   2.733898   4.111816   1.812584   4.563949   5.098092
     8  H    1.088102   2.110481   2.165323   2.645587   2.573153
     9  H    1.088334   2.108359   2.161317   3.272531   2.608326
    10  H    2.172293   2.786160   1.085148   3.253189   4.046258
    11  H    2.171405   2.793609   1.084631   2.626675   4.029280
                    6          7          8          9         10
     6  F    0.000000
     7  Cl   4.587462   0.000000
     8  H    3.279864   2.937086   0.000000
     9  H    2.607205   2.928014   1.765321   0.000000
    10  H    2.667755   2.366154   3.074804   2.512269   0.000000
    11  H    3.337509   2.364438   2.512623   3.071136   1.773522
                   11
    11  H    0.000000
 Symmetry turned off by external request.
 Stoichiometry    C3H4ClF3
 Framework group  C1[X(C3H4ClF3)]
 Deg. of freedom    27
 Full point group                 C1      NOp   1
 Rotational constants (GHZ):      4.9215668      0.9251812      0.9142727
 Leave Link  202 at Thu Jun 13 12:25:31 2024, MaxMem=  1073741824 cpu:         2.1
 (Enter /apps/z_install_tree/linux-rocky8-ivybridge/gcc-12.2.0/gaussian-09-D.01-wczn3gur5lpur3omlkzwa2l5ecyxp5ef/g09/l301.exe)
 Basis read from rwf:  (5D, 7F)
 No pseudopotential information found on rwf file.
   233 basis functions,   355 primitive gaussians,   247 cartesian basis functions
    33 alpha electrons       33 beta electrons
       nuclear repulsion energy       389.6916053882 Hartrees.
 IExCor=  402 DFT=T Ex+Corr=B3LYP ExCW=0 ScaHFX=  0.200000
 ScaDFX=  0.800000  0.720000  1.000000  0.810000 ScalE2=  1.000000  1.000000
 IRadAn=      5 IRanWt=     -1 IRanGd=            0 ICorTp=0 IEmpDi=131
 NAtoms=   11 NActive=   11 NUniq=   11 SFac= 1.00D+00 NAtFMM=   60 NAOKFM=F Big=F
 Integral buffers will be    131072 words long.
 Raffenetti 2 integral format.
 Two-electron integral symmetry is turned off.
 R6Disp:  Grimme-D3 Dispersion energy=       -0.0082970631 Hartrees.
 Nuclear repulsion after empirical dispersion term =      389.6833083252 Hartrees.
 No density basis found on file   724.
 Leave Link  301 at Thu Jun 13 12:25:31 2024, MaxMem=  1073741824 cpu:         1.3
 (Enter /apps/z_install_tree/linux-rocky8-ivybridge/gcc-12.2.0/gaussian-09-D.01-wczn3gur5lpur3omlkzwa2l5ecyxp5ef/g09/l302.exe)
 NPDir=0 NMtPBC=     1 NCelOv=     1 NCel=       1 NClECP=     1 NCelD=      1
         NCelK=      1 NCelE2=     1 NClLst=     1 CellRange=     0.0.
 One-electron integrals computed using PRISM.
 NBasis=   233 RedAO= T EigKep=  2.51D-05  NBF=   233
 NBsUse=   233 1.00D-06 EigRej= -1.00D+00 NBFU=   233
 Precomputing XC quadrature grid using
 IXCGrd= 4 IRadAn=           5 IRanWt=          -1 IRanGd=           0 AccXCQ= 0.00D+00.
 Generated NRdTot=       0 NPtTot=           0 NUsed=           0 NTot=          32
 NSgBfM=   247   247   247   247   247 MxSgAt=    11 MxSgA2=    11.
 Leave Link  302 at Thu Jun 13 12:25:32 2024, MaxMem=  1073741824 cpu:         2.8
 (Enter /apps/z_install_tree/linux-rocky8-ivybridge/gcc-12.2.0/gaussian-09-D.01-wczn3gur5lpur3omlkzwa2l5ecyxp5ef/g09/l303.exe)
 DipDrv:  MaxL=1.
 Leave Link  303 at Thu Jun 13 12:25:32 2024, MaxMem=  1073741824 cpu:         5.2
 (Enter /apps/z_install_tree/linux-rocky8-ivybridge/gcc-12.2.0/gaussian-09-D.01-wczn3gur5lpur3omlkzwa2l5ecyxp5ef/g09/l401.exe)
 Initial guess from the checkpoint file:  "chlorotrifluoropropane.chk"
 B after Tr=     1.312584   -2.286597    0.532324
         Rot=    0.999931    0.001130   -0.002054   -0.011470 Ang=   1.34 deg.
 Guess basis will be translated and rotated to current coordinates.
 JPrj=2 DoOrth=T DoCkMO=T.
 Generating alternative initial guess.
 ExpMin= 4.38D-02 ExpMax= 1.06D+05 ExpMxC= 3.62D+03 IAcc=2 IRadAn=         4 AccDes= 0.00D+00
 Harris functional with IExCor=  402 and IRadAn=       4 diagonalized for initial guess.
 HarFok:  IExCor=  402 AccDes= 0.00D+00 IRadAn=         4 IDoV= 1 UseB2=F ITyADJ=14
 ICtDFT=  3500011 ScaDFX=  1.000000  1.000000  1.000000  1.000000
 FoFCou: FMM=F IPFlag=           0 FMFlag=      100000 FMFlg1=           0
         NFxFlg=           0 DoJE=T BraDBF=F KetDBF=T FulRan=T
         wScrn=  0.000000 ICntrl=     500 IOpCl=  0 I1Cent=   200000004 NGrid=           0
         NMat0=    1 NMatS0=      1 NMatT0=    0 NMatD0=    1 NMtDS0=    0 NMtDT0=    0
 Symmetry not used in FoFCou.
 Harris En= -876.574848420303    
 Leave Link  401 at Thu Jun 13 12:25:33 2024, MaxMem=  1073741824 cpu:        10.0
 (Enter /apps/z_install_tree/linux-rocky8-ivybridge/gcc-12.2.0/gaussian-09-D.01-wczn3gur5lpur3omlkzwa2l5ecyxp5ef/g09/l502.exe)
 Closed shell SCF:
 Using DIIS extrapolation, IDIIS=  1040.
 Two-electron integral symmetry not used.
 Keep R1 ints in memory in canonical form, NReq=379421756.
 IVT=      200693 IEndB=      200693 NGot=  1073741824 MDV=   701946441
 LenX=   701946441 LenY=   701884991
 Requested convergence on RMS density matrix=1.00D-08 within  96 cycles.
 Requested convergence on MAX density matrix=1.00D-06.
 Requested convergence on             energy=1.00D-06.
 No special actions if energy rises.
 FoFCou: FMM=F IPFlag=           0 FMFlag=           0 FMFlg1=           0
         NFxFlg=           0 DoJE=F BraDBF=F KetDBF=F FulRan=T
         wScrn=  0.000000 ICntrl=     600 IOpCl=  0 I1Cent=           0 NGrid=           0
         NMat0=    1 NMatS0=  27261 NMatT0=    0 NMatD0=    1 NMtDS0=    0 NMtDT0=    0
 Symmetry not used in FoFCou.

 Cycle   1  Pass 1  IDiag  1:
 E= -876.649444605927    
 DIIS: error= 2.41D-03 at cycle   1 NSaved=   1.
 NSaved= 1 IEnMin= 1 EnMin= -876.649444605927     IErMin= 1 ErrMin= 2.41D-03
 ErrMax= 2.41D-03  0.00D+00 EMaxC= 1.00D-01 BMatC= 1.42D-03 BMatP= 1.42D-03
 IDIUse=3 WtCom= 9.76D-01 WtEn= 2.41D-02
 Coeff-Com:  0.100D+01
 Coeff-En:   0.100D+01
 Coeff:      0.100D+01
 Gap=     0.550 Goal=   None    Shift=    0.000
 GapD=    0.550 DampG=2.000 DampE=1.000 DampFc=2.0000 IDamp=-1.
 RMSDP=4.23D-04 MaxDP=1.60D-02              OVMax= 1.33D-02

 Cycle   2  Pass 1  IDiag  1:
 E= -876.651488654321     Delta-E=       -0.002044048394 Rises=F Damp=F
 DIIS: error= 4.71D-04 at cycle   2 NSaved=   2.
 NSaved= 2 IEnMin= 2 EnMin= -876.651488654321     IErMin= 2 ErrMin= 4.71D-04
 ErrMax= 4.71D-04  0.00D+00 EMaxC= 1.00D-01 BMatC= 4.40D-05 BMatP= 1.42D-03
 IDIUse=3 WtCom= 9.95D-01 WtEn= 4.71D-03
 Coeff-Com: -0.104D-01 0.101D+01
 Coeff-En:   0.000D+00 0.100D+01
 Coeff:     -0.104D-01 0.101D+01
 Gap=     0.301 Goal=   None    Shift=    0.000
 RMSDP=4.37D-05 MaxDP=1.94D-03 DE=-2.04D-03 OVMax= 2.28D-03

 Cycle   3  Pass 1  IDiag  1:
 E= -876.651482454496     Delta-E=        0.000006199825 Rises=F Damp=F
 DIIS: error= 7.38D-04 at cycle   3 NSaved=   3.
 NSaved= 3 IEnMin= 2 EnMin= -876.651488654321     IErMin= 2 ErrMin= 4.71D-04
 ErrMax= 7.38D-04  0.00D+00 EMaxC= 1.00D-01 BMatC= 7.82D-05 BMatP= 4.40D-05
 IDIUse=3 WtCom= 2.69D-01 WtEn= 7.31D-01
 Coeff-Com: -0.362D-01 0.601D+00 0.435D+00
 Coeff-En:   0.000D+00 0.546D+00 0.454D+00
 Coeff:     -0.973D-02 0.561D+00 0.449D+00
 Gap=     0.300 Goal=   None    Shift=    0.000
 RMSDP=2.31D-05 MaxDP=1.03D-03 DE= 6.20D-06 OVMax= 1.42D-03

 Cycle   4  Pass 1  IDiag  1:
 E= -876.651524060021     Delta-E=       -0.000041605525 Rises=F Damp=F
 DIIS: error= 1.26D-04 at cycle   4 NSaved=   4.
 NSaved= 4 IEnMin= 4 EnMin= -876.651524060021     IErMin= 4 ErrMin= 1.26D-04
 ErrMax= 1.26D-04  0.00D+00 EMaxC= 1.00D-01 BMatC= 2.89D-06 BMatP= 4.40D-05
 IDIUse=3 WtCom= 9.99D-01 WtEn= 1.26D-03
 Coeff-Com: -0.892D-02 0.910D-01 0.195D+00 0.723D+00
 Coeff-En:   0.000D+00 0.000D+00 0.000D+00 0.100D+01
 Coeff:     -0.891D-02 0.909D-01 0.195D+00 0.723D+00
 Gap=     0.300 Goal=   None    Shift=    0.000
 RMSDP=5.05D-06 MaxDP=1.45D-04 DE=-4.16D-05 OVMax= 2.72D-04

 Cycle   5  Pass 1  IDiag  1:
 E= -876.651525796767     Delta-E=       -0.000001736746 Rises=F Damp=F
 DIIS: error= 1.29D-05 at cycle   5 NSaved=   5.
 NSaved= 5 IEnMin= 5 EnMin= -876.651525796767     IErMin= 5 ErrMin= 1.29D-05
 ErrMax= 1.29D-05  0.00D+00 EMaxC= 1.00D-01 BMatC= 2.81D-08 BMatP= 2.89D-06
 IDIUse=1 WtCom= 1.00D+00 WtEn= 0.00D+00
 Coeff-Com: -0.927D-03-0.242D-02 0.329D-01 0.198D+00 0.773D+00
 Coeff:     -0.927D-03-0.242D-02 0.329D-01 0.198D+00 0.773D+00
 Gap=     0.300 Goal=   None    Shift=    0.000
 RMSDP=1.58D-06 MaxDP=9.27D-05 DE=-1.74D-06 OVMax= 5.25D-05

 Cycle   6  Pass 1  IDiag  1:
 E= -876.651525816760     Delta-E=       -0.000000019993 Rises=F Damp=F
 DIIS: error= 8.14D-06 at cycle   6 NSaved=   6.
 NSaved= 6 IEnMin= 6 EnMin= -876.651525816760     IErMin= 6 ErrMin= 8.14D-06
 ErrMax= 8.14D-06  0.00D+00 EMaxC= 1.00D-01 BMatC= 5.36D-09 BMatP= 2.81D-08
 IDIUse=1 WtCom= 1.00D+00 WtEn= 0.00D+00
 Coeff-Com:  0.139D-03-0.711D-02 0.302D-02 0.504D-01 0.364D+00 0.590D+00
 Coeff:      0.139D-03-0.711D-02 0.302D-02 0.504D-01 0.364D+00 0.590D+00
 Gap=     0.300 Goal=   None    Shift=    0.000
 RMSDP=3.76D-07 MaxDP=1.69D-05 DE=-2.00D-08 OVMax= 1.46D-05

 Cycle   7  Pass 1  IDiag  1:
 E= -876.651525820295     Delta-E=       -0.000000003534 Rises=F Damp=F
 DIIS: error= 1.80D-06 at cycle   7 NSaved=   7.
 NSaved= 7 IEnMin= 7 EnMin= -876.651525820295     IErMin= 7 ErrMin= 1.80D-06
 ErrMax= 1.80D-06  0.00D+00 EMaxC= 1.00D-01 BMatC= 2.87D-10 BMatP= 5.36D-09
 IDIUse=1 WtCom= 1.00D+00 WtEn= 0.00D+00
 Coeff-Com:  0.923D-04-0.303D-02 0.955D-04 0.156D-01 0.132D+00 0.279D+00
 Coeff-Com:  0.577D+00
 Coeff:      0.923D-04-0.303D-02 0.955D-04 0.156D-01 0.132D+00 0.279D+00
 Coeff:      0.577D+00
 Gap=     0.300 Goal=   None    Shift=    0.000
 RMSDP=8.38D-08 MaxDP=4.68D-06 DE=-3.53D-09 OVMax= 3.63D-06

 Cycle   8  Pass 1  IDiag  1:
 E= -876.651525820470     Delta-E=       -0.000000000176 Rises=F Damp=F
 DIIS: error= 3.28D-07 at cycle   8 NSaved=   8.
 NSaved= 8 IEnMin= 8 EnMin= -876.651525820470     IErMin= 8 ErrMin= 3.28D-07
 ErrMax= 3.28D-07  0.00D+00 EMaxC= 1.00D-01 BMatC= 2.65D-11 BMatP= 2.87D-10
 IDIUse=1 WtCom= 1.00D+00 WtEn= 0.00D+00
 Coeff-Com:  0.314D-04-0.743D-03-0.347D-03 0.211D-02 0.240D-01 0.718D-01
 Coeff-Com:  0.280D+00 0.623D+00
 Coeff:      0.314D-04-0.743D-03-0.347D-03 0.211D-02 0.240D-01 0.718D-01
 Coeff:      0.280D+00 0.623D+00
 Gap=     0.300 Goal=   None    Shift=    0.000
 RMSDP=2.88D-08 MaxDP=1.14D-06 DE=-1.76D-10 OVMax= 9.96D-07

 Cycle   9  Pass 1  IDiag  1:
 E= -876.651525820482     Delta-E=       -0.000000000012 Rises=F Damp=F
 DIIS: error= 6.14D-08 at cycle   9 NSaved=   9.
 NSaved= 9 IEnMin= 9 EnMin= -876.651525820482     IErMin= 9 ErrMin= 6.14D-08
 ErrMax= 6.14D-08  0.00D+00 EMaxC= 1.00D-01 BMatC= 1.53D-12 BMatP= 2.65D-11
 IDIUse=1 WtCom= 1.00D+00 WtEn= 0.00D+00
 Coeff-Com:  0.524D-05-0.349D-04-0.181D-03-0.707D-03-0.288D-02 0.434D-02
 Coeff-Com:  0.657D-01 0.260D+00 0.674D+00
 Coeff:      0.524D-05-0.349D-04-0.181D-03-0.707D-03-0.288D-02 0.434D-02
 Coeff:      0.657D-01 0.260D+00 0.674D+00
 Gap=     0.300 Goal=   None    Shift=    0.000
 RMSDP=9.41D-09 MaxDP=4.93D-07 DE=-1.18D-11 OVMax= 3.17D-07

 SCF Done:  E(RB3LYP) =  -876.651525820     A.U. after    9 cycles
            NFock=  9  Conv=0.94D-08     -V/T= 2.0028
 KE= 8.742377415022D+02 PE=-2.858839754992D+03 EE= 7.182671793444D+02
 Leave Link  502 at Thu Jun 13 12:25:42 2024, MaxMem=  1073741824 cpu:        99.1
 (Enter /apps/z_install_tree/linux-rocky8-ivybridge/gcc-12.2.0/gaussian-09-D.01-wczn3gur5lpur3omlkzwa2l5ecyxp5ef/g09/l508.exe)
 QCSCF skips out because SCF is already converged.
 Leave Link  508 at Thu Jun 13 12:25:42 2024, MaxMem=  1073741824 cpu:         0.0
 (Enter /apps/z_install_tree/linux-rocky8-ivybridge/gcc-12.2.0/gaussian-09-D.01-wczn3gur5lpur3omlkzwa2l5ecyxp5ef/g09/l701.exe)
 Compute integral first derivatives.
 ... and contract with generalized density number  0.
 R6Disp: Adding Grimme-D3 dispersion energy 1st derivatives to the gradient.
 Leave Link  701 at Thu Jun 13 12:25:42 2024, MaxMem=  1073741824 cpu:         2.1
 (Enter /apps/z_install_tree/linux-rocky8-ivybridge/gcc-12.2.0/gaussian-09-D.01-wczn3gur5lpur3omlkzwa2l5ecyxp5ef/g09/l702.exe)
 L702 exits ... SP integral derivatives will be done elsewhere.
 Leave Link  702 at Thu Jun 13 12:25:43 2024, MaxMem=  1073741824 cpu:         0.3
 (Enter /apps/z_install_tree/linux-rocky8-ivybridge/gcc-12.2.0/gaussian-09-D.01-wczn3gur5lpur3omlkzwa2l5ecyxp5ef/g09/l703.exe)
 Compute integral first derivatives, UseDBF=F ICtDFT=           0.
 Integral derivatives from FoFJK, PRISM(SPDF).
 Calling FoFJK, ICntrl=      2127 FMM=F ISym2X=0 I1Cent= 0 IOpClX= 0 NMat=1 NMatS=1 NMatT=0.
 FoFJK:  IHMeth= 1 ICntrl=    2127 DoSepK=F KAlg= 0 I1Cent=   0 FoldK=F
 IRaf=         0 NMat=   1 IRICut=       1 DoRegI=T DoRafI=F ISym2E= 0.
 FoFCou: FMM=F IPFlag=           0 FMFlag=      100000 FMFlg1=         800
         NFxFlg=           0 DoJE=F BraDBF=F KetDBF=F FulRan=T
         wScrn=  0.000000 ICntrl=    2127 IOpCl=  0 I1Cent=           0 NGrid=           0
         NMat0=    1 NMatS0=      1 NMatT0=    0 NMatD0=    1 NMtDS0=    0 NMtDT0=    0
 Symmetry not used in FoFCou.
 Leave Link  703 at Thu Jun 13 12:25:44 2024, MaxMem=  1073741824 cpu:        34.9
 (Enter /apps/z_install_tree/linux-rocky8-ivybridge/gcc-12.2.0/gaussian-09-D.01-wczn3gur5lpur3omlkzwa2l5ecyxp5ef/g09/l716.exe)
 Dipole        = 2.63935169D-02-7.90072003D-03-1.67796026D-01
 -------------------------------------------------------------------
 Center     Atomic                   Forces (Hartrees/Bohr)
 Number     Number              X              Y              Z
 -------------------------------------------------------------------
      1        6           0.000361290   -0.000841122    0.000713556
      2        6          -0.001459154   -0.002905174    0.002615815
      3        6          -0.000505261   -0.000190596   -0.000705115
      4        9           0.000149690    0.001486353    0.000774955
      5        9           0.003205947    0.000321264   -0.001483123
      6        9          -0.001778201    0.001762018   -0.001680131
      7       17           0.000150037   -0.000069829   -0.000154404
      8        1           0.000259251    0.000133958   -0.000229066
      9        1          -0.000276282    0.000167213   -0.000252519
     10        1          -0.000160249    0.000069623    0.000129669
     11        1           0.000052932    0.000066292    0.000270363
 -------------------------------------------------------------------
 Cartesian Forces:  Max     0.003205947 RMS     0.001161698
 Leave Link  716 at Thu Jun 13 12:25:44 2024, MaxMem=  1073741824 cpu:         0.5
 (Enter /apps/z_install_tree/linux-rocky8-ivybridge/gcc-12.2.0/gaussian-09-D.01-wczn3gur5lpur3omlkzwa2l5ecyxp5ef/g09/l103.exe)

 GradGradGradGradGradGradGradGradGradGradGradGradGradGradGradGradGradGrad
 Berny optimization.
 Using GEDIIS/GDIIS optimizer.
 FormGI is forming the generalized inverse of G from B-inverse, IUseBI=4.
 Internal  Forces:  Max     0.003531729 RMS     0.000766748
 Search for a local minimum.
 Step number   7 out of a maximum of   56
 All quantities printed in internal units (Hartrees-Bohrs-Radians)
 RMS Force = .76675D-03 SwitMx=.10000D-02 MixMth= 2
 Mixed Optimization -- En-DIIS/RFO-DIIS
 Update second derivatives using D2CorX and points    4    5    6    7
 DE= -2.34D-04 DEPred=-2.91D-04 R= 8.03D-01
 TightC=F SS=  1.41D+00  RLast= 2.12D-01 DXNew= 1.4270D+00 6.3562D-01
 Trust test= 8.03D-01 RLast= 2.12D-01 DXMaxT set to 8.49D-01
 ITU=  1  1  1  0  0  1  0
 Use linear search instead of GDIIS.
     Eigenvalues ---    0.00218   0.00440   0.03674   0.04788   0.05278
     Eigenvalues ---    0.05592   0.07549   0.08360   0.09128   0.12047
     Eigenvalues ---    0.15995   0.16024   0.17258   0.21256   0.21922
     Eigenvalues ---    0.22731   0.23842   0.24869   0.25911   0.26934
     Eigenvalues ---    0.30430   0.33011   0.34043   0.34077   0.34149
     Eigenvalues ---    0.34978   0.58501
 RFO step:  Lambda=-1.14120606D-04 EMin= 2.18296744D-03
 Quartic linear search produced a step of -0.14756.
 Iteration  1 RMS(Cart)=  0.01815860 RMS(Int)=  0.00017639
 Iteration  2 RMS(Cart)=  0.00018921 RMS(Int)=  0.00000408
 Iteration  3 RMS(Cart)=  0.00000002 RMS(Int)=  0.00000408
 ITry= 1 IFail=0 DXMaxC= 5.34D-02 DCOld= 1.00D+10 DXMaxT= 8.49D-01 DXLimC= 3.00D+00 Rises=F
 Variable       Old X    -DE/DX   Delta X   Delta X   Delta X     New X
                                 (Linear)    (Quad)   (Total)
    R1        2.85277   0.00035   0.00050   0.00060   0.00110   2.85387
    R2        2.87461  -0.00027   0.00087  -0.00298  -0.00211   2.87250
    R3        2.05622  -0.00001  -0.00005   0.00010   0.00005   2.05627
    R4        2.05665  -0.00007   0.00006  -0.00035  -0.00029   2.05636
    R5        2.54890   0.00161   0.00406   0.00370   0.00776   2.55666
    R6        2.55598  -0.00353  -0.00193  -0.01025  -0.01218   2.54380
    R7        2.56409  -0.00301  -0.00217  -0.00604  -0.00821   2.55588
    R8        3.42529   0.00017   0.00052  -0.00049   0.00003   3.42532
    R9        2.05063  -0.00010   0.00000  -0.00018  -0.00018   2.05045
   R10        2.04966   0.00010  -0.00004   0.00038   0.00034   2.04999
    A1        1.94612   0.00036   0.00031   0.00117   0.00148   1.94760
    A2        1.87728   0.00001  -0.00012   0.00102   0.00090   1.87818
    A3        1.87420   0.00002   0.00243  -0.00409  -0.00166   1.87254
    A4        1.93872  -0.00028  -0.00208   0.00247   0.00040   1.93912
    A5        1.93287  -0.00010  -0.00084   0.00175   0.00092   1.93380
    A6        1.89208   0.00000   0.00044  -0.00266  -0.00221   1.88987
    A7        1.95288   0.00101   0.00066   0.00167   0.00234   1.95522
    A8        1.94332  -0.00060   0.00042  -0.00388  -0.00347   1.93986
    A9        1.95236  -0.00028   0.00057  -0.00324  -0.00266   1.94969
   A10        1.87312  -0.00013  -0.00021   0.00084   0.00063   1.87375
   A11        1.86701  -0.00026  -0.00005   0.00030   0.00025   1.86726
   A12        1.87046   0.00025  -0.00153   0.00474   0.00321   1.87367
   A13        1.91768   0.00043  -0.00027   0.00314   0.00287   1.92055
   A14        1.95170  -0.00031   0.00034  -0.00305  -0.00271   1.94899
   A15        1.95100  -0.00013   0.00023  -0.00130  -0.00107   1.94993
   A16        1.86366  -0.00004  -0.00076   0.00212   0.00137   1.86503
   A17        1.86195   0.00003  -0.00054   0.00312   0.00257   1.86452
   A18        1.91368   0.00005   0.00089  -0.00355  -0.00266   1.91101
    D1        1.00601   0.00008  -0.00681   0.03730   0.03049   1.03649
    D2        3.10217   0.00019  -0.00634   0.03684   0.03050   3.13266
    D3       -1.08860  -0.00010  -0.00762   0.03801   0.03040  -1.05820
    D4       -1.12359   0.00020  -0.00435   0.03283   0.02848  -1.09512
    D5        0.97257   0.00031  -0.00388   0.03237   0.02849   1.00105
    D6        3.06499   0.00002  -0.00515   0.03354   0.02839   3.09338
    D7        3.12634   0.00019  -0.00606   0.03750   0.03144  -3.12541
    D8       -1.06069   0.00029  -0.00558   0.03704   0.03145  -1.02924
    D9        1.03173   0.00001  -0.00686   0.03821   0.03135   1.06309
   D10        3.13362  -0.00002  -0.00688   0.01878   0.01190  -3.13766
   D11        1.06735  -0.00006  -0.00598   0.01601   0.01004   1.07739
   D12       -1.08588   0.00021  -0.00758   0.02388   0.01630  -1.06957
   D13       -1.05584   0.00004  -0.00822   0.02253   0.01431  -1.04153
   D14       -3.12210   0.00001  -0.00732   0.01976   0.01244  -3.10966
   D15        1.00786   0.00027  -0.00893   0.02763   0.01871   1.02656
   D16        1.04771  -0.00022  -0.00959   0.02200   0.01241   1.06012
   D17       -1.01855  -0.00025  -0.00868   0.01923   0.01054  -1.00801
   D18        3.11141   0.00002  -0.01029   0.02710   0.01681   3.12822
         Item               Value     Threshold  Converged?
 Maximum Force            0.003532     0.000450     NO 
 RMS     Force            0.000767     0.000300     NO 
 Maximum Displacement     0.053361     0.001800     NO 
 RMS     Displacement     0.018160     0.001200     NO 
 Predicted change in Energy=-6.482159D-05
 Lowest energy point so far.  Saving SCF results.
 GradGradGradGradGradGradGradGradGradGradGradGradGradGradGradGradGradGrad

 Leave Link  103 at Thu Jun 13 12:25:47 2024, MaxMem=  1073741824 cpu:        24.6
 (Enter /apps/z_install_tree/linux-rocky8-ivybridge/gcc-12.2.0/gaussian-09-D.01-wczn3gur5lpur3omlkzwa2l5ecyxp5ef/g09/l202.exe)
                          Input orientation:                          
 ---------------------------------------------------------------------
 Center     Atomic      Atomic             Coordinates (Angstroms)
 Number     Number       Type             X           Y           Z
 ---------------------------------------------------------------------
      1          6           0       50.126699   35.360151   31.935044
      2          6           0       50.059999   35.657895   33.414102
      3          6           0       51.505446   35.654733   31.366834
      4          9           0       50.343570   36.952888   33.684261
      5          9           0       48.832684   35.404546   33.905580
      6          9           0       50.938616   34.906310   34.115847
      7         17           0       51.536611   35.289735   29.591638
      8          1           0       49.363911   35.960694   31.443586
      9          1           0       49.871237   34.310451   31.804635
     10          1           0       52.269251   35.037590   31.828431
     11          1           0       51.769976   36.701007   31.477042
 ---------------------------------------------------------------------
                    Distance matrix (angstroms):
                    1          2          3          4          5
     1  C    0.000000
     2  C    1.510203   0.000000
     3  C    1.520061   2.506119   0.000000
     4  F    2.375627   1.352925   2.899246   0.000000
     5  F    2.357851   1.346120   3.694792   2.174654   0.000000
     6  F    2.370883   1.352514   2.904911   2.174587   2.174259
     7  Cl   2.735756   4.114262   1.812599   4.575914   5.092593
     8  H    1.088130   2.111671   2.164642   2.639091   2.579325
     9  H    1.088181   2.107515   2.160880   3.276975   2.586428
    10  H    2.169319   2.789252   1.085052   3.289486   4.032270
    11  H    2.169797   2.786450   1.084809   2.640056   4.025704
                    6          7          8          9         10
     6  F    0.000000
     7  Cl   4.579638   0.000000
     8  H    3.276034   2.932665   0.000000
     9  H    2.614583   2.937656   1.763813   0.000000
    10  H    2.649547   2.367189   3.072658   2.505947   0.000000
    11  H    3.297786   2.366621   2.517604   3.070388   1.771922
                   11
    11  H    0.000000
 Symmetry turned off by external request.
 Stoichiometry    C3H4ClF3
 Framework group  C1[X(C3H4ClF3)]
 Deg. of freedom    27
 Full point group                 C1      NOp   1
 Rotational constants (GHZ):      4.9269459      0.9254798      0.9147008
 Leave Link  202 at Thu Jun 13 12:25:47 2024, MaxMem=  1073741824 cpu:         1.8
 (Enter /apps/z_install_tree/linux-rocky8-ivybridge/gcc-12.2.0/gaussian-09-D.01-wczn3gur5lpur3omlkzwa2l5ecyxp5ef/g09/l301.exe)
 Basis read from rwf:  (5D, 7F)
 No pseudopotential information found on rwf file.
   233 basis functions,   355 primitive gaussians,   247 cartesian basis functions
    33 alpha electrons       33 beta electrons
       nuclear repulsion energy       389.9020265286 Hartrees.
 IExCor=  402 DFT=T Ex+Corr=B3LYP ExCW=0 ScaHFX=  0.200000
 ScaDFX=  0.800000  0.720000  1.000000  0.810000 ScalE2=  1.000000  1.000000
 IRadAn=      5 IRanWt=     -1 IRanGd=            0 ICorTp=0 IEmpDi=131
 NAtoms=   11 NActive=   11 NUniq=   11 SFac= 1.00D+00 NAtFMM=   60 NAOKFM=F Big=F
 Integral buffers will be    131072 words long.
 Raffenetti 2 integral format.
 Two-electron integral symmetry is turned off.
 R6Disp:  Grimme-D3 Dispersion energy=       -0.0083007106 Hartrees.
 Nuclear repulsion after empirical dispersion term =      389.8937258181 Hartrees.
 No density basis found on file   724.
 Leave Link  301 at Thu Jun 13 12:25:47 2024, MaxMem=  1073741824 cpu:         1.0
 (Enter /apps/z_install_tree/linux-rocky8-ivybridge/gcc-12.2.0/gaussian-09-D.01-wczn3gur5lpur3omlkzwa2l5ecyxp5ef/g09/l302.exe)
 NPDir=0 NMtPBC=     1 NCelOv=     1 NCel=       1 NClECP=     1 NCelD=      1
         NCelK=      1 NCelE2=     1 NClLst=     1 CellRange=     0.0.
 One-electron integrals computed using PRISM.
 NBasis=   233 RedAO= T EigKep=  2.52D-05  NBF=   233
 NBsUse=   233 1.00D-06 EigRej= -1.00D+00 NBFU=   233
 Precomputing XC quadrature grid using
 IXCGrd= 4 IRadAn=           5 IRanWt=          -1 IRanGd=           0 AccXCQ= 0.00D+00.
 Generated NRdTot=       0 NPtTot=           0 NUsed=           0 NTot=          32
 NSgBfM=   247   247   247   247   247 MxSgAt=    11 MxSgA2=    11.
 Leave Link  302 at Thu Jun 13 12:25:48 2024, MaxMem=  1073741824 cpu:         3.2
 (Enter /apps/z_install_tree/linux-rocky8-ivybridge/gcc-12.2.0/gaussian-09-D.01-wczn3gur5lpur3omlkzwa2l5ecyxp5ef/g09/l303.exe)
 DipDrv:  MaxL=1.
 Leave Link  303 at Thu Jun 13 12:25:48 2024, MaxMem=  1073741824 cpu:         1.5
 (Enter /apps/z_install_tree/linux-rocky8-ivybridge/gcc-12.2.0/gaussian-09-D.01-wczn3gur5lpur3omlkzwa2l5ecyxp5ef/g09/l401.exe)
 Initial guess from the checkpoint file:  "chlorotrifluoropropane.chk"
 B after Tr=     0.817483   -1.499080    0.400439
         Rot=    0.999975    0.001711   -0.000898   -0.006823 Ang=   0.81 deg.
 Guess basis will be translated and rotated to current coordinates.
 JPrj=2 DoOrth=T DoCkMO=T.
 Generating alternative initial guess.
 ExpMin= 4.38D-02 ExpMax= 1.06D+05 ExpMxC= 3.62D+03 IAcc=2 IRadAn=         4 AccDes= 0.00D+00
 Harris functional with IExCor=  402 and IRadAn=       4 diagonalized for initial guess.
 HarFok:  IExCor=  402 AccDes= 0.00D+00 IRadAn=         4 IDoV= 1 UseB2=F ITyADJ=14
 ICtDFT=  3500011 ScaDFX=  1.000000  1.000000  1.000000  1.000000
 FoFCou: FMM=F IPFlag=           0 FMFlag=      100000 FMFlg1=           0
         NFxFlg=           0 DoJE=T BraDBF=F KetDBF=T FulRan=T
         wScrn=  0.000000 ICntrl=     500 IOpCl=  0 I1Cent=   200000004 NGrid=           0
         NMat0=    1 NMatS0=      1 NMatT0=    0 NMatD0=    1 NMtDS0=    0 NMtDT0=    0
 Symmetry not used in FoFCou.
 Harris En= -876.574745083449    
 Leave Link  401 at Thu Jun 13 12:25:48 2024, MaxMem=  1073741824 cpu:         6.4
 (Enter /apps/z_install_tree/linux-rocky8-ivybridge/gcc-12.2.0/gaussian-09-D.01-wczn3gur5lpur3omlkzwa2l5ecyxp5ef/g09/l502.exe)
 Closed shell SCF:
 Using DIIS extrapolation, IDIIS=  1040.
 Two-electron integral symmetry not used.
 Keep R1 ints in memory in canonical form, NReq=379421756.
 IVT=      200693 IEndB=      200693 NGot=  1073741824 MDV=   701946441
 LenX=   701946441 LenY=   701884991
 Requested convergence on RMS density matrix=1.00D-08 within  96 cycles.
 Requested convergence on MAX density matrix=1.00D-06.
 Requested convergence on             energy=1.00D-06.
 No special actions if energy rises.
 FoFCou: FMM=F IPFlag=           0 FMFlag=           0 FMFlg1=           0
         NFxFlg=           0 DoJE=F BraDBF=F KetDBF=F FulRan=T
         wScrn=  0.000000 ICntrl=     600 IOpCl=  0 I1Cent=           0 NGrid=           0
         NMat0=    1 NMatS0=  27261 NMatT0=    0 NMatD0=    1 NMtDS0=    0 NMtDT0=    0
 Symmetry not used in FoFCou.

 Cycle   1  Pass 1  IDiag  1:
 E= -876.651030900114    
 DIIS: error= 1.35D-03 at cycle   1 NSaved=   1.
 NSaved= 1 IEnMin= 1 EnMin= -876.651030900114     IErMin= 1 ErrMin= 1.35D-03
 ErrMax= 1.35D-03  0.00D+00 EMaxC= 1.00D-01 BMatC= 3.89D-04 BMatP= 3.89D-04
 IDIUse=3 WtCom= 9.86D-01 WtEn= 1.35D-02
 Coeff-Com:  0.100D+01
 Coeff-En:   0.100D+01
 Coeff:      0.100D+01
 Gap=     0.551 Goal=   None    Shift=    0.000
 GapD=    0.551 DampG=2.000 DampE=1.000 DampFc=2.0000 IDamp=-1.
 RMSDP=1.63D-04 MaxDP=4.78D-03              OVMax= 6.89D-03

 Cycle   2  Pass 1  IDiag  1:
 E= -876.651576513366     Delta-E=       -0.000545613252 Rises=F Damp=F
 DIIS: error= 1.43D-04 at cycle   2 NSaved=   2.
 NSaved= 2 IEnMin= 2 EnMin= -876.651576513366     IErMin= 2 ErrMin= 1.43D-04
 ErrMax= 1.43D-04  0.00D+00 EMaxC= 1.00D-01 BMatC= 6.74D-06 BMatP= 3.89D-04
 IDIUse=3 WtCom= 9.99D-01 WtEn= 1.43D-03
 Coeff-Com: -0.377D-01 0.104D+01
 Coeff-En:   0.000D+00 0.100D+01
 Coeff:     -0.377D-01 0.104D+01
 Gap=     0.300 Goal=   None    Shift=    0.000
 RMSDP=1.79D-05 MaxDP=8.18D-04 DE=-5.46D-04 OVMax= 7.04D-04

 Cycle   3  Pass 1  IDiag  1:
 E= -876.651579437274     Delta-E=       -0.000002923908 Rises=F Damp=F
 DIIS: error= 2.10D-04 at cycle   3 NSaved=   3.
 NSaved= 3 IEnMin= 3 EnMin= -876.651579437274     IErMin= 2 ErrMin= 1.43D-04
 ErrMax= 2.10D-04  0.00D+00 EMaxC= 1.00D-01 BMatC= 7.05D-06 BMatP= 6.74D-06
 IDIUse=3 WtCom= 9.98D-01 WtEn= 2.10D-03
 Coeff-Com: -0.338D-01 0.545D+00 0.489D+00
 Coeff-En:   0.000D+00 0.245D+00 0.755D+00
 Coeff:     -0.337D-01 0.544D+00 0.490D+00
 Gap=     0.300 Goal=   None    Shift=    0.000
 RMSDP=7.43D-06 MaxDP=3.29D-04 DE=-2.92D-06 OVMax= 4.27D-04

 Cycle   4  Pass 1  IDiag  1:
 E= -876.651583050452     Delta-E=       -0.000003613178 Rises=F Damp=F
 DIIS: error= 5.03D-05 at cycle   4 NSaved=   4.
 NSaved= 4 IEnMin= 4 EnMin= -876.651583050452     IErMin= 4 ErrMin= 5.03D-05
 ErrMax= 5.03D-05  0.00D+00 EMaxC= 1.00D-01 BMatC= 5.04D-07 BMatP= 6.74D-06
 IDIUse=1 WtCom= 1.00D+00 WtEn= 0.00D+00
 Coeff-Com: -0.928D-02 0.121D+00 0.244D+00 0.644D+00
 Coeff:     -0.928D-02 0.121D+00 0.244D+00 0.644D+00
 Gap=     0.300 Goal=   None    Shift=    0.000
 RMSDP=2.55D-06 MaxDP=9.77D-05 DE=-3.61D-06 OVMax= 1.08D-04

 Cycle   5  Pass 1  IDiag  1:
 E= -876.651583340036     Delta-E=       -0.000000289584 Rises=F Damp=F
 DIIS: error= 8.90D-06 at cycle   5 NSaved=   5.
 NSaved= 5 IEnMin= 5 EnMin= -876.651583340036     IErMin= 5 ErrMin= 8.90D-06
 ErrMax= 8.90D-06  0.00D+00 EMaxC= 1.00D-01 BMatC= 1.53D-08 BMatP= 5.04D-07
 IDIUse=1 WtCom= 1.00D+00 WtEn= 0.00D+00
 Coeff-Com: -0.173D-02 0.162D-01 0.673D-01 0.250D+00 0.668D+00
 Coeff:     -0.173D-02 0.162D-01 0.673D-01 0.250D+00 0.668D+00
 Gap=     0.300 Goal=   None    Shift=    0.000
 RMSDP=9.01D-07 MaxDP=4.91D-05 DE=-2.90D-07 OVMax= 2.87D-05

 Cycle   6  Pass 1  IDiag  1:
 E= -876.651583351264     Delta-E=       -0.000000011228 Rises=F Damp=F
 DIIS: error= 3.04D-06 at cycle   6 NSaved=   6.
 NSaved= 6 IEnMin= 6 EnMin= -876.651583351264     IErMin= 6 ErrMin= 3.04D-06
 ErrMax= 3.04D-06  0.00D+00 EMaxC= 1.00D-01 BMatC= 1.23D-09 BMatP= 1.53D-08
 IDIUse=1 WtCom= 1.00D+00 WtEn= 0.00D+00
 Coeff-Com:  0.136D-03-0.511D-02 0.383D-02 0.430D-01 0.266D+00 0.692D+00
 Coeff:      0.136D-03-0.511D-02 0.383D-02 0.430D-01 0.266D+00 0.692D+00
 Gap=     0.300 Goal=   None    Shift=    0.000
 RMSDP=2.17D-07 MaxDP=1.18D-05 DE=-1.12D-08 OVMax= 8.86D-06

 Cycle   7  Pass 1  IDiag  1:
 E= -876.651583352217     Delta-E=       -0.000000000953 Rises=F Damp=F
 DIIS: error= 4.52D-07 at cycle   7 NSaved=   7.
 NSaved= 7 IEnMin= 7 EnMin= -876.651583352217     IErMin= 7 ErrMin= 4.52D-07
 ErrMax= 4.52D-07  0.00D+00 EMaxC= 1.00D-01 BMatC= 7.39D-11 BMatP= 1.23D-09
 IDIUse=1 WtCom= 1.00D+00 WtEn= 0.00D+00
 Coeff-Com:  0.105D-03-0.292D-02 0.792D-04 0.153D-01 0.113D+00 0.341D+00
 Coeff-Com:  0.534D+00
 Coeff:      0.105D-03-0.292D-02 0.792D-04 0.153D-01 0.113D+00 0.341D+00
 Coeff:      0.534D+00
 Gap=     0.300 Goal=   None    Shift=    0.000
 RMSDP=6.28D-08 MaxDP=2.90D-06 DE=-9.53D-10 OVMax= 2.48D-06

 Cycle   8  Pass 1  IDiag  1:
 E= -876.651583352237     Delta-E=       -0.000000000020 Rises=F Damp=F
 DIIS: error= 1.00D-07 at cycle   8 NSaved=   8.
 NSaved= 8 IEnMin= 8 EnMin= -876.651583352237     IErMin= 8 ErrMin= 1.00D-07
 ErrMax= 1.00D-07  0.00D+00 EMaxC= 1.00D-01 BMatC= 4.14D-12 BMatP= 7.39D-11
 IDIUse=1 WtCom= 1.00D+00 WtEn= 0.00D+00
 Coeff-Com:  0.287D-04-0.662D-03-0.445D-03 0.181D-02 0.178D-01 0.661D-01
 Coeff-Com:  0.222D+00 0.694D+00
 Coeff:      0.287D-04-0.662D-03-0.445D-03 0.181D-02 0.178D-01 0.661D-01
 Coeff:      0.222D+00 0.694D+00
 Gap=     0.300 Goal=   None    Shift=    0.000
 RMSDP=1.00D-08 MaxDP=4.20D-07 DE=-1.98D-11 OVMax= 5.85D-07

 Cycle   9  Pass 1  IDiag  1:
 E= -876.651583352252     Delta-E=       -0.000000000015 Rises=F Damp=F
 DIIS: error= 3.97D-08 at cycle   9 NSaved=   9.
 NSaved= 9 IEnMin= 9 EnMin= -876.651583352252     IErMin= 9 ErrMin= 3.97D-08
 ErrMax= 3.97D-08  0.00D+00 EMaxC= 1.00D-01 BMatC= 5.52D-13 BMatP= 4.14D-12
 IDIUse=1 WtCom= 1.00D+00 WtEn= 0.00D+00
 Coeff-Com:  0.564D-05-0.801D-04-0.246D-03-0.490D-03-0.116D-02 0.341D-02
 Coeff-Com:  0.659D-01 0.350D+00 0.583D+00
 Coeff:      0.564D-05-0.801D-04-0.246D-03-0.490D-03-0.116D-02 0.341D-02
 Coeff:      0.659D-01 0.350D+00 0.583D+00
 Gap=     0.300 Goal=   None    Shift=    0.000
 RMSDP=5.11D-09 MaxDP=2.96D-07 DE=-1.48D-11 OVMax= 1.58D-07

 SCF Done:  E(RB3LYP) =  -876.651583352     A.U. after    9 cycles
            NFock=  9  Conv=0.51D-08     -V/T= 2.0027
 KE= 8.742527915256D+02 PE=-2.859266218065D+03 EE= 7.184681173689D+02
 Leave Link  502 at Thu Jun 13 12:25:58 2024, MaxMem=  1073741824 cpu:        99.4
 (Enter /apps/z_install_tree/linux-rocky8-ivybridge/gcc-12.2.0/gaussian-09-D.01-wczn3gur5lpur3omlkzwa2l5ecyxp5ef/g09/l508.exe)
 QCSCF skips out because SCF is already converged.
 Leave Link  508 at Thu Jun 13 12:25:58 2024, MaxMem=  1073741824 cpu:         0.0
 (Enter /apps/z_install_tree/linux-rocky8-ivybridge/gcc-12.2.0/gaussian-09-D.01-wczn3gur5lpur3omlkzwa2l5ecyxp5ef/g09/l701.exe)
 Compute integral first derivatives.
 ... and contract with generalized density number  0.
 R6Disp: Adding Grimme-D3 dispersion energy 1st derivatives to the gradient.
 Leave Link  701 at Thu Jun 13 12:26:00 2024, MaxMem=  1073741824 cpu:        11.5
 (Enter /apps/z_install_tree/linux-rocky8-ivybridge/gcc-12.2.0/gaussian-09-D.01-wczn3gur5lpur3omlkzwa2l5ecyxp5ef/g09/l702.exe)
 L702 exits ... SP integral derivatives will be done elsewhere.
 Leave Link  702 at Thu Jun 13 12:26:00 2024, MaxMem=  1073741824 cpu:         0.2
 (Enter /apps/z_install_tree/linux-rocky8-ivybridge/gcc-12.2.0/gaussian-09-D.01-wczn3gur5lpur3omlkzwa2l5ecyxp5ef/g09/l703.exe)
 Compute integral first derivatives, UseDBF=F ICtDFT=           0.
 Integral derivatives from FoFJK, PRISM(SPDF).
 Calling FoFJK, ICntrl=      2127 FMM=F ISym2X=0 I1Cent= 0 IOpClX= 0 NMat=1 NMatS=1 NMatT=0.
 FoFJK:  IHMeth= 1 ICntrl=    2127 DoSepK=F KAlg= 0 I1Cent=   0 FoldK=F
 IRaf=         0 NMat=   1 IRICut=       1 DoRegI=T DoRafI=F ISym2E= 0.
 FoFCou: FMM=F IPFlag=           0 FMFlag=      100000 FMFlg1=         800
         NFxFlg=           0 DoJE=F BraDBF=F KetDBF=F FulRan=T
         wScrn=  0.000000 ICntrl=    2127 IOpCl=  0 I1Cent=           0 NGrid=           0
         NMat0=    1 NMatS0=      1 NMatT0=    0 NMatD0=    1 NMtDS0=    0 NMtDT0=    0
 Symmetry not used in FoFCou.
 Leave Link  703 at Thu Jun 13 12:26:02 2024, MaxMem=  1073741824 cpu:        39.8
 (Enter /apps/z_install_tree/linux-rocky8-ivybridge/gcc-12.2.0/gaussian-09-D.01-wczn3gur5lpur3omlkzwa2l5ecyxp5ef/g09/l716.exe)
 Dipole        = 1.93097199D-02-2.93568486D-02-1.54029501D-01
 -------------------------------------------------------------------
 Center     Atomic                   Forces (Hartrees/Bohr)
 Number     Number              X              Y              Z
 -------------------------------------------------------------------
      1        6           0.000028724   -0.000185536    0.000259919
      2        6           0.000395995   -0.000003891   -0.000476016
      3        6          -0.000025705    0.000067204   -0.000242265
      4        9          -0.000050513   -0.000438074   -0.000043791
      5        9          -0.000665269   -0.000013452    0.000546454
      6        9           0.000131742    0.000276028    0.000381822
      7       17           0.000079189   -0.000008786    0.000124381
      8        1           0.000237139    0.000238512   -0.000114082
      9        1          -0.000133718   -0.000043276   -0.000227979
     10        1           0.000003143   -0.000028935   -0.000104475
     11        1          -0.000000727    0.000140206   -0.000103967
 -------------------------------------------------------------------
 Cartesian Forces:  Max     0.000665269 RMS     0.000245511
 Leave Link  716 at Thu Jun 13 12:26:03 2024, MaxMem=  1073741824 cpu:         1.5
 (Enter /apps/z_install_tree/linux-rocky8-ivybridge/gcc-12.2.0/gaussian-09-D.01-wczn3gur5lpur3omlkzwa2l5ecyxp5ef/g09/l103.exe)

 GradGradGradGradGradGradGradGradGradGradGradGradGradGradGradGradGradGrad
 Berny optimization.
 Using GEDIIS/GDIIS optimizer.
 FormGI is forming the generalized inverse of G from B-inverse, IUseBI=4.
 Internal  Forces:  Max     0.000808079 RMS     0.000235596
 Search for a local minimum.
 Step number   8 out of a maximum of   56
 All quantities printed in internal units (Hartrees-Bohrs-Radians)
 RMS Force = .23560D-03 SwitMx=.10000D-02 MixMth= 2
 Mixed Optimization -- En-DIIS/RFO-DIIS
 Swapping is turned off.
 Update second derivatives using D2CorX and points    5    6    7    8
 DE= -5.75D-05 DEPred=-6.48D-05 R= 8.88D-01
 TightC=F SS=  1.41D+00  RLast= 1.01D-01 DXNew= 1.4270D+00 3.0445D-01
 Trust test= 8.88D-01 RLast= 1.01D-01 DXMaxT set to 8.49D-01
 ITU=  1  1  1  1  0  0  1  0
     Eigenvalues ---    0.00238   0.00352   0.03826   0.04764   0.05413
     Eigenvalues ---    0.05568   0.07818   0.08362   0.09122   0.12001
     Eigenvalues ---    0.15998   0.16022   0.17553   0.21275   0.21954
     Eigenvalues ---    0.22648   0.24037   0.24961   0.26884   0.28670
     Eigenvalues ---    0.32634   0.33397   0.34042   0.34067   0.34267
     Eigenvalues ---    0.34887   0.57677
 En-DIIS/RFO-DIIS IScMMF=        0 using points:     8    7
 RFO step:  Lambda=-5.41848549D-06.
 NNeg= 0 NP= 2 Switch=  2.50D-03 Rises=F DC=  5.75D-05 SmlDif=  1.00D-05
 RMS Error=  0.5961625925D-03 NUsed= 2 EDIIS=F
 DidBck=F Rises=F RFO-DIIS coefs:    0.90128    0.09872
 Iteration  1 RMS(Cart)=  0.00523188 RMS(Int)=  0.00001356
 Iteration  2 RMS(Cart)=  0.00001525 RMS(Int)=  0.00000125
 Iteration  3 RMS(Cart)=  0.00000000 RMS(Int)=  0.00000125
 ITry= 1 IFail=0 DXMaxC= 1.40D-02 DCOld= 1.00D+10 DXMaxT= 8.49D-01 DXLimC= 3.00D+00 Rises=F
 Variable       Old X    -DE/DX   Delta X   Delta X   Delta X     New X
                                 (Linear)    (Quad)   (Total)
    R1        2.85387   0.00037  -0.00011   0.00086   0.00075   2.85462
    R2        2.87250   0.00020   0.00021   0.00028   0.00049   2.87299
    R3        2.05627   0.00002  -0.00001   0.00006   0.00006   2.05632
    R4        2.05636   0.00010   0.00003   0.00016   0.00019   2.05655
    R5        2.55666  -0.00044  -0.00077  -0.00024  -0.00100   2.55566
    R6        2.54380   0.00081   0.00120   0.00151   0.00271   2.54651
    R7        2.55588   0.00013   0.00081  -0.00138  -0.00057   2.55532
    R8        3.42532  -0.00012   0.00000  -0.00047  -0.00047   3.42484
    R9        2.05045  -0.00003   0.00002  -0.00015  -0.00013   2.05032
   R10        2.04999   0.00012  -0.00003   0.00032   0.00029   2.05028
    A1        1.94760   0.00031  -0.00015   0.00152   0.00137   1.94897
    A2        1.87818  -0.00003  -0.00009  -0.00061  -0.00070   1.87748
    A3        1.87254   0.00003   0.00016   0.00178   0.00194   1.87448
    A4        1.93912  -0.00031  -0.00004  -0.00323  -0.00327   1.93585
    A5        1.93380  -0.00006  -0.00009   0.00096   0.00086   1.93466
    A6        1.88987   0.00007   0.00022  -0.00034  -0.00012   1.88975
    A7        1.95522  -0.00021  -0.00023  -0.00075  -0.00098   1.95423
    A8        1.93986   0.00044   0.00034   0.00123   0.00157   1.94143
    A9        1.94969   0.00064   0.00026   0.00198   0.00224   1.95193
   A10        1.87375  -0.00020  -0.00006  -0.00087  -0.00093   1.87282
   A11        1.86726  -0.00038  -0.00002  -0.00194  -0.00196   1.86529
   A12        1.87367  -0.00036  -0.00032   0.00018  -0.00014   1.87353
   A13        1.92055   0.00012  -0.00028   0.00062   0.00034   1.92089
   A14        1.94899   0.00004   0.00027  -0.00014   0.00013   1.94912
   A15        1.94993   0.00002   0.00011   0.00011   0.00022   1.95015
   A16        1.86503  -0.00013  -0.00013  -0.00085  -0.00098   1.86404
   A17        1.86452  -0.00008  -0.00025   0.00012  -0.00014   1.86438
   A18        1.91101   0.00002   0.00026   0.00011   0.00038   1.91139
    D1        1.03649  -0.00011  -0.00301   0.01018   0.00717   1.04366
    D2        3.13266  -0.00020  -0.00301   0.00941   0.00640   3.13906
    D3       -1.05820   0.00008  -0.00300   0.01181   0.00881  -1.04939
    D4       -1.09512   0.00010  -0.00281   0.01365   0.01084  -1.08428
    D5        1.00105   0.00001  -0.00281   0.01288   0.01007   1.01112
    D6        3.09338   0.00029  -0.00280   0.01528   0.01248   3.10585
    D7       -3.12541   0.00002  -0.00310   0.01345   0.01035  -3.11506
    D8       -1.02924  -0.00007  -0.00310   0.01269   0.00958  -1.01966
    D9        1.06309   0.00020  -0.00310   0.01508   0.01199   1.07508
   D10       -3.13766   0.00003  -0.00118  -0.00462  -0.00580   3.13972
   D11        1.07739   0.00010  -0.00099  -0.00388  -0.00487   1.07252
   D12       -1.06957   0.00003  -0.00161  -0.00400  -0.00561  -1.07518
   D13       -1.04153   0.00000  -0.00141  -0.00657  -0.00799  -1.04951
   D14       -3.10966   0.00006  -0.00123  -0.00583  -0.00706  -3.11672
   D15        1.02656  -0.00001  -0.00185  -0.00595  -0.00780   1.01876
   D16        1.06012  -0.00016  -0.00122  -0.00852  -0.00974   1.05038
   D17       -1.00801  -0.00010  -0.00104  -0.00777  -0.00881  -1.01682
   D18        3.12822  -0.00017  -0.00166  -0.00790  -0.00956   3.11866
         Item               Value     Threshold  Converged?
 Maximum Force            0.000808     0.000450     NO 
 RMS     Force            0.000236     0.000300     YES
 Maximum Displacement     0.013969     0.001800     NO 
 RMS     Displacement     0.005232     0.001200     NO 
 Predicted change in Energy=-8.178739D-06
 Lowest energy point so far.  Saving SCF results.
 GradGradGradGradGradGradGradGradGradGradGradGradGradGradGradGradGradGrad

 Leave Link  103 at Thu Jun 13 12:26:03 2024, MaxMem=  1073741824 cpu:         5.4
 (Enter /apps/z_install_tree/linux-rocky8-ivybridge/gcc-12.2.0/gaussian-09-D.01-wczn3gur5lpur3omlkzwa2l5ecyxp5ef/g09/l202.exe)
                          Input orientation:                          
 ---------------------------------------------------------------------
 Center     Atomic      Atomic             Coordinates (Angstroms)
 Number     Number       Type             X           Y           Z
 ---------------------------------------------------------------------
      1          6           0       50.126662   35.361724   31.934901
      2          6           0       50.059704   35.656364   33.414972
      3          6           0       51.505940   35.654143   31.366167
      4          9           0       50.337183   36.951944   33.685991
      5          9           0       48.833128   35.397260   33.909223
      6          9           0       50.942888   34.910705   34.116729
      7         17           0       51.538348   35.283319   29.592456
      8          1           0       49.367723   35.968086   31.444566
      9          1           0       49.866122   34.313791   31.799579
     10          1           0       52.269344   35.037862   31.829416
     11          1           0       51.770958   36.700802   31.473001
 ---------------------------------------------------------------------
                    Distance matrix (angstroms):
                    1          2          3          4          5
     1  C    0.000000
     2  C    1.510598   0.000000
     3  C    1.520320   2.507829   0.000000
     4  F    2.374749   1.352395   2.903767   0.000000
     5  F    2.360602   1.347556   3.698249   2.174639   0.000000
     6  F    2.372766   1.352215   2.904362   2.172342   2.175059
     7  Cl   2.736065   4.115481   1.812350   4.580844   5.095653
     8  H    1.088159   2.111518   2.162562   2.632834   2.585763
     9  H    1.088282   2.109377   2.161803   3.277240   2.586809
    10  H    2.169585   2.789093   1.084983   3.292996   4.032659
    11  H    2.170298   2.791146   1.084963   2.648794   4.033019
                    6          7          8          9         10
     6  F    0.000000
     7  Cl   4.578478   0.000000
     8  H    3.277141   2.934421   0.000000
     9  H    2.623912   2.933891   1.763839   0.000000
    10  H    2.647159   2.366135   3.071291   2.510108   0.000000
    11  H    3.298401   2.366393   2.512612   3.071299   1.772227
                   11
    11  H    0.000000
 Symmetry turned off by external request.
 Stoichiometry    C3H4ClF3
 Framework group  C1[X(C3H4ClF3)]
 Deg. of freedom    27
 Full point group                 C1      NOp   1
 Rotational constants (GHZ):      4.9298807      0.9246837      0.9137198
 Leave Link  202 at Thu Jun 13 12:26:04 2024, MaxMem=  1073741824 cpu:         0.1
 (Enter /apps/z_install_tree/linux-rocky8-ivybridge/gcc-12.2.0/gaussian-09-D.01-wczn3gur5lpur3omlkzwa2l5ecyxp5ef/g09/l301.exe)
 Basis read from rwf:  (5D, 7F)
 No pseudopotential information found on rwf file.
   233 basis functions,   355 primitive gaussians,   247 cartesian basis functions
    33 alpha electrons       33 beta electrons
       nuclear repulsion energy       389.8136468400 Hartrees.
 IExCor=  402 DFT=T Ex+Corr=B3LYP ExCW=0 ScaHFX=  0.200000
 ScaDFX=  0.800000  0.720000  1.000000  0.810000 ScalE2=  1.000000  1.000000
 IRadAn=      5 IRanWt=     -1 IRanGd=            0 ICorTp=0 IEmpDi=131
 NAtoms=   11 NActive=   11 NUniq=   11 SFac= 1.00D+00 NAtFMM=   60 NAOKFM=F Big=F
 Integral buffers will be    131072 words long.
 Raffenetti 2 integral format.
 Two-electron integral symmetry is turned off.
 R6Disp:  Grimme-D3 Dispersion energy=       -0.0082904212 Hartrees.
 Nuclear repulsion after empirical dispersion term =      389.8053564189 Hartrees.
 No density basis found on file   724.
 Leave Link  301 at Thu Jun 13 12:26:04 2024, MaxMem=  1073741824 cpu:         1.1
 (Enter /apps/z_install_tree/linux-rocky8-ivybridge/gcc-12.2.0/gaussian-09-D.01-wczn3gur5lpur3omlkzwa2l5ecyxp5ef/g09/l302.exe)
 NPDir=0 NMtPBC=     1 NCelOv=     1 NCel=       1 NClECP=     1 NCelD=      1
         NCelK=      1 NCelE2=     1 NClLst=     1 CellRange=     0.0.
 One-electron integrals computed using PRISM.
 NBasis=   233 RedAO= T EigKep=  2.52D-05  NBF=   233
 NBsUse=   233 1.00D-06 EigRej= -1.00D+00 NBFU=   233
 Precomputing XC quadrature grid using
 IXCGrd= 4 IRadAn=           5 IRanWt=          -1 IRanGd=           0 AccXCQ= 0.00D+00.
 Generated NRdTot=       0 NPtTot=           0 NUsed=           0 NTot=          32
 NSgBfM=   247   247   247   247   247 MxSgAt=    11 MxSgA2=    11.
 Leave Link  302 at Thu Jun 13 12:26:04 2024, MaxMem=  1073741824 cpu:         3.5
 (Enter /apps/z_install_tree/linux-rocky8-ivybridge/gcc-12.2.0/gaussian-09-D.01-wczn3gur5lpur3omlkzwa2l5ecyxp5ef/g09/l303.exe)
 DipDrv:  MaxL=1.
 Leave Link  303 at Thu Jun 13 12:26:04 2024, MaxMem=  1073741824 cpu:         0.4
 (Enter /apps/z_install_tree/linux-rocky8-ivybridge/gcc-12.2.0/gaussian-09-D.01-wczn3gur5lpur3omlkzwa2l5ecyxp5ef/g09/l401.exe)
 Initial guess from the checkpoint file:  "chlorotrifluoropropane.chk"
 B after Tr=     0.200589   -0.409385    0.136899
         Rot=    0.999998    0.000927   -0.000053   -0.001532 Ang=   0.21 deg.
 Guess basis will be translated and rotated to current coordinates.
 JPrj=2 DoOrth=T DoCkMO=T.
 Leave Link  401 at Thu Jun 13 12:26:04 2024, MaxMem=  1073741824 cpu:         2.1
 (Enter /apps/z_install_tree/linux-rocky8-ivybridge/gcc-12.2.0/gaussian-09-D.01-wczn3gur5lpur3omlkzwa2l5ecyxp5ef/g09/l502.exe)
 Closed shell SCF:
 Using DIIS extrapolation, IDIIS=  1040.
 Two-electron integral symmetry not used.
 Keep R1 ints in memory in canonical form, NReq=379421756.
 IVT=      200693 IEndB=      200693 NGot=  1073741824 MDV=   701946441
 LenX=   701946441 LenY=   701884991
 Requested convergence on RMS density matrix=1.00D-08 within  96 cycles.
 Requested convergence on MAX density matrix=1.00D-06.
 Requested convergence on             energy=1.00D-06.
 No special actions if energy rises.
 FoFCou: FMM=F IPFlag=           0 FMFlag=           0 FMFlg1=           0
         NFxFlg=           0 DoJE=F BraDBF=F KetDBF=F FulRan=T
         wScrn=  0.000000 ICntrl=     600 IOpCl=  0 I1Cent=           0 NGrid=           0
         NMat0=    1 NMatS0=  27261 NMatT0=    0 NMatD0=    1 NMtDS0=    0 NMtDT0=    0
 Symmetry not used in FoFCou.

 Cycle   1  Pass 1  IDiag  1:
 E= -876.651554088058    
 DIIS: error= 4.39D-04 at cycle   1 NSaved=   1.
 NSaved= 1 IEnMin= 1 EnMin= -876.651554088058     IErMin= 1 ErrMin= 4.39D-04
 ErrMax= 4.39D-04  0.00D+00 EMaxC= 1.00D-01 BMatC= 2.74D-05 BMatP= 2.74D-05
 IDIUse=3 WtCom= 9.96D-01 WtEn= 4.39D-03
 Coeff-Com:  0.100D+01
 Coeff-En:   0.100D+01
 Coeff:      0.100D+01
 Gap=     0.550 Goal=   None    Shift=    0.000
 RMSDP=6.21D-05 MaxDP=2.17D-03              OVMax= 2.04D-03

 Cycle   2  Pass 1  IDiag  1:
 E= -876.651591485168     Delta-E=       -0.000037397110 Rises=F Damp=F
 DIIS: error= 4.07D-05 at cycle   2 NSaved=   2.
 NSaved= 2 IEnMin= 2 EnMin= -876.651591485168     IErMin= 2 ErrMin= 4.07D-05
 ErrMax= 4.07D-05  0.00D+00 EMaxC= 1.00D-01 BMatC= 3.96D-07 BMatP= 2.74D-05
 IDIUse=1 WtCom= 1.00D+00 WtEn= 0.00D+00
 Coeff-Com: -0.444D-01 0.104D+01
 Coeff:     -0.444D-01 0.104D+01
 Gap=     0.300 Goal=   None    Shift=    0.000
 RMSDP=3.95D-06 MaxDP=1.18D-04 DE=-3.74D-05 OVMax= 2.33D-04

 Cycle   3  Pass 1  IDiag  1:
 E= -876.651591752421     Delta-E=       -0.000000267253 Rises=F Damp=F
 DIIS: error= 4.59D-05 at cycle   3 NSaved=   3.
 NSaved= 3 IEnMin= 3 EnMin= -876.651591752421     IErMin= 2 ErrMin= 4.07D-05
 ErrMax= 4.59D-05  0.00D+00 EMaxC= 1.00D-01 BMatC= 2.98D-07 BMatP= 3.96D-07
 IDIUse=1 WtCom= 1.00D+00 WtEn= 0.00D+00
 Coeff-Com: -0.312D-01 0.505D+00 0.526D+00
 Coeff:     -0.312D-01 0.505D+00 0.526D+00
 Gap=     0.300 Goal=   None    Shift=    0.000
 RMSDP=1.76D-06 MaxDP=7.94D-05 DE=-2.67D-07 OVMax= 9.22D-05

 Cycle   4  Pass 1  IDiag  1:
 E= -876.651591904645     Delta-E=       -0.000000152224 Rises=F Damp=F
 DIIS: error= 1.54D-05 at cycle   4 NSaved=   4.
 NSaved= 4 IEnMin= 4 EnMin= -876.651591904645     IErMin= 4 ErrMin= 1.54D-05
 ErrMax= 1.54D-05  0.00D+00 EMaxC= 1.00D-01 BMatC= 3.88D-08 BMatP= 2.98D-07
 IDIUse=1 WtCom= 1.00D+00 WtEn= 0.00D+00
 Coeff-Com: -0.973D-02 0.133D+00 0.292D+00 0.585D+00
 Coeff:     -0.973D-02 0.133D+00 0.292D+00 0.585D+00
 Gap=     0.300 Goal=   None    Shift=    0.000
 RMSDP=5.98D-07 MaxDP=1.96D-05 DE=-1.52D-07 OVMax= 2.86D-05

 Cycle   5  Pass 1  IDiag  1:
 E= -876.651591927533     Delta-E=       -0.000000022887 Rises=F Damp=F
 DIIS: error= 1.43D-06 at cycle   5 NSaved=   5.
 NSaved= 5 IEnMin= 5 EnMin= -876.651591927533     IErMin= 5 ErrMin= 1.43D-06
 ErrMax= 1.43D-06  0.00D+00 EMaxC= 1.00D-01 BMatC= 7.16D-10 BMatP= 3.88D-08
 IDIUse=1 WtCom= 1.00D+00 WtEn= 0.00D+00
 Coeff-Com: -0.107D-02 0.803D-02 0.581D-01 0.186D+00 0.749D+00
 Coeff:     -0.107D-02 0.803D-02 0.581D-01 0.186D+00 0.749D+00
 Gap=     0.300 Goal=   None    Shift=    0.000
 RMSDP=1.88D-07 MaxDP=7.86D-06 DE=-2.29D-08 OVMax= 6.13D-06

 Cycle   6  Pass 1  IDiag  1:
 E= -876.651591928064     Delta-E=       -0.000000000531 Rises=F Damp=F
 DIIS: error= 9.04D-07 at cycle   6 NSaved=   6.
 NSaved= 6 IEnMin= 6 EnMin= -876.651591928064     IErMin= 6 ErrMin= 9.04D-07
 ErrMax= 9.04D-07  0.00D+00 EMaxC= 1.00D-01 BMatC= 7.61D-11 BMatP= 7.16D-10
 IDIUse=1 WtCom= 1.00D+00 WtEn= 0.00D+00
 Coeff-Com:  0.973D-04-0.485D-02 0.742D-02 0.470D-01 0.321D+00 0.629D+00
 Coeff:      0.973D-04-0.485D-02 0.742D-02 0.470D-01 0.321D+00 0.629D+00
 Gap=     0.300 Goal=   None    Shift=    0.000
 RMSDP=4.71D-08 MaxDP=2.25D-06 DE=-5.31D-10 OVMax= 1.76D-06

 Cycle   7  Pass 1  IDiag  1:
 E= -876.651591928098     Delta-E=       -0.000000000034 Rises=F Damp=F
 DIIS: error= 1.80D-07 at cycle   7 NSaved=   7.
 NSaved= 7 IEnMin= 7 EnMin= -876.651591928098     IErMin= 7 ErrMin= 1.80D-07
 ErrMax= 1.80D-07  0.00D+00 EMaxC= 1.00D-01 BMatC= 3.72D-12 BMatP= 7.61D-11
 IDIUse=1 WtCom= 1.00D+00 WtEn= 0.00D+00
 Coeff-Com:  0.932D-04-0.251D-02 0.584D-04 0.110D-01 0.974D-01 0.264D+00
 Coeff-Com:  0.630D+00
 Coeff:      0.932D-04-0.251D-02 0.584D-04 0.110D-01 0.974D-01 0.264D+00
 Coeff:      0.630D+00
 Gap=     0.300 Goal=   None    Shift=    0.000
 RMSDP=9.52D-09 MaxDP=2.68D-07 DE=-3.43D-11 OVMax= 3.55D-07

 SCF Done:  E(RB3LYP) =  -876.651591928     A.U. after    7 cycles
            NFock=  7  Conv=0.95D-08     -V/T= 2.0027
 KE= 8.742501968570D+02 PE=-2.859088176054D+03 EE= 7.183810308505D+02
 Leave Link  502 at Thu Jun 13 12:26:12 2024, MaxMem=  1073741824 cpu:        83.1
 (Enter /apps/z_install_tree/linux-rocky8-ivybridge/gcc-12.2.0/gaussian-09-D.01-wczn3gur5lpur3omlkzwa2l5ecyxp5ef/g09/l508.exe)
 QCSCF skips out because SCF is already converged.
 Leave Link  508 at Thu Jun 13 12:26:12 2024, MaxMem=  1073741824 cpu:         0.0
 (Enter /apps/z_install_tree/linux-rocky8-ivybridge/gcc-12.2.0/gaussian-09-D.01-wczn3gur5lpur3omlkzwa2l5ecyxp5ef/g09/l701.exe)
 Compute integral first derivatives.
 ... and contract with generalized density number  0.
 R6Disp: Adding Grimme-D3 dispersion energy 1st derivatives to the gradient.
 Leave Link  701 at Thu Jun 13 12:26:12 2024, MaxMem=  1073741824 cpu:         2.3
 (Enter /apps/z_install_tree/linux-rocky8-ivybridge/gcc-12.2.0/gaussian-09-D.01-wczn3gur5lpur3omlkzwa2l5ecyxp5ef/g09/l702.exe)
 L702 exits ... SP integral derivatives will be done elsewhere.
 Leave Link  702 at Thu Jun 13 12:26:12 2024, MaxMem=  1073741824 cpu:         0.2
 (Enter /apps/z_install_tree/linux-rocky8-ivybridge/gcc-12.2.0/gaussian-09-D.01-wczn3gur5lpur3omlkzwa2l5ecyxp5ef/g09/l703.exe)
 Compute integral first derivatives, UseDBF=F ICtDFT=           0.
 Integral derivatives from FoFJK, PRISM(SPDF).
 Calling FoFJK, ICntrl=      2127 FMM=F ISym2X=0 I1Cent= 0 IOpClX= 0 NMat=1 NMatS=1 NMatT=0.
 FoFJK:  IHMeth= 1 ICntrl=    2127 DoSepK=F KAlg= 0 I1Cent=   0 FoldK=F
 IRaf=         0 NMat=   1 IRICut=       1 DoRegI=T DoRafI=F ISym2E= 0.
 FoFCou: FMM=F IPFlag=           0 FMFlag=      100000 FMFlg1=         800
         NFxFlg=           0 DoJE=F BraDBF=F KetDBF=F FulRan=T
         wScrn=  0.000000 ICntrl=    2127 IOpCl=  0 I1Cent=           0 NGrid=           0
         NMat0=    1 NMatS0=      1 NMatT0=    0 NMatD0=    1 NMtDS0=    0 NMtDT0=    0
 Symmetry not used in FoFCou.
 Leave Link  703 at Thu Jun 13 12:26:14 2024, MaxMem=  1073741824 cpu:        34.6
 (Enter /apps/z_install_tree/linux-rocky8-ivybridge/gcc-12.2.0/gaussian-09-D.01-wczn3gur5lpur3omlkzwa2l5ecyxp5ef/g09/l716.exe)
 Dipole        = 2.19432574D-02-2.61262153D-02-1.58937487D-01
 -------------------------------------------------------------------
 Center     Atomic                   Forces (Hartrees/Bohr)
 Number     Number              X              Y              Z
 -------------------------------------------------------------------
      1        6          -0.000211581   -0.000119537    0.000179298
      2        6          -0.000039493    0.000124556    0.000028381
      3        6           0.000085861   -0.000022569    0.000048117
      4        9          -0.000067500    0.000102512   -0.000158679
      5        9           0.000161424   -0.000032459   -0.000104759
      6        9           0.000054065   -0.000204263    0.000153945
      7       17          -0.000016490    0.000021592    0.000033906
      8        1           0.000023533    0.000096059   -0.000006709
      9        1           0.000002412    0.000006699   -0.000110867
     10        1           0.000037778   -0.000005051   -0.000024610
     11        1          -0.000030009    0.000032461   -0.000038023
 -------------------------------------------------------------------
 Cartesian Forces:  Max     0.000211581 RMS     0.000094623
 Leave Link  716 at Thu Jun 13 12:26:14 2024, MaxMem=  1073741824 cpu:         0.2
 (Enter /apps/z_install_tree/linux-rocky8-ivybridge/gcc-12.2.0/gaussian-09-D.01-wczn3gur5lpur3omlkzwa2l5ecyxp5ef/g09/l103.exe)

 GradGradGradGradGradGradGradGradGradGradGradGradGradGradGradGradGradGrad
 Berny optimization.
 Using GEDIIS/GDIIS optimizer.
 FormGI is forming the generalized inverse of G from B-inverse, IUseBI=4.
 Internal  Forces:  Max     0.000262475 RMS     0.000082463
 Search for a local minimum.
 Step number   9 out of a maximum of   56
 All quantities printed in internal units (Hartrees-Bohrs-Radians)
 RMS Force = .82463D-04 SwitMx=.10000D-02 MixMth= 2
 Mixed Optimization -- En-DIIS/RFO-DIIS
 Swapping is turned off.
 Update second derivatives using D2CorX and points    5    6    7    8    9
 DE= -8.58D-06 DEPred=-8.18D-06 R= 1.05D+00
 TightC=F SS=  1.41D+00  RLast= 3.82D-02 DXNew= 1.4270D+00 1.1448D-01
 Trust test= 1.05D+00 RLast= 3.82D-02 DXMaxT set to 8.49D-01
 ITU=  1  1  1  1  1  0  0  1  0
     Eigenvalues ---    0.00237   0.00303   0.03451   0.04777   0.05365
     Eigenvalues ---    0.05608   0.07570   0.08542   0.09348   0.12200
     Eigenvalues ---    0.16009   0.16024   0.18796   0.21282   0.21979
     Eigenvalues ---    0.22519   0.24706   0.25087   0.26891   0.28811
     Eigenvalues ---    0.33019   0.33873   0.34044   0.34063   0.34173
     Eigenvalues ---    0.36745   0.58383
 En-DIIS/RFO-DIIS IScMMF=        0 using points:     9    8    7
 RFO step:  Lambda=-7.54656453D-07.
 NNeg= 0 NP= 3 Switch=  2.50D-03 Rises=F DC=  5.75D-05 SmlDif=  1.00D-05
 RMS Error=  0.2344450258D-03 NUsed= 3 EDIIS=F
 DidBck=F Rises=F RFO-DIIS coefs:    1.06234   -0.05223   -0.01011
 Iteration  1 RMS(Cart)=  0.00193863 RMS(Int)=  0.00000256
 Iteration  2 RMS(Cart)=  0.00000249 RMS(Int)=  0.00000036
 Iteration  3 RMS(Cart)=  0.00000000 RMS(Int)=  0.00000036
 ITry= 1 IFail=0 DXMaxC= 6.01D-03 DCOld= 1.00D+10 DXMaxT= 8.49D-01 DXLimC= 3.00D+00 Rises=F
 Variable       Old X    -DE/DX   Delta X   Delta X   Delta X     New X
                                 (Linear)    (Quad)   (Total)
    R1        2.85462  -0.00009   0.00006  -0.00027  -0.00022   2.85440
    R2        2.87299   0.00007   0.00001   0.00028   0.00029   2.87328
    R3        2.05632   0.00004   0.00000   0.00013   0.00014   2.05646
    R4        2.05655   0.00001   0.00001   0.00003   0.00004   2.05659
    R5        2.55566   0.00005   0.00002  -0.00020  -0.00019   2.55547
    R6        2.54651  -0.00018   0.00005  -0.00104  -0.00100   2.54551
    R7        2.55532   0.00023  -0.00012   0.00113   0.00101   2.55633
    R8        3.42484  -0.00004  -0.00003  -0.00021  -0.00024   3.42461
    R9        2.05032   0.00002  -0.00001   0.00004   0.00003   2.05035
   R10        2.05028   0.00002   0.00002   0.00009   0.00011   2.05039
    A1        1.94897  -0.00006   0.00010  -0.00017  -0.00007   1.94890
    A2        1.87748  -0.00001  -0.00003  -0.00070  -0.00074   1.87675
    A3        1.87448   0.00011   0.00010   0.00169   0.00180   1.87628
    A4        1.93585  -0.00001  -0.00020  -0.00117  -0.00137   1.93448
    A5        1.93466  -0.00002   0.00006   0.00022   0.00028   1.93494
    A6        1.88975   0.00000  -0.00003   0.00020   0.00017   1.88992
    A7        1.95423  -0.00026  -0.00004  -0.00112  -0.00116   1.95308
    A8        1.94143  -0.00009   0.00006  -0.00054  -0.00048   1.94095
    A9        1.95193   0.00013   0.00011   0.00101   0.00112   1.95305
   A10        1.87282   0.00013  -0.00005   0.00002  -0.00003   1.87279
   A11        1.86529   0.00016  -0.00012   0.00102   0.00090   1.86620
   A12        1.87353  -0.00005   0.00002  -0.00035  -0.00032   1.87320
   A13        1.92089  -0.00005   0.00005  -0.00027  -0.00022   1.92067
   A14        1.94912   0.00008  -0.00002   0.00067   0.00065   1.94976
   A15        1.95015  -0.00003   0.00000  -0.00025  -0.00025   1.94990
   A16        1.86404  -0.00001  -0.00005  -0.00007  -0.00012   1.86392
   A17        1.86438   0.00000   0.00002  -0.00045  -0.00044   1.86395
   A18        1.91139   0.00000   0.00000   0.00033   0.00033   1.91172
    D1        1.04366   0.00005   0.00075   0.00275   0.00350   1.04716
    D2        3.13906  -0.00003   0.00071   0.00164   0.00234   3.14140
    D3       -1.04939  -0.00007   0.00086   0.00151   0.00237  -1.04703
    D4       -1.08428   0.00011   0.00096   0.00478   0.00574  -1.07854
    D5        1.01112   0.00003   0.00092   0.00367   0.00458   1.01570
    D6        3.10585  -0.00001   0.00106   0.00354   0.00460   3.11046
    D7       -3.11506   0.00006   0.00096   0.00403   0.00500  -3.11006
    D8       -1.01966  -0.00002   0.00092   0.00292   0.00384  -1.01582
    D9        1.07508  -0.00006   0.00106   0.00280   0.00386   1.07894
   D10        3.13972   0.00007  -0.00024   0.00075   0.00051   3.14023
   D11        1.07252   0.00006  -0.00020   0.00060   0.00039   1.07291
   D12       -1.07518   0.00002  -0.00019  -0.00014  -0.00033  -1.07551
   D13       -1.04951   0.00001  -0.00035  -0.00104  -0.00140  -1.05091
   D14       -3.11672  -0.00001  -0.00031  -0.00120  -0.00152  -3.11823
   D15        1.01876  -0.00005  -0.00030  -0.00194  -0.00224   1.01652
   D16        1.05038  -0.00002  -0.00048  -0.00142  -0.00191   1.04847
   D17       -1.01682  -0.00003  -0.00044  -0.00158  -0.00202  -1.01885
   D18        3.11866  -0.00007  -0.00043  -0.00232  -0.00275   3.11591
         Item               Value     Threshold  Converged?
 Maximum Force            0.000262     0.000450     YES
 RMS     Force            0.000082     0.000300     YES
 Maximum Displacement     0.006012     0.001800     NO 
 RMS     Displacement     0.001939     0.001200     NO 
 Predicted change in Energy=-1.263788D-06
 Lowest energy point so far.  Saving SCF results.
 GradGradGradGradGradGradGradGradGradGradGradGradGradGradGradGradGradGrad

 Leave Link  103 at Thu Jun 13 12:26:15 2024, MaxMem=  1073741824 cpu:         6.5
 (Enter /apps/z_install_tree/linux-rocky8-ivybridge/gcc-12.2.0/gaussian-09-D.01-wczn3gur5lpur3omlkzwa2l5ecyxp5ef/g09/l202.exe)
                          Input orientation:                          
 ---------------------------------------------------------------------
 Center     Atomic      Atomic             Coordinates (Angstroms)
 Number     Number       Type             X           Y           Z
 ---------------------------------------------------------------------
      1          6           0       50.126605   35.361591   31.935241
      2          6           0       50.059875   35.656162   33.415220
      3          6           0       51.506197   35.653341   31.366509
      4          9           0       50.334002   36.952741   33.684366
      5          9           0       48.834282   35.394861   33.909315
      6          9           0       50.944608   34.912456   34.118133
      7         17           0       51.537826   35.283370   29.592733
      8          1           0       49.369265   35.970457   31.445376
      9          1           0       49.864220   34.314374   31.797790
     10          1           0       52.269702   35.036629   31.829059
     11          1           0       51.771417   36.700018   31.473258
 ---------------------------------------------------------------------
                    Distance matrix (angstroms):
                    1          2          3          4          5
     1  C    0.000000
     2  C    1.510484   0.000000
     3  C    1.520476   2.507803   0.000000
     4  F    2.373649   1.352296   2.904298   0.000000
     5  F    2.359698   1.347028   3.697540   2.174109   0.000000
     6  F    2.373998   1.352752   2.904433   2.173421   2.174808
     7  Cl   2.735874   4.115181   1.812224   4.580115   5.094552
     8  H    1.088233   2.110927   2.161773   2.628437   2.586217
     9  H    1.088302   2.110629   2.162157   3.277323   2.585878
    10  H    2.170193   2.789815   1.085001   3.295541   4.032110
    11  H    2.170305   2.791099   1.085021   2.649346   4.032937
                    6          7          8          9         10
     6  F    0.000000
     7  Cl   4.579162   0.000000
     8  H    3.277911   2.933774   0.000000
     9  H    2.628485   2.932948   1.764025   0.000000
    10  H    2.647859   2.365941   3.071121   2.511767   0.000000
    11  H    3.297630   2.365973   2.510652   3.071485   1.772497
                   11
    11  H    0.000000
 Symmetry turned off by external request.
 Stoichiometry    C3H4ClF3
 Framework group  C1[X(C3H4ClF3)]
 Deg. of freedom    27
 Full point group                 C1      NOp   1
 Rotational constants (GHZ):      4.9287181      0.9247785      0.9139228
 Leave Link  202 at Thu Jun 13 12:26:15 2024, MaxMem=  1073741824 cpu:         0.7
 (Enter /apps/z_install_tree/linux-rocky8-ivybridge/gcc-12.2.0/gaussian-09-D.01-wczn3gur5lpur3omlkzwa2l5ecyxp5ef/g09/l301.exe)
 Basis read from rwf:  (5D, 7F)
 No pseudopotential information found on rwf file.
   233 basis functions,   355 primitive gaussians,   247 cartesian basis functions
    33 alpha electrons       33 beta electrons
       nuclear repulsion energy       389.8232006938 Hartrees.
 IExCor=  402 DFT=T Ex+Corr=B3LYP ExCW=0 ScaHFX=  0.200000
 ScaDFX=  0.800000  0.720000  1.000000  0.810000 ScalE2=  1.000000  1.000000
 IRadAn=      5 IRanWt=     -1 IRanGd=            0 ICorTp=0 IEmpDi=131
 NAtoms=   11 NActive=   11 NUniq=   11 SFac= 1.00D+00 NAtFMM=   60 NAOKFM=F Big=F
 Integral buffers will be    131072 words long.
 Raffenetti 2 integral format.
 Two-electron integral symmetry is turned off.
 R6Disp:  Grimme-D3 Dispersion energy=       -0.0082896837 Hartrees.
 Nuclear repulsion after empirical dispersion term =      389.8149110101 Hartrees.
 No density basis found on file   724.
 Leave Link  301 at Thu Jun 13 12:26:15 2024, MaxMem=  1073741824 cpu:         0.7
 (Enter /apps/z_install_tree/linux-rocky8-ivybridge/gcc-12.2.0/gaussian-09-D.01-wczn3gur5lpur3omlkzwa2l5ecyxp5ef/g09/l302.exe)
 NPDir=0 NMtPBC=     1 NCelOv=     1 NCel=       1 NClECP=     1 NCelD=      1
         NCelK=      1 NCelE2=     1 NClLst=     1 CellRange=     0.0.
 One-electron integrals computed using PRISM.
 NBasis=   233 RedAO= T EigKep=  2.52D-05  NBF=   233
 NBsUse=   233 1.00D-06 EigRej= -1.00D+00 NBFU=   233
 Precomputing XC quadrature grid using
 IXCGrd= 4 IRadAn=           5 IRanWt=          -1 IRanGd=           0 AccXCQ= 0.00D+00.
 Generated NRdTot=       0 NPtTot=           0 NUsed=           0 NTot=          32
 NSgBfM=   247   247   247   247   247 MxSgAt=    11 MxSgA2=    11.
 Leave Link  302 at Thu Jun 13 12:26:16 2024, MaxMem=  1073741824 cpu:         4.0
 (Enter /apps/z_install_tree/linux-rocky8-ivybridge/gcc-12.2.0/gaussian-09-D.01-wczn3gur5lpur3omlkzwa2l5ecyxp5ef/g09/l303.exe)
 DipDrv:  MaxL=1.
 Leave Link  303 at Thu Jun 13 12:26:16 2024, MaxMem=  1073741824 cpu:         1.1
 (Enter /apps/z_install_tree/linux-rocky8-ivybridge/gcc-12.2.0/gaussian-09-D.01-wczn3gur5lpur3omlkzwa2l5ecyxp5ef/g09/l401.exe)
 Initial guess from the checkpoint file:  "chlorotrifluoropropane.chk"
 B after Tr=     0.088570   -0.176938    0.056254
         Rot=    1.000000    0.000298   -0.000083   -0.000735 Ang=   0.09 deg.
 Guess basis will be translated and rotated to current coordinates.
 JPrj=2 DoOrth=T DoCkMO=T.
 Leave Link  401 at Thu Jun 13 12:26:16 2024, MaxMem=  1073741824 cpu:         5.9
 (Enter /apps/z_install_tree/linux-rocky8-ivybridge/gcc-12.2.0/gaussian-09-D.01-wczn3gur5lpur3omlkzwa2l5ecyxp5ef/g09/l502.exe)
 Closed shell SCF:
 Using DIIS extrapolation, IDIIS=  1040.
 Two-electron integral symmetry not used.
 Keep R1 ints in memory in canonical form, NReq=379421756.
 IVT=      200693 IEndB=      200693 NGot=  1073741824 MDV=   701946441
 LenX=   701946441 LenY=   701884991
 Requested convergence on RMS density matrix=1.00D-08 within  96 cycles.
 Requested convergence on MAX density matrix=1.00D-06.
 Requested convergence on             energy=1.00D-06.
 No special actions if energy rises.
 FoFCou: FMM=F IPFlag=           0 FMFlag=           0 FMFlg1=           0
         NFxFlg=           0 DoJE=F BraDBF=F KetDBF=F FulRan=T
         wScrn=  0.000000 ICntrl=     600 IOpCl=  0 I1Cent=           0 NGrid=           0
         NMat0=    1 NMatS0=  27261 NMatT0=    0 NMatD0=    1 NMtDS0=    0 NMtDT0=    0
 Symmetry not used in FoFCou.

 Cycle   1  Pass 1  IDiag  1:
 E= -876.651586410274    
 DIIS: error= 1.89D-04 at cycle   1 NSaved=   1.
 NSaved= 1 IEnMin= 1 EnMin= -876.651586410274     IErMin= 1 ErrMin= 1.89D-04
 ErrMax= 1.89D-04  0.00D+00 EMaxC= 1.00D-01 BMatC= 4.64D-06 BMatP= 4.64D-06
 IDIUse=3 WtCom= 9.98D-01 WtEn= 1.89D-03
 Coeff-Com:  0.100D+01
 Coeff-En:   0.100D+01
 Coeff:      0.100D+01
 Gap=     0.550 Goal=   None    Shift=    0.000
 RMSDP=1.84D-05 MaxDP=3.98D-04              OVMax= 8.03D-04

 Cycle   2  Pass 1  IDiag  1:
 E= -876.651592775509     Delta-E=       -0.000006365235 Rises=F Damp=F
 DIIS: error= 1.86D-05 at cycle   2 NSaved=   2.
 NSaved= 2 IEnMin= 2 EnMin= -876.651592775509     IErMin= 2 ErrMin= 1.86D-05
 ErrMax= 1.86D-05  0.00D+00 EMaxC= 1.00D-01 BMatC= 6.66D-08 BMatP= 4.64D-06
 IDIUse=1 WtCom= 1.00D+00 WtEn= 0.00D+00
 Coeff-Com: -0.448D-01 0.104D+01
 Coeff:     -0.448D-01 0.104D+01
 Gap=     0.300 Goal=   None    Shift=    0.000
 RMSDP=1.92D-06 MaxDP=8.24D-05 DE=-6.37D-06 OVMax= 8.79D-05

 Cycle   3  Pass 1  IDiag  1:
 E= -876.651592812768     Delta-E=       -0.000000037259 Rises=F Damp=F
 DIIS: error= 1.84D-05 at cycle   3 NSaved=   3.
 NSaved= 3 IEnMin= 3 EnMin= -876.651592812768     IErMin= 3 ErrMin= 1.84D-05
 ErrMax= 1.84D-05  0.00D+00 EMaxC= 1.00D-01 BMatC= 6.97D-08 BMatP= 6.66D-08
 IDIUse=1 WtCom= 1.00D+00 WtEn= 0.00D+00
 Coeff-Com: -0.342D-01 0.555D+00 0.479D+00
 Coeff:     -0.342D-01 0.555D+00 0.479D+00
 Gap=     0.300 Goal=   None    Shift=    0.000
 RMSDP=8.47D-07 MaxDP=3.39D-05 DE=-3.73D-08 OVMax= 4.16D-05

 Cycle   4  Pass 1  IDiag  1:
 E= -876.651592850622     Delta-E=       -0.000000037854 Rises=F Damp=F
 DIIS: error= 3.82D-06 at cycle   4 NSaved=   4.
 NSaved= 4 IEnMin= 4 EnMin= -876.651592850622     IErMin= 4 ErrMin= 3.82D-06
 ErrMax= 3.82D-06  0.00D+00 EMaxC= 1.00D-01 BMatC= 4.74D-09 BMatP= 6.66D-08
 IDIUse=1 WtCom= 1.00D+00 WtEn= 0.00D+00
 Coeff-Com: -0.844D-02 0.109D+00 0.232D+00 0.668D+00
 Coeff:     -0.844D-02 0.109D+00 0.232D+00 0.668D+00
 Gap=     0.300 Goal=   None    Shift=    0.000
 RMSDP=1.95D-07 MaxDP=6.48D-06 DE=-3.79D-08 OVMax= 1.01D-05

 Cycle   5  Pass 1  IDiag  1:
 E= -876.651592853232     Delta-E=       -0.000000002610 Rises=F Damp=F
 DIIS: error= 5.56D-07 at cycle   5 NSaved=   5.
 NSaved= 5 IEnMin= 5 EnMin= -876.651592853232     IErMin= 5 ErrMin= 5.56D-07
 ErrMax= 5.56D-07  0.00D+00 EMaxC= 1.00D-01 BMatC= 1.24D-10 BMatP= 4.74D-09
 IDIUse=1 WtCom= 1.00D+00 WtEn= 0.00D+00
 Coeff-Com: -0.112D-02 0.668D-02 0.546D-01 0.228D+00 0.712D+00
 Coeff:     -0.112D-02 0.668D-02 0.546D-01 0.228D+00 0.712D+00
 Gap=     0.300 Goal=   None    Shift=    0.000
 RMSDP=9.50D-08 MaxDP=6.39D-06 DE=-2.61D-09 OVMax= 2.82D-06

 Cycle   6  Pass 1  IDiag  1:
 E= -876.651592853334     Delta-E=       -0.000000000102 Rises=F Damp=F
 DIIS: error= 1.82D-07 at cycle   6 NSaved=   6.
 NSaved= 6 IEnMin= 6 EnMin= -876.651592853334     IErMin= 6 ErrMin= 1.82D-07
 ErrMax= 1.82D-07  0.00D+00 EMaxC= 1.00D-01 BMatC= 1.60D-11 BMatP= 1.24D-10
 IDIUse=1 WtCom= 1.00D+00 WtEn= 0.00D+00
 Coeff-Com:  0.167D-03-0.607D-02 0.580D-02 0.520D-01 0.321D+00 0.628D+00
 Coeff:      0.167D-03-0.607D-02 0.580D-02 0.520D-01 0.321D+00 0.628D+00
 Gap=     0.300 Goal=   None    Shift=    0.000
 RMSDP=1.91D-08 MaxDP=1.01D-06 DE=-1.02D-10 OVMax= 8.13D-07

 Cycle   7  Pass 1  IDiag  1:
 E= -876.651592853355     Delta-E=       -0.000000000020 Rises=F Damp=F
 DIIS: error= 3.61D-08 at cycle   7 NSaved=   7.
 NSaved= 7 IEnMin= 7 EnMin= -876.651592853355     IErMin= 7 ErrMin= 3.61D-08
 ErrMax= 3.61D-08  0.00D+00 EMaxC= 1.00D-01 BMatC= 5.74D-13 BMatP= 1.60D-11
 IDIUse=1 WtCom= 1.00D+00 WtEn= 0.00D+00
 Coeff-Com:  0.999D-04-0.285D-02 0.959D-03 0.171D-01 0.123D+00 0.285D+00
 Coeff-Com:  0.576D+00
 Coeff:      0.999D-04-0.285D-02 0.959D-03 0.171D-01 0.123D+00 0.285D+00
 Coeff:      0.576D+00
 Gap=     0.300 Goal=   None    Shift=    0.000
 RMSDP=5.80D-09 MaxDP=2.96D-07 DE=-2.02D-11 OVMax= 2.26D-07

 SCF Done:  E(RB3LYP) =  -876.651592853     A.U. after    7 cycles
            NFock=  7  Conv=0.58D-08     -V/T= 2.0027
 KE= 8.742503711456D+02 PE=-2.859107577341D+03 EE= 7.183907023317D+02
 Leave Link  502 at Thu Jun 13 12:26:23 2024, MaxMem=  1073741824 cpu:        79.2
 (Enter /apps/z_install_tree/linux-rocky8-ivybridge/gcc-12.2.0/gaussian-09-D.01-wczn3gur5lpur3omlkzwa2l5ecyxp5ef/g09/l508.exe)
 QCSCF skips out because SCF is already converged.
 Leave Link  508 at Thu Jun 13 12:26:24 2024, MaxMem=  1073741824 cpu:         0.0
 (Enter /apps/z_install_tree/linux-rocky8-ivybridge/gcc-12.2.0/gaussian-09-D.01-wczn3gur5lpur3omlkzwa2l5ecyxp5ef/g09/l701.exe)
 Compute integral first derivatives.
 ... and contract with generalized density number  0.
 R6Disp: Adding Grimme-D3 dispersion energy 1st derivatives to the gradient.
 Leave Link  701 at Thu Jun 13 12:26:24 2024, MaxMem=  1073741824 cpu:         6.1
 (Enter /apps/z_install_tree/linux-rocky8-ivybridge/gcc-12.2.0/gaussian-09-D.01-wczn3gur5lpur3omlkzwa2l5ecyxp5ef/g09/l702.exe)
 L702 exits ... SP integral derivatives will be done elsewhere.
 Leave Link  702 at Thu Jun 13 12:26:24 2024, MaxMem=  1073741824 cpu:         0.2
 (Enter /apps/z_install_tree/linux-rocky8-ivybridge/gcc-12.2.0/gaussian-09-D.01-wczn3gur5lpur3omlkzwa2l5ecyxp5ef/g09/l703.exe)
 Compute integral first derivatives, UseDBF=F ICtDFT=           0.
 Integral derivatives from FoFJK, PRISM(SPDF).
 Calling FoFJK, ICntrl=      2127 FMM=F ISym2X=0 I1Cent= 0 IOpClX= 0 NMat=1 NMatS=1 NMatT=0.
 FoFJK:  IHMeth= 1 ICntrl=    2127 DoSepK=F KAlg= 0 I1Cent=   0 FoldK=F
 IRaf=         0 NMat=   1 IRICut=       1 DoRegI=T DoRafI=F ISym2E= 0.
 FoFCou: FMM=F IPFlag=           0 FMFlag=      100000 FMFlg1=         800
         NFxFlg=           0 DoJE=F BraDBF=F KetDBF=F FulRan=T
         wScrn=  0.000000 ICntrl=    2127 IOpCl=  0 I1Cent=           0 NGrid=           0
         NMat0=    1 NMatS0=      1 NMatT0=    0 NMatD0=    1 NMtDS0=    0 NMtDT0=    0
 Symmetry not used in FoFCou.
 Leave Link  703 at Thu Jun 13 12:26:27 2024, MaxMem=  1073741824 cpu:        35.7
 (Enter /apps/z_install_tree/linux-rocky8-ivybridge/gcc-12.2.0/gaussian-09-D.01-wczn3gur5lpur3omlkzwa2l5ecyxp5ef/g09/l716.exe)
 Dipole        = 2.13898719D-02-2.58502750D-02-1.58568248D-01
 -------------------------------------------------------------------
 Center     Atomic                   Forces (Hartrees/Bohr)
 Number     Number              X              Y              Z
 -------------------------------------------------------------------
      1        6           0.000014663   -0.000053305   -0.000002367
      2        6           0.000098929   -0.000060355   -0.000031805
      3        6           0.000059415   -0.000007082    0.000044346
      4        9           0.000111198    0.000094282    0.000008252
      5        9          -0.000174571   -0.000104364    0.000096350
      6        9          -0.000101264    0.000105080   -0.000114598
      7       17          -0.000009437   -0.000004257   -0.000047904
      8        1          -0.000023868    0.000008767    0.000036330
      9        1           0.000036482    0.000030200   -0.000006947
     10        1          -0.000000348    0.000008287    0.000005028
     11        1          -0.000011201   -0.000017254    0.000013314
 -------------------------------------------------------------------
 Cartesian Forces:  Max     0.000174571 RMS     0.000064386
 Leave Link  716 at Thu Jun 13 12:26:27 2024, MaxMem=  1073741824 cpu:         0.5
 (Enter /apps/z_install_tree/linux-rocky8-ivybridge/gcc-12.2.0/gaussian-09-D.01-wczn3gur5lpur3omlkzwa2l5ecyxp5ef/g09/l103.exe)

 GradGradGradGradGradGradGradGradGradGradGradGradGradGradGradGradGradGrad
 Berny optimization.
 Using GEDIIS/GDIIS optimizer.
 FormGI is forming the generalized inverse of G from B-inverse, IUseBI=4.
 Internal  Forces:  Max     0.000214000 RMS     0.000052849
 Search for a local minimum.
 Step number  10 out of a maximum of   56
 All quantities printed in internal units (Hartrees-Bohrs-Radians)
 RMS Force = .52849D-04 SwitMx=.10000D-02 MixMth= 2
 Mixed Optimization -- En-DIIS/RFO-DIIS
 Swapping is turned off.
 Update second derivatives using D2CorX and points    5    6    7    8    9
                                                     10
 DE= -9.25D-07 DEPred=-1.26D-06 R= 7.32D-01
 TightC=F SS=  1.41D+00  RLast= 1.38D-02 DXNew= 1.4270D+00 4.1445D-02
 Trust test= 7.32D-01 RLast= 1.38D-02 DXMaxT set to 8.49D-01
 ITU=  1  1  1  1  1  1  0  0  1  0
     Eigenvalues ---    0.00234   0.00290   0.03158   0.04784   0.05355
     Eigenvalues ---    0.05599   0.07491   0.09089   0.09401   0.12225
     Eigenvalues ---    0.15940   0.16034   0.21197   0.21566   0.22123
     Eigenvalues ---    0.23008   0.24791   0.26449   0.26898   0.29604
     Eigenvalues ---    0.33470   0.33915   0.34045   0.34063   0.34292
     Eigenvalues ---    0.37040   0.58559
 En-DIIS/RFO-DIIS IScMMF=        0 using points:    10    9    8    7
 RFO step:  Lambda=-2.55701192D-07.
 NNeg= 0 NP= 4 Switch=  2.50D-03 Rises=F DC=  5.75D-05 SmlDif=  1.00D-05
 RMS Error=  0.1098564375D-03 NUsed= 4 EDIIS=F
 DidBck=T Rises=F RFO-DIIS coefs:    0.77631    0.26890   -0.04027   -0.00493
 Iteration  1 RMS(Cart)=  0.00062459 RMS(Int)=  0.00000023
 Iteration  2 RMS(Cart)=  0.00000024 RMS(Int)=  0.00000009
 ITry= 1 IFail=0 DXMaxC= 1.97D-03 DCOld= 1.00D+10 DXMaxT= 8.49D-01 DXLimC= 3.00D+00 Rises=F
 Variable       Old X    -DE/DX   Delta X   Delta X   Delta X     New X
                                 (Linear)    (Quad)   (Total)
    R1        2.85440  -0.00003   0.00009  -0.00019  -0.00010   2.85430
    R2        2.87328   0.00002  -0.00005   0.00016   0.00011   2.87339
    R3        2.05646   0.00001  -0.00003   0.00006   0.00003   2.05649
    R4        2.05659  -0.00004   0.00000  -0.00008  -0.00008   2.05651
    R5        2.55547   0.00012   0.00004   0.00018   0.00021   2.55568
    R6        2.54551   0.00021   0.00029   0.00035   0.00064   2.54615
    R7        2.55633  -0.00018  -0.00029  -0.00047  -0.00076   2.55557
    R8        3.42461   0.00005   0.00003   0.00013   0.00016   3.42477
    R9        2.05035   0.00000  -0.00001   0.00002   0.00000   2.05036
   R10        2.05039  -0.00002  -0.00001  -0.00002  -0.00003   2.05036
    A1        1.94890  -0.00002   0.00009  -0.00018  -0.00009   1.94881
    A2        1.87675  -0.00003   0.00014  -0.00046  -0.00033   1.87642
    A3        1.87628   0.00003  -0.00032   0.00070   0.00038   1.87666
    A4        1.93448   0.00004   0.00016  -0.00012   0.00005   1.93452
    A5        1.93494  -0.00002  -0.00002  -0.00011  -0.00013   1.93481
    A6        1.88992   0.00000  -0.00006   0.00019   0.00013   1.89006
    A7        1.95308  -0.00003   0.00023  -0.00045  -0.00023   1.95285
    A8        1.94095   0.00004   0.00016   0.00005   0.00021   1.94116
    A9        1.95305  -0.00006  -0.00016  -0.00002  -0.00019   1.95287
   A10        1.87279   0.00006  -0.00003   0.00049   0.00045   1.87324
   A11        1.86620  -0.00001  -0.00029   0.00013  -0.00016   1.86604
   A12        1.87320  -0.00001   0.00008  -0.00016  -0.00007   1.87313
   A13        1.92067  -0.00002   0.00008  -0.00014  -0.00006   1.92061
   A14        1.94976   0.00001  -0.00015   0.00027   0.00012   1.94988
   A15        1.94990  -0.00002   0.00006  -0.00021  -0.00015   1.94975
   A16        1.86392   0.00001  -0.00001   0.00012   0.00011   1.86403
   A17        1.86395   0.00001   0.00010  -0.00013  -0.00002   1.86392
   A18        1.91172   0.00000  -0.00007   0.00009   0.00002   1.91174
    D1        1.04716  -0.00004  -0.00031   0.00014  -0.00017   1.04699
    D2        3.14140   0.00005  -0.00008   0.00048   0.00040  -3.14138
    D3       -1.04703   0.00003   0.00002   0.00030   0.00032  -1.04671
    D4       -1.07854  -0.00006  -0.00065   0.00070   0.00004  -1.07850
    D5        1.01570   0.00003  -0.00043   0.00104   0.00061   1.01632
    D6        3.11046   0.00001  -0.00033   0.00086   0.00054   3.11100
    D7       -3.11006  -0.00006  -0.00049   0.00035  -0.00014  -3.11020
    D8       -1.01582   0.00003  -0.00027   0.00070   0.00043  -1.01539
    D9        1.07894   0.00001  -0.00017   0.00052   0.00035   1.07929
   D10        3.14023   0.00002  -0.00032   0.00150   0.00118   3.14142
   D11        1.07291   0.00001  -0.00026   0.00127   0.00101   1.07393
   D12       -1.07551   0.00002  -0.00010   0.00112   0.00102  -1.07450
   D13       -1.05091  -0.00001   0.00002   0.00072   0.00074  -1.05017
   D14       -3.11823  -0.00002   0.00008   0.00049   0.00057  -3.11766
   D15        1.01652  -0.00001   0.00024   0.00033   0.00057   1.01710
   D16        1.04847   0.00001   0.00005   0.00080   0.00085   1.04933
   D17       -1.01885   0.00000   0.00011   0.00058   0.00068  -1.01816
   D18        3.11591   0.00000   0.00027   0.00042   0.00069   3.11660
         Item               Value     Threshold  Converged?
 Maximum Force            0.000214     0.000450     YES
 RMS     Force            0.000053     0.000300     YES
 Maximum Displacement     0.001975     0.001800     NO 
 RMS     Displacement     0.000625     0.001200     YES
 Predicted change in Energy=-2.768114D-07
 Lowest energy point so far.  Saving SCF results.
 GradGradGradGradGradGradGradGradGradGradGradGradGradGradGradGradGradGrad

 Leave Link  103 at Thu Jun 13 12:26:27 2024, MaxMem=  1073741824 cpu:         6.6
 (Enter /apps/z_install_tree/linux-rocky8-ivybridge/gcc-12.2.0/gaussian-09-D.01-wczn3gur5lpur3omlkzwa2l5ecyxp5ef/g09/l202.exe)
                          Input orientation:                          
 ---------------------------------------------------------------------
 Center     Atomic      Atomic             Coordinates (Angstroms)
 Number     Number       Type             X           Y           Z
 ---------------------------------------------------------------------
      1          6           0       50.126610   35.361300   31.935307
      2          6           0       50.059753   35.656319   33.415135
      3          6           0       51.506305   35.653055   31.366678
      4          9           0       50.334010   36.953123   33.683635
      5          9           0       48.834073   35.394602   33.909712
      6          9           0       50.944604   34.913321   34.117874
      7         17           0       51.537578   35.284416   29.592533
      8          1           0       49.369287   35.970248   31.445480
      9          1           0       49.864365   34.314105   31.797760
     10          1           0       52.269756   35.035904   31.828736
     11          1           0       51.771659   36.699608   31.474151
 ---------------------------------------------------------------------
                    Distance matrix (angstroms):
                    1          2          3          4          5
     1  C    0.000000
     2  C    1.510430   0.000000
     3  C    1.520533   2.507728   0.000000
     4  F    2.373514   1.352408   2.903918   0.000000
     5  F    2.360093   1.347366   3.697924   2.174835   0.000000
     6  F    2.373479   1.352350   2.903755   2.173058   2.174696
     7  Cl   2.735933   4.115162   1.812309   4.579331   5.095009
     8  H    1.088249   2.110648   2.161867   2.627940   2.586554
     9  H    1.088259   2.110833   2.162079   3.277424   2.586371
    10  H    2.170326   2.790285   1.085002   3.295982   4.032747
    11  H    2.170235   2.790428   1.085006   2.648192   4.032916
                    6          7          8          9         10
     6  F    0.000000
     7  Cl   4.579087   0.000000
     8  H    3.277256   2.933473   0.000000
     9  H    2.628480   2.933286   1.764089   0.000000
    10  H    2.647869   2.366103   3.071255   2.511546   0.000000
    11  H    3.296075   2.366020   2.510812   3.071338   1.772497
                   11
    11  H    0.000000
 Symmetry turned off by external request.
 Stoichiometry    C3H4ClF3
 Framework group  C1[X(C3H4ClF3)]
 Deg. of freedom    27
 Full point group                 C1      NOp   1
 Rotational constants (GHZ):      4.9289640      0.9248307      0.9139329
 Leave Link  202 at Thu Jun 13 12:26:28 2024, MaxMem=  1073741824 cpu:         1.5
 (Enter /apps/z_install_tree/linux-rocky8-ivybridge/gcc-12.2.0/gaussian-09-D.01-wczn3gur5lpur3omlkzwa2l5ecyxp5ef/g09/l301.exe)
 Basis read from rwf:  (5D, 7F)
 No pseudopotential information found on rwf file.
   233 basis functions,   355 primitive gaussians,   247 cartesian basis functions
    33 alpha electrons       33 beta electrons
       nuclear repulsion energy       389.8254679580 Hartrees.
 IExCor=  402 DFT=T Ex+Corr=B3LYP ExCW=0 ScaHFX=  0.200000
 ScaDFX=  0.800000  0.720000  1.000000  0.810000 ScalE2=  1.000000  1.000000
 IRadAn=      5 IRanWt=     -1 IRanGd=            0 ICorTp=0 IEmpDi=131
 NAtoms=   11 NActive=   11 NUniq=   11 SFac= 1.00D+00 NAtFMM=   60 NAOKFM=F Big=F
 Integral buffers will be    131072 words long.
 Raffenetti 2 integral format.
 Two-electron integral symmetry is turned off.
 R6Disp:  Grimme-D3 Dispersion energy=       -0.0082908469 Hartrees.
 Nuclear repulsion after empirical dispersion term =      389.8171771111 Hartrees.
 No density basis found on file   724.
 Leave Link  301 at Thu Jun 13 12:26:28 2024, MaxMem=  1073741824 cpu:         0.6
 (Enter /apps/z_install_tree/linux-rocky8-ivybridge/gcc-12.2.0/gaussian-09-D.01-wczn3gur5lpur3omlkzwa2l5ecyxp5ef/g09/l302.exe)
 NPDir=0 NMtPBC=     1 NCelOv=     1 NCel=       1 NClECP=     1 NCelD=      1
         NCelK=      1 NCelE2=     1 NClLst=     1 CellRange=     0.0.
 One-electron integrals computed using PRISM.
 NBasis=   233 RedAO= T EigKep=  2.52D-05  NBF=   233
 NBsUse=   233 1.00D-06 EigRej= -1.00D+00 NBFU=   233
 Precomputing XC quadrature grid using
 IXCGrd= 4 IRadAn=           5 IRanWt=          -1 IRanGd=           0 AccXCQ= 0.00D+00.
 Generated NRdTot=       0 NPtTot=           0 NUsed=           0 NTot=          32
 NSgBfM=   247   247   247   247   247 MxSgAt=    11 MxSgA2=    11.
 Leave Link  302 at Thu Jun 13 12:26:28 2024, MaxMem=  1073741824 cpu:         4.3
 (Enter /apps/z_install_tree/linux-rocky8-ivybridge/gcc-12.2.0/gaussian-09-D.01-wczn3gur5lpur3omlkzwa2l5ecyxp5ef/g09/l303.exe)
 DipDrv:  MaxL=1.
 Leave Link  303 at Thu Jun 13 12:26:29 2024, MaxMem=  1073741824 cpu:         2.6
 (Enter /apps/z_install_tree/linux-rocky8-ivybridge/gcc-12.2.0/gaussian-09-D.01-wczn3gur5lpur3omlkzwa2l5ecyxp5ef/g09/l401.exe)
 Initial guess from the checkpoint file:  "chlorotrifluoropropane.chk"
 B after Tr=     0.009960   -0.017913    0.004383
         Rot=    1.000000   -0.000010   -0.000031   -0.000103 Ang=  -0.01 deg.
 Guess basis will be translated and rotated to current coordinates.
 JPrj=2 DoOrth=T DoCkMO=T.
 Leave Link  401 at Thu Jun 13 12:26:29 2024, MaxMem=  1073741824 cpu:         1.9
 (Enter /apps/z_install_tree/linux-rocky8-ivybridge/gcc-12.2.0/gaussian-09-D.01-wczn3gur5lpur3omlkzwa2l5ecyxp5ef/g09/l502.exe)
 Closed shell SCF:
 Using DIIS extrapolation, IDIIS=  1040.
 Two-electron integral symmetry not used.
 Keep R1 ints in memory in canonical form, NReq=379421756.
 IVT=      200693 IEndB=      200693 NGot=  1073741824 MDV=   701946441
 LenX=   701946441 LenY=   701884991
 Requested convergence on RMS density matrix=1.00D-08 within  96 cycles.
 Requested convergence on MAX density matrix=1.00D-06.
 Requested convergence on             energy=1.00D-06.
 No special actions if energy rises.
 FoFCou: FMM=F IPFlag=           0 FMFlag=           0 FMFlg1=           0
         NFxFlg=           0 DoJE=F BraDBF=F KetDBF=F FulRan=T
         wScrn=  0.000000 ICntrl=     600 IOpCl=  0 I1Cent=           0 NGrid=           0
         NMat0=    1 NMatS0=  27261 NMatT0=    0 NMatD0=    1 NMtDS0=    0 NMtDT0=    0
 Symmetry not used in FoFCou.

 Cycle   1  Pass 1  IDiag  1:
 E= -876.651592363047    
 DIIS: error= 2.94D-05 at cycle   1 NSaved=   1.
 NSaved= 1 IEnMin= 1 EnMin= -876.651592363047     IErMin= 1 ErrMin= 2.94D-05
 ErrMax= 2.94D-05  0.00D+00 EMaxC= 1.00D-01 BMatC= 5.26D-07 BMatP= 5.26D-07
 IDIUse=1 WtCom= 1.00D+00 WtEn= 0.00D+00
 Coeff-Com:  0.100D+01
 Coeff:      0.100D+01
 Gap=     0.550 Goal=   None    Shift=    0.000
 RMSDP=1.17D-05 MaxDP=5.16D-04              OVMax= 2.34D-04

 Cycle   2  Pass 1  IDiag  1:
 E= -876.651593042436     Delta-E=       -0.000000679389 Rises=F Damp=F
 DIIS: error= 8.21D-06 at cycle   2 NSaved=   2.
 NSaved= 2 IEnMin= 2 EnMin= -876.651593042436     IErMin= 2 ErrMin= 8.21D-06
 ErrMax= 8.21D-06  0.00D+00 EMaxC= 1.00D-01 BMatC= 1.70D-08 BMatP= 5.26D-07
 IDIUse=1 WtCom= 1.00D+00 WtEn= 0.00D+00
 Coeff-Com:  0.832D-02 0.992D+00
 Coeff:      0.832D-02 0.992D+00
 Gap=     0.300 Goal=   None    Shift=    0.000
 RMSDP=9.47D-07 MaxDP=4.99D-05 DE=-6.79D-07 OVMax= 3.46D-05

 Cycle   3  Pass 1  IDiag  1:
 E= -876.651593043486     Delta-E=       -0.000000001050 Rises=F Damp=F
 DIIS: error= 1.09D-05 at cycle   3 NSaved=   3.
 NSaved= 3 IEnMin= 3 EnMin= -876.651593043486     IErMin= 2 ErrMin= 8.21D-06
 ErrMax= 1.09D-05  0.00D+00 EMaxC= 1.00D-01 BMatC= 2.12D-08 BMatP= 1.70D-08
 IDIUse=1 WtCom= 1.00D+00 WtEn= 0.00D+00
 Coeff-Com: -0.259D-01 0.543D+00 0.483D+00
 Coeff:     -0.259D-01 0.543D+00 0.483D+00
 Gap=     0.300 Goal=   None    Shift=    0.000
 RMSDP=4.09D-07 MaxDP=1.56D-05 DE=-1.05D-09 OVMax= 2.19D-05

 Cycle   4  Pass 1  IDiag  1:
 E= -876.651593054891     Delta-E=       -0.000000011405 Rises=F Damp=F
 DIIS: error= 2.17D-06 at cycle   4 NSaved=   4.
 NSaved= 4 IEnMin= 4 EnMin= -876.651593054891     IErMin= 4 ErrMin= 2.17D-06
 ErrMax= 2.17D-06  0.00D+00 EMaxC= 1.00D-01 BMatC= 1.17D-09 BMatP= 1.70D-08
 IDIUse=1 WtCom= 1.00D+00 WtEn= 0.00D+00
 Coeff-Com: -0.101D-01 0.131D+00 0.234D+00 0.646D+00
 Coeff:     -0.101D-01 0.131D+00 0.234D+00 0.646D+00
 Gap=     0.300 Goal=   None    Shift=    0.000
 RMSDP=1.17D-07 MaxDP=5.39D-06 DE=-1.14D-08 OVMax= 5.16D-06

 Cycle   5  Pass 1  IDiag  1:
 E= -876.651593055583     Delta-E=       -0.000000000692 Rises=F Damp=F
 DIIS: error= 2.84D-07 at cycle   5 NSaved=   5.
 NSaved= 5 IEnMin= 5 EnMin= -876.651593055583     IErMin= 5 ErrMin= 2.84D-07
 ErrMax= 2.84D-07  0.00D+00 EMaxC= 1.00D-01 BMatC= 1.59D-11 BMatP= 1.17D-09
 IDIUse=1 WtCom= 1.00D+00 WtEn= 0.00D+00
 Coeff-Com: -0.185D-02 0.147D-01 0.480D-01 0.178D+00 0.761D+00
 Coeff:     -0.185D-02 0.147D-01 0.480D-01 0.178D+00 0.761D+00
 Gap=     0.300 Goal=   None    Shift=    0.000
 RMSDP=4.37D-08 MaxDP=3.00D-06 DE=-6.92D-10 OVMax= 1.30D-06

 Cycle   6  Pass 1  IDiag  1:
 E= -876.651593055591     Delta-E=       -0.000000000008 Rises=F Damp=F
 DIIS: error= 1.27D-07 at cycle   6 NSaved=   6.
 NSaved= 6 IEnMin= 6 EnMin= -876.651593055591     IErMin= 6 ErrMin= 1.27D-07
 ErrMax= 1.27D-07  0.00D+00 EMaxC= 1.00D-01 BMatC= 5.39D-12 BMatP= 1.59D-11
 IDIUse=1 WtCom= 1.00D+00 WtEn= 0.00D+00
 Coeff-Com:  0.328D-04-0.517D-02 0.269D-02 0.339D-01 0.400D+00 0.569D+00
 Coeff:      0.328D-04-0.517D-02 0.269D-02 0.339D-01 0.400D+00 0.569D+00
 Gap=     0.300 Goal=   None    Shift=    0.000
 RMSDP=1.20D-08 MaxDP=5.17D-07 DE=-7.73D-12 OVMax= 6.74D-07

 Cycle   7  Pass 1  IDiag  1:
 E= -876.651593055594     Delta-E=       -0.000000000003 Rises=F Damp=F
 DIIS: error= 3.49D-08 at cycle   7 NSaved=   7.
 NSaved= 7 IEnMin= 7 EnMin= -876.651593055594     IErMin= 7 ErrMin= 3.49D-08
 ErrMax= 3.49D-08  0.00D+00 EMaxC= 1.00D-01 BMatC= 3.48D-13 BMatP= 5.39D-12
 IDIUse=1 WtCom= 1.00D+00 WtEn= 0.00D+00
 Coeff-Com:  0.949D-04-0.309D-02-0.110D-02 0.882D-02 0.158D+00 0.293D+00
 Coeff-Com:  0.544D+00
 Coeff:      0.949D-04-0.309D-02-0.110D-02 0.882D-02 0.158D+00 0.293D+00
 Coeff:      0.544D+00
 Gap=     0.300 Goal=   None    Shift=    0.000
 RMSDP=4.00D-09 MaxDP=2.24D-07 DE=-3.18D-12 OVMax= 1.68D-07

 SCF Done:  E(RB3LYP) =  -876.651593056     A.U. after    7 cycles
            NFock=  7  Conv=0.40D-08     -V/T= 2.0027
 KE= 8.742501785810D+02 PE=-2.859111874232D+03 EE= 7.183929254842D+02
 Leave Link  502 at Thu Jun 13 12:26:36 2024, MaxMem=  1073741824 cpu:        81.8
 (Enter /apps/z_install_tree/linux-rocky8-ivybridge/gcc-12.2.0/gaussian-09-D.01-wczn3gur5lpur3omlkzwa2l5ecyxp5ef/g09/l508.exe)
 QCSCF skips out because SCF is already converged.
 Leave Link  508 at Thu Jun 13 12:26:36 2024, MaxMem=  1073741824 cpu:         0.0
 (Enter /apps/z_install_tree/linux-rocky8-ivybridge/gcc-12.2.0/gaussian-09-D.01-wczn3gur5lpur3omlkzwa2l5ecyxp5ef/g09/l701.exe)
 Compute integral first derivatives.
 ... and contract with generalized density number  0.
 R6Disp: Adding Grimme-D3 dispersion energy 1st derivatives to the gradient.
 Leave Link  701 at Thu Jun 13 12:26:37 2024, MaxMem=  1073741824 cpu:         1.9
 (Enter /apps/z_install_tree/linux-rocky8-ivybridge/gcc-12.2.0/gaussian-09-D.01-wczn3gur5lpur3omlkzwa2l5ecyxp5ef/g09/l702.exe)
 L702 exits ... SP integral derivatives will be done elsewhere.
 Leave Link  702 at Thu Jun 13 12:26:37 2024, MaxMem=  1073741824 cpu:         0.4
 (Enter /apps/z_install_tree/linux-rocky8-ivybridge/gcc-12.2.0/gaussian-09-D.01-wczn3gur5lpur3omlkzwa2l5ecyxp5ef/g09/l703.exe)
 Compute integral first derivatives, UseDBF=F ICtDFT=           0.
 Integral derivatives from FoFJK, PRISM(SPDF).
 Calling FoFJK, ICntrl=      2127 FMM=F ISym2X=0 I1Cent= 0 IOpClX= 0 NMat=1 NMatS=1 NMatT=0.
 FoFJK:  IHMeth= 1 ICntrl=    2127 DoSepK=F KAlg= 0 I1Cent=   0 FoldK=F
 IRaf=         0 NMat=   1 IRICut=       1 DoRegI=T DoRafI=F ISym2E= 0.
 FoFCou: FMM=F IPFlag=           0 FMFlag=      100000 FMFlg1=         800
         NFxFlg=           0 DoJE=F BraDBF=F KetDBF=F FulRan=T
         wScrn=  0.000000 ICntrl=    2127 IOpCl=  0 I1Cent=           0 NGrid=           0
         NMat0=    1 NMatS0=      1 NMatT0=    0 NMatD0=    1 NMtDS0=    0 NMtDT0=    0
 Symmetry not used in FoFCou.
 Leave Link  703 at Thu Jun 13 12:26:39 2024, MaxMem=  1073741824 cpu:        35.9
 (Enter /apps/z_install_tree/linux-rocky8-ivybridge/gcc-12.2.0/gaussian-09-D.01-wczn3gur5lpur3omlkzwa2l5ecyxp5ef/g09/l716.exe)
 Dipole        = 2.21905015D-02-2.68697975D-02-1.58086637D-01
 -------------------------------------------------------------------
 Center     Atomic                   Forces (Hartrees/Bohr)
 Number     Number              X              Y              Z
 -------------------------------------------------------------------
      1        6          -0.000033970    0.000009321   -0.000041524
      2        6          -0.000030989   -0.000027338   -0.000057002
      3        6           0.000020771    0.000015882    0.000023217
      4        9          -0.000019869    0.000037652    0.000019821
      5        9           0.000026419    0.000026364   -0.000006754
      6        9           0.000045210   -0.000048848    0.000055202
      7       17          -0.000003175   -0.000006359   -0.000011371
      8        1          -0.000008550   -0.000011271    0.000001925
      9        1           0.000010296    0.000011794    0.000012191
     10        1          -0.000008547    0.000002690   -0.000001542
     11        1           0.000002405   -0.000009887    0.000005838
 -------------------------------------------------------------------
 Cartesian Forces:  Max     0.000057002 RMS     0.000025384
 Leave Link  716 at Thu Jun 13 12:26:39 2024, MaxMem=  1073741824 cpu:         0.7
 (Enter /apps/z_install_tree/linux-rocky8-ivybridge/gcc-12.2.0/gaussian-09-D.01-wczn3gur5lpur3omlkzwa2l5ecyxp5ef/g09/l103.exe)

 GradGradGradGradGradGradGradGradGradGradGradGradGradGradGradGradGradGrad
 Berny optimization.
 Using GEDIIS/GDIIS optimizer.
 FormGI is forming the generalized inverse of G from B-inverse, IUseBI=4.
 Internal  Forces:  Max     0.000085196 RMS     0.000017737
 Search for a local minimum.
 Step number  11 out of a maximum of   56
 All quantities printed in internal units (Hartrees-Bohrs-Radians)
 RMS Force = .17737D-04 SwitMx=.10000D-02 MixMth= 2
 Mixed Optimization -- En-DIIS/RFO-DIIS
 Swapping is turned off.
 Update second derivatives using D2CorX and points    5    6    7    8    9
                                                     10   11
 DE= -2.02D-07 DEPred=-2.77D-07 R= 7.31D-01
 Trust test= 7.31D-01 RLast= 3.07D-03 DXMaxT set to 8.49D-01
 ITU=  0  1  1  1  1  1  1  0  0  1  0
     Eigenvalues ---    0.00234   0.00307   0.03480   0.04752   0.05381
     Eigenvalues ---    0.05637   0.07477   0.09326   0.09409   0.11960
     Eigenvalues ---    0.15983   0.16041   0.20874   0.21910   0.22603
     Eigenvalues ---    0.23351   0.24717   0.26871   0.28613   0.33041
     Eigenvalues ---    0.33428   0.33876   0.34043   0.34083   0.34265
     Eigenvalues ---    0.36631   0.57274
 En-DIIS/RFO-DIIS IScMMF=        0 using points:    11   10    9    8    7
 RFO step:  Lambda=-2.70124982D-08.
 NNeg= 0 NP= 5 Switch=  2.50D-03 Rises=F DC=  5.75D-05 SmlDif=  1.00D-05
 RMS Error=  0.3634360564D-04 NUsed= 5 EDIIS=F
 DidBck=F Rises=F RFO-DIIS coefs:    0.77660    0.18134    0.02344    0.01529    0.00334
 Iteration  1 RMS(Cart)=  0.00018226 RMS(Int)=  0.00000005
 Iteration  2 RMS(Cart)=  0.00000002 RMS(Int)=  0.00000005
 ITry= 1 IFail=0 DXMaxC= 5.98D-04 DCOld= 1.00D+10 DXMaxT= 8.49D-01 DXLimC= 3.00D+00 Rises=F
 Variable       Old X    -DE/DX   Delta X   Delta X   Delta X     New X
                                 (Linear)    (Quad)   (Total)
    R1        2.85430   0.00001   0.00001   0.00001   0.00002   2.85432
    R2        2.87339   0.00000  -0.00004   0.00005   0.00001   2.87340
    R3        2.05649   0.00000  -0.00001   0.00001  -0.00001   2.05649
    R4        2.05651  -0.00002   0.00001  -0.00006  -0.00004   2.05647
    R5        2.55568   0.00004  -0.00005   0.00015   0.00010   2.55579
    R6        2.54615  -0.00003  -0.00011   0.00000  -0.00011   2.54605
    R7        2.55557   0.00009   0.00016   0.00005   0.00021   2.55578
    R8        3.42477   0.00001  -0.00002   0.00009   0.00007   3.42484
    R9        2.05036  -0.00001   0.00000  -0.00002  -0.00002   2.05034
   R10        2.05036  -0.00001   0.00000  -0.00002  -0.00003   2.05034
    A1        1.94881  -0.00002  -0.00001  -0.00007  -0.00007   1.94874
    A2        1.87642   0.00001   0.00011  -0.00003   0.00008   1.87650
    A3        1.87666   0.00000  -0.00019   0.00005  -0.00015   1.87651
    A4        1.93452   0.00001   0.00011   0.00009   0.00019   1.93472
    A5        1.93481   0.00000   0.00000  -0.00007  -0.00007   1.93473
    A6        1.89006   0.00000  -0.00003   0.00004   0.00002   1.89007
    A7        1.95285   0.00002   0.00011  -0.00003   0.00008   1.95293
    A8        1.94116   0.00000  -0.00004   0.00008   0.00003   1.94120
    A9        1.95287   0.00002  -0.00004   0.00011   0.00007   1.95293
   A10        1.87324  -0.00003  -0.00009  -0.00008  -0.00016   1.87308
   A11        1.86604  -0.00001   0.00003  -0.00005  -0.00002   1.86602
   A12        1.87313  -0.00001   0.00002  -0.00004  -0.00001   1.87312
   A13        1.92061  -0.00001   0.00001  -0.00005  -0.00004   1.92057
   A14        1.94988  -0.00001  -0.00005  -0.00002  -0.00007   1.94981
   A15        1.94975   0.00001   0.00004   0.00000   0.00005   1.94979
   A16        1.86403   0.00001  -0.00001   0.00000   0.00000   1.86403
   A17        1.86392   0.00001   0.00002   0.00006   0.00008   1.86400
   A18        1.91174   0.00000  -0.00002   0.00000  -0.00001   1.91172
    D1        1.04699   0.00002  -0.00034   0.00019  -0.00016   1.04683
    D2       -3.14138   0.00000  -0.00041   0.00012  -0.00029   3.14151
    D3       -1.04671   0.00000  -0.00044   0.00020  -0.00024  -1.04694
    D4       -1.07850   0.00001  -0.00055   0.00014  -0.00041  -1.07890
    D5        1.01632  -0.00001  -0.00061   0.00007  -0.00054   1.01578
    D6        3.11100  -0.00001  -0.00064   0.00015  -0.00049   3.11051
    D7       -3.11020   0.00001  -0.00048   0.00008  -0.00039  -3.11059
    D8       -1.01539  -0.00001  -0.00054   0.00002  -0.00053  -1.01591
    D9        1.07929  -0.00001  -0.00057   0.00010  -0.00047   1.07882
   D10        3.14142  -0.00001  -0.00022   0.00021   0.00000   3.14141
   D11        1.07393   0.00000  -0.00019   0.00025   0.00007   1.07399
   D12       -1.07450   0.00000  -0.00016   0.00026   0.00010  -1.07440
   D13       -1.05017   0.00000  -0.00001   0.00019   0.00018  -1.04999
   D14       -3.11766   0.00000   0.00003   0.00022   0.00025  -3.11741
   D15        1.01710   0.00000   0.00005   0.00024   0.00029   1.01738
   D16        1.04933   0.00000   0.00003   0.00025   0.00028   1.04961
   D17       -1.01816   0.00001   0.00006   0.00029   0.00035  -1.01781
   D18        3.11660   0.00001   0.00008   0.00030   0.00038   3.11698
         Item               Value     Threshold  Converged?
 Maximum Force            0.000085     0.000450     YES
 RMS     Force            0.000018     0.000300     YES
 Maximum Displacement     0.000598     0.001800     YES
 RMS     Displacement     0.000182     0.001200     YES
 Predicted change in Energy=-3.035399D-08
 Optimization completed.
    -- Stationary point found.
                           ----------------------------
                           !   Optimized Parameters   !
                           ! (Angstroms and Degrees)  !
 --------------------------                            --------------------------
 ! Name  Definition              Value          Derivative Info.                !
 --------------------------------------------------------------------------------
 ! R1    R(1,2)                  1.5104         -DE/DX =    0.0                 !
 ! R2    R(1,3)                  1.5205         -DE/DX =    0.0                 !
 ! R3    R(1,8)                  1.0882         -DE/DX =    0.0                 !
 ! R4    R(1,9)                  1.0883         -DE/DX =    0.0                 !
 ! R5    R(2,4)                  1.3524         -DE/DX =    0.0                 !
 ! R6    R(2,5)                  1.3474         -DE/DX =    0.0                 !
 ! R7    R(2,6)                  1.3523         -DE/DX =    0.0001              !
 ! R8    R(3,7)                  1.8123         -DE/DX =    0.0                 !
 ! R9    R(3,10)                 1.085          -DE/DX =    0.0                 !
 ! R10   R(3,11)                 1.085          -DE/DX =    0.0                 !
 ! A1    A(2,1,3)              111.6586         -DE/DX =    0.0                 !
 ! A2    A(2,1,8)              107.5109         -DE/DX =    0.0                 !
 ! A3    A(2,1,9)              107.5246         -DE/DX =    0.0                 !
 ! A4    A(3,1,8)              110.84           -DE/DX =    0.0                 !
 ! A5    A(3,1,9)              110.8564         -DE/DX =    0.0                 !
 ! A6    A(8,1,9)              108.2923         -DE/DX =    0.0                 !
 ! A7    A(1,2,4)              111.8901         -DE/DX =    0.0                 !
 ! A8    A(1,2,5)              111.2205         -DE/DX =    0.0                 !
 ! A9    A(1,2,6)              111.891          -DE/DX =    0.0                 !
 ! A10   A(4,2,5)              107.329          -DE/DX =    0.0                 !
 ! A11   A(4,2,6)              106.9159         -DE/DX =    0.0                 !
 ! A12   A(5,2,6)              107.3224         -DE/DX =    0.0                 !
 ! A13   A(1,3,7)              110.0426         -DE/DX =    0.0                 !
 ! A14   A(1,3,10)             111.7199         -DE/DX =    0.0                 !
 ! A15   A(1,3,11)             111.7123         -DE/DX =    0.0                 !
 ! A16   A(7,3,10)             106.8011         -DE/DX =    0.0                 !
 ! A17   A(7,3,11)             106.7949         -DE/DX =    0.0                 !
 ! A18   A(10,3,11)            109.5346         -DE/DX =    0.0                 !
 ! D1    D(3,1,2,4)             59.988          -DE/DX =    0.0                 !
 ! D2    D(3,1,2,5)            180.012          -DE/DX =    0.0                 !
 ! D3    D(3,1,2,6)            -59.9718         -DE/DX =    0.0                 !
 ! D4    D(8,1,2,4)            -61.7932         -DE/DX =    0.0                 !
 ! D5    D(8,1,2,5)             58.2308         -DE/DX =    0.0                 !
 ! D6    D(8,1,2,6)            178.247          -DE/DX =    0.0                 !
 ! D7    D(9,1,2,4)           -178.2014         -DE/DX =    0.0                 !
 ! D8    D(9,1,2,5)            -58.1774         -DE/DX =    0.0                 !
 ! D9    D(9,1,2,6)             61.8388         -DE/DX =    0.0                 !
 ! D10   D(2,1,3,7)            179.9899         -DE/DX =    0.0                 !
 ! D11   D(2,1,3,10)            61.5315         -DE/DX =    0.0                 !
 ! D12   D(2,1,3,11)           -61.5641         -DE/DX =    0.0                 !
 ! D13   D(8,1,3,7)            -60.1705         -DE/DX =    0.0                 !
 ! D14   D(8,1,3,10)          -178.629          -DE/DX =    0.0                 !
 ! D15   D(8,1,3,11)            58.2754         -DE/DX =    0.0                 !
 ! D16   D(9,1,3,7)             60.1219         -DE/DX =    0.0                 !
 ! D17   D(9,1,3,10)           -58.3365         -DE/DX =    0.0                 !
 ! D18   D(9,1,3,11)           178.5679         -DE/DX =    0.0                 !
 --------------------------------------------------------------------------------
 Lowest energy point so far.  Saving SCF results.
 GradGradGradGradGradGradGradGradGradGradGradGradGradGradGradGradGradGrad

 Largest change from initial coordinates is atom    6       0.295 Angstoms.
 Leave Link  103 at Thu Jun 13 12:26:40 2024, MaxMem=  1073741824 cpu:         7.8
 (Enter /apps/z_install_tree/linux-rocky8-ivybridge/gcc-12.2.0/gaussian-09-D.01-wczn3gur5lpur3omlkzwa2l5ecyxp5ef/g09/l202.exe)
                          Input orientation:                          
 ---------------------------------------------------------------------
 Center     Atomic      Atomic             Coordinates (Angstroms)
 Number     Number       Type             X           Y           Z
 ---------------------------------------------------------------------
      1          6           0       50.126610   35.361300   31.935307
      2          6           0       50.059753   35.656319   33.415135
      3          6           0       51.506305   35.653055   31.366678
      4          9           0       50.334010   36.953123   33.683635
      5          9           0       48.834073   35.394602   33.909712
      6          9           0       50.944604   34.913321   34.117874
      7         17           0       51.537578   35.284416   29.592533
      8          1           0       49.369287   35.970248   31.445480
      9          1           0       49.864365   34.314105   31.797760
     10          1           0       52.269756   35.035904   31.828736
     11          1           0       51.771659   36.699608   31.474151
 ---------------------------------------------------------------------
                    Distance matrix (angstroms):
                    1          2          3          4          5
     1  C    0.000000
     2  C    1.510430   0.000000
     3  C    1.520533   2.507728   0.000000
     4  F    2.373514   1.352408   2.903918   0.000000
     5  F    2.360093   1.347366   3.697924   2.174835   0.000000
     6  F    2.373479   1.352350   2.903755   2.173058   2.174696
     7  Cl   2.735933   4.115162   1.812309   4.579331   5.095009
     8  H    1.088249   2.110648   2.161867   2.627940   2.586554
     9  H    1.088259   2.110833   2.162079   3.277424   2.586371
    10  H    2.170326   2.790285   1.085002   3.295982   4.032747
    11  H    2.170235   2.790428   1.085006   2.648192   4.032916
                    6          7          8          9         10
     6  F    0.000000
     7  Cl   4.579087   0.000000
     8  H    3.277256   2.933473   0.000000
     9  H    2.628480   2.933286   1.764089   0.000000
    10  H    2.647869   2.366103   3.071255   2.511546   0.000000
    11  H    3.296075   2.366020   2.510812   3.071338   1.772497
                   11
    11  H    0.000000
 Symmetry turned off by external request.
 Stoichiometry    C3H4ClF3
 Framework group  C1[X(C3H4ClF3)]
 Deg. of freedom    27
 Full point group                 C1      NOp   1
 Rotational constants (GHZ):      4.9289640      0.9248307      0.9139329
 Leave Link  202 at Thu Jun 13 12:26:40 2024, MaxMem=  1073741824 cpu:         1.8
 (Enter /apps/z_install_tree/linux-rocky8-ivybridge/gcc-12.2.0/gaussian-09-D.01-wczn3gur5lpur3omlkzwa2l5ecyxp5ef/g09/l601.exe)
 Copying SCF densities to generalized density rwf, IOpCl= 0 IROHF=0.

 **********************************************************************

            Population analysis using the SCF density.

 **********************************************************************

 Alpha  occ. eigenvalues -- -101.55767 -24.72736 -24.72735 -24.72719 -10.44221
 Alpha  occ. eigenvalues --  -10.25611 -10.22264  -9.47166  -7.23633  -7.22644
 Alpha  occ. eigenvalues --   -7.22634  -1.33232  -1.24518  -1.24434  -0.88487
 Alpha  occ. eigenvalues --   -0.81545  -0.71379  -0.66146  -0.61608  -0.61198
 Alpha  occ. eigenvalues --   -0.57218  -0.51676  -0.49130  -0.48552  -0.46336
 Alpha  occ. eigenvalues --   -0.44997  -0.44377  -0.43241  -0.43102  -0.41278
 Alpha  occ. eigenvalues --   -0.39646  -0.31964  -0.31729
 Alpha virt. eigenvalues --   -0.01685   0.00199   0.01852   0.02923   0.03391
 Alpha virt. eigenvalues --    0.05509   0.05836   0.06591   0.07269   0.07541
 Alpha virt. eigenvalues --    0.09261   0.10420   0.10478   0.11438   0.13237
 Alpha virt. eigenvalues --    0.13456   0.14267   0.14863   0.14981   0.18926
 Alpha virt. eigenvalues --    0.19476   0.20413   0.20991   0.22207   0.23692
 Alpha virt. eigenvalues --    0.23775   0.24971   0.27373   0.29010   0.29333
 Alpha virt. eigenvalues --    0.31483   0.31761   0.33843   0.34734   0.35604
 Alpha virt. eigenvalues --    0.35951   0.36682   0.37501   0.39252   0.39793
 Alpha virt. eigenvalues --    0.42728   0.43186   0.45472   0.45619   0.46252
 Alpha virt. eigenvalues --    0.47111   0.49459   0.50034   0.53293   0.54228
 Alpha virt. eigenvalues --    0.54615   0.58235   0.58941   0.61199   0.62310
 Alpha virt. eigenvalues --    0.62892   0.70628   0.73307   0.73437   0.75932
 Alpha virt. eigenvalues --    0.76123   0.77804   0.78442   0.90233   0.91862
 Alpha virt. eigenvalues --    0.92197   0.97854   0.98676   1.00055   1.04866
 Alpha virt. eigenvalues --    1.07672   1.10398   1.13538   1.15819   1.17755
 Alpha virt. eigenvalues --    1.19496   1.21502   1.23133   1.26395   1.26673
 Alpha virt. eigenvalues --    1.29375   1.32020   1.34407   1.35503   1.36309
 Alpha virt. eigenvalues --    1.36692   1.39678   1.39955   1.41574   1.45387
 Alpha virt. eigenvalues --    1.45652   1.47473   1.48226   1.50050   1.51321
 Alpha virt. eigenvalues --    1.54407   1.56854   1.61851   1.62705   1.93811
 Alpha virt. eigenvalues --    1.95355   1.95915   1.99424   2.00260   2.06257
 Alpha virt. eigenvalues --    2.09480   2.10034   2.12958   2.15658   2.28353
 Alpha virt. eigenvalues --    2.28482   2.29821   2.32323   2.37378   2.40958
 Alpha virt. eigenvalues --    2.43587   2.50850   2.52048   2.54617   2.57231
 Alpha virt. eigenvalues --    2.60601   2.67210   2.72685   2.73474   2.82579
 Alpha virt. eigenvalues --    2.85454   2.89447   2.95383   2.97148   3.10959
 Alpha virt. eigenvalues --    3.14784   3.21729   3.27016   3.30387   3.34086
 Alpha virt. eigenvalues --    3.36872   3.40650   3.43113   3.44989   3.47313
 Alpha virt. eigenvalues --    3.49655   3.51550   3.56060   3.56493   3.63186
 Alpha virt. eigenvalues --    3.64520   3.64956   3.67965   3.70689   3.90861
 Alpha virt. eigenvalues --    3.92179   3.96188   4.00017   4.05128   4.10114
 Alpha virt. eigenvalues --    4.11929   4.18304   4.24728   4.24745   4.29585
 Alpha virt. eigenvalues --    4.35088   4.66347   4.82896   5.04514   5.08591
 Alpha virt. eigenvalues --    6.29897   6.32161   6.33976   6.36925   6.38693
 Alpha virt. eigenvalues --    6.40605   6.43783   6.71320   6.73899   8.99176
 Alpha virt. eigenvalues --    9.01732   9.02049   9.12100   9.12692   9.13030
 Alpha virt. eigenvalues --    9.14944   9.25019   9.25597   9.42310   9.56778
 Alpha virt. eigenvalues --    9.60434   9.61666   9.77806   9.78714   9.79403
 Alpha virt. eigenvalues --   23.78669  23.87375  23.92302  25.93372  25.96027
 Alpha virt. eigenvalues --   27.12444  66.81008  66.82241  66.85863 215.79152
          Condensed to atoms (all electrons):
               1          2          3          4          5          6
     1  C    5.481179   0.179469  -0.116061  -0.054561  -0.140997  -0.054543
     2  C    0.179469   4.377257   0.074115   0.219694   0.255428   0.219693
     3  C   -0.116061   0.074115   5.233311  -0.014233   0.026233  -0.014229
     4  F   -0.054561   0.219694  -0.014233   9.168169  -0.010176   0.009052
     5  F   -0.140997   0.255428   0.026233  -0.010176   9.188306  -0.010193
     6  F   -0.054543   0.219693  -0.014229   0.009052  -0.010193   9.168144
     7  Cl  -0.032000   0.010327   0.290884   0.001873   0.000412   0.001866
     8  H    0.418126  -0.033178  -0.013025  -0.005129   0.004079   0.004674
     9  H    0.418093  -0.033171  -0.012993   0.004673   0.004082  -0.005130
    10  H   -0.041109   0.003630   0.426016  -0.002381  -0.000100   0.003766
    11  H   -0.041075   0.003619   0.426007   0.003762  -0.000101  -0.002383
               7          8          9         10         11
     1  C   -0.032000   0.418126   0.418093  -0.041109  -0.041075
     2  C    0.010327  -0.033178  -0.033171   0.003630   0.003619
     3  C    0.290884  -0.013025  -0.012993   0.426016   0.426007
     4  F    0.001873  -0.005129   0.004673  -0.002381   0.003762
     5  F    0.000412   0.004079   0.004082  -0.000100  -0.000101
     6  F    0.001866   0.004674  -0.005130   0.003766  -0.002383
     7  Cl  16.804367  -0.005686  -0.005688  -0.040437  -0.040450
     8  H   -0.005686   0.520386  -0.023294   0.004207  -0.006052
     9  H   -0.005688  -0.023294   0.520392  -0.006038   0.004205
    10  H   -0.040437   0.004207  -0.006038   0.549601  -0.033929
    11  H   -0.040450  -0.006052   0.004205  -0.033929   0.549596
 Mulliken charges:
               1
     1  C   -0.016520
     2  C    0.723116
     3  C   -0.306025
     4  F   -0.320743
     5  F   -0.316974
     6  F   -0.320718
     7  Cl   0.014531
     8  H    0.134892
     9  H    0.134867
    10  H    0.136774
    11  H    0.136800
 Sum of Mulliken charges =   0.00000
 Mulliken charges with hydrogens summed into heavy atoms:
               1
     1  C    0.253239
     2  C    0.723116
     3  C   -0.032451
     4  F   -0.320743
     5  F   -0.316974
     6  F   -0.320718
     7  Cl   0.014531
 Electronic spatial extent (au):  <R**2>=        1147493.2355
 Charge=              0.0000 electrons
 Dipole moment (field-independent basis, Debye):
    X=              0.0564    Y=             -0.0683    Z=             -0.4018  Tot=              0.4115
 Quadrupole moment (field-independent basis, Debye-Ang):
   XX=            -41.2078   YY=            -51.6524   ZZ=            -80.6899
   XY=             -0.8934   XZ=            -15.7061   YZ=            -17.3585
 Traceless Quadrupole moment (field-independent basis, Debye-Ang):
   XX=             16.6422   YY=              6.1976   ZZ=            -22.8399
   XY=             -0.8934   XZ=            -15.7061   YZ=            -17.3585
 Octapole moment (field-independent basis, Debye-Ang**2):
  XXX=          -6696.0507  YYY=          -5250.1890  ZZZ=          -6516.1707  XYY=          -2506.1548
  XXY=          -1582.2023  XXZ=          -2063.8779  XZZ=          -3850.0256  YZZ=          -2994.8265
  YYZ=          -2226.5592  XYZ=           -696.2240
 Hexadecapole moment (field-independent basis, Debye-Ang**3):
 XXXX=        -693294.5983 YYYY=        -367316.1511 ZZZZ=        -391889.3646 XXXY=        -242421.2985
 XXXZ=        -244787.0747 YYYX=        -261366.5955 YYYZ=        -189755.5883 ZZZX=        -319561.9647
 ZZZY=        -236599.4913 XXYY=        -180648.5273 XXZZ=        -231401.7379 YYZZ=        -159228.9003
 XXYZ=         -79427.7315 YYXZ=        -105619.2261 ZZXY=        -142695.7631
 N-N= 3.898171771111D+02 E-N=-2.859111873732D+03  KE= 8.742501785810D+02
 No NMR shielding tensors so no spin-rotation constants.
 Leave Link  601 at Thu Jun 13 12:26:41 2024, MaxMem=  1073741824 cpu:         4.9
 (Enter /apps/z_install_tree/linux-rocky8-ivybridge/gcc-12.2.0/gaussian-09-D.01-wczn3gur5lpur3omlkzwa2l5ecyxp5ef/g09/l9999.exe)
 1\1\GINC-K152\FOpt\RB3LYP\Gen\C3H4Cl1F3\Z5112331\13-Jun-2024\0\\#p opt
  freq b3lyp/gen nosymm em=gd3 int=ultrafine scf=xqc scfcyc=96\\chlorot
 rifluoropropane\\0,1\C,50.126609692,35.3612995628,31.9353065709\C,50.0
 59753173,35.656319408,33.4151346422\C,51.5063054553,35.6530546867,31.3
 666782712\F,50.3340097672,36.953122855,33.6836346132\F,48.8340732398,3
 5.3946019876,33.9097121476\F,50.9446041949,34.9133214152,34.1178741617
 \Cl,51.5375777473,35.2844155575,29.5925331661\H,49.3692871264,35.97024
 75096,31.4454798903\H,49.8643646967,34.3141050169,31.797759919\H,52.26
 97562413,35.0359035393,31.8287355557\H,51.7716586662,36.6996084615,31.
 474151062\\Version=ES64L-G09RevD.01\HF=-876.6515931\RMSD=3.998e-09\RMS
 F=2.538e-05\Dipole=0.0221905,-0.0268698,-0.1580866\Quadrupole=12.37309
 28,4.6077961,-16.9808889,-0.6642126,-11.677076,-12.9056128\PG=C01 [X(C
 3H4Cl1F3)]\\@


 SATCHEL PAIGE'S GUIDE TO LONGEVITY

    1.  AVOID FRIED MEATS, WHICH ANGRY UP THE BLOOD.

    2.  IF YOUR STOMACH DISPUTES YOU, LIE DOWN AND PACIFY IT WITH COOL
        THOUGHTS.

    3.  KEEP THE JUICES FLOWING BY JANGLING AROUND GENTLY AS YOU MOVE.

    4.  GO VERY LIGHT ON THE VICES, SUCH AS CARRYING ON IN SOCIETY.
        THE SOCIAL RUMBLE AIN'T RESTFUL.

    5.  AVOID RUNNING AT ALL TIMES.

    6.  DON'T LOOK BACK.  SOMETHING MAY BE GAINING ON YOU.
 Leave Link 9999 at Thu Jun 13 12:26:41 2024, MaxMem=  1073741824 cpu:         1.0
 Job cpu time:       0 days  0 hours 33 minutes 52.6 seconds.
 File lengths (MBytes):  RWF=    132 Int=      0 D2E=      0 Chk=      5 Scr=      2
 Normal termination of Gaussian 09 at Thu Jun 13 12:26:41 2024.
 (Enter /apps/z_install_tree/linux-rocky8-ivybridge/gcc-12.2.0/gaussian-09-D.01-wczn3gur5lpur3omlkzwa2l5ecyxp5ef/g09/l1.exe)
 Link1:  Proceeding to internal job step number  2.
 ------------------------------------------------------------------
 #P Geom=AllCheck Guess=TCheck SCRF=Check GenChk RB3LYP/ChkBas Freq
 ------------------------------------------------------------------
 1/10=4,29=7,30=1,38=1,40=1/1,3;
 2/12=2,15=1,40=1/2;
 3/5=7,6=2,11=2,14=-4,16=1,25=1,30=1,67=1,70=2,71=2,74=-5,75=-5,82=7,116=1,124=31,140=1/1,2,3;
 4/5=101/1;
 5/5=2,7=96,8=3,13=1,98=1/2,8;
 8/6=4,10=90,11=11/1;
 11/6=1,8=1,9=11,15=111,16=1,31=1/1,2,10;
 10/6=1,31=1/2;
 6/7=2,8=2,9=2,10=2,18=1,28=1/1;
 7/8=1,10=1,25=1,30=1/1,2,3,16;
 1/10=4,30=1/3;
 99//99;
 Leave Link    1 at Thu Jun 13 12:26:41 2024, MaxMem=  1073741824 cpu:         0.6
 (Enter /apps/z_install_tree/linux-rocky8-ivybridge/gcc-12.2.0/gaussian-09-D.01-wczn3gur5lpur3omlkzwa2l5ecyxp5ef/g09/l101.exe)
 Structure from the checkpoint file:  "chlorotrifluoropropane.chk"
 ----------------------
 chlorotrifluoropropane
 ----------------------
 Charge =  0 Multiplicity = 1
 Redundant internal coordinates found in file.
 C,0,50.126609692,35.3612995628,31.9353065709
 C,0,50.059753173,35.656319408,33.4151346422
 C,0,51.5063054553,35.6530546867,31.3666782712
 F,0,50.3340097672,36.953122855,33.6836346132
 F,0,48.8340732398,35.3946019876,33.9097121476
 F,0,50.9446041949,34.9133214152,34.1178741617
 Cl,0,51.5375777473,35.2844155575,29.5925331661
 H,0,49.3692871264,35.9702475096,31.4454798903
 H,0,49.8643646967,34.3141050169,31.797759919
 H,0,52.2697562413,35.0359035393,31.8287355557
 H,0,51.7716586662,36.6996084615,31.474151062
 Recover connectivity data from disk.
 NAtoms=     11 NQM=       11 NQMF=       0 NMMI=      0 NMMIF=      0
                NMic=       0 NMicF=      0.
                    Isotopes and Nuclear Properties:
 (Nuclear quadrupole moments (NQMom) in fm**2, nuclear magnetic moments (NMagM)
  in nuclear magnetons)

  Atom         1           2           3           4           5           6           7           8           9          10
 IAtWgt=          12          12          12          19          19          19          35           1           1           1
 AtmWgt=  12.0000000  12.0000000  12.0000000  18.9984033  18.9984033  18.9984033  34.9688527   1.0078250   1.0078250   1.0078250
 NucSpn=           0           0           0           1           1           1           3           1           1           1
 AtZEff=  -3.6000000  -3.6000000  -3.6000000  -6.7500000  -6.7500000  -6.7500000 -14.2400000  -1.0000000  -1.0000000  -1.0000000
 NQMom=    0.0000000   0.0000000   0.0000000   0.0000000   0.0000000   0.0000000  -8.1650000   0.0000000   0.0000000   0.0000000
 NMagM=    0.0000000   0.0000000   0.0000000   2.6288670   2.6288670   2.6288670   0.8218740   2.7928460   2.7928460   2.7928460
 AtZNuc=   6.0000000   6.0000000   6.0000000   9.0000000   9.0000000   9.0000000  17.0000000   1.0000000   1.0000000   1.0000000

  Atom        11
 IAtWgt=           1
 AtmWgt=   1.0078250
 NucSpn=           1
 AtZEff=  -1.0000000
 NQMom=    0.0000000
 NMagM=    2.7928460
 AtZNuc=   1.0000000
 Leave Link  101 at Thu Jun 13 12:26:42 2024, MaxMem=  1073741824 cpu:         4.5
 (Enter /apps/z_install_tree/linux-rocky8-ivybridge/gcc-12.2.0/gaussian-09-D.01-wczn3gur5lpur3omlkzwa2l5ecyxp5ef/g09/l103.exe)

 GradGradGradGradGradGradGradGradGradGradGradGradGradGradGradGradGradGrad
 Berny optimization.
 Initialization pass.
                           ----------------------------
                           !    Initial Parameters    !
                           ! (Angstroms and Degrees)  !
 --------------------------                            --------------------------
 ! Name  Definition              Value          Derivative Info.                !
 --------------------------------------------------------------------------------
 ! R1    R(1,2)                  1.5104         calculate D2E/DX2 analytically  !
 ! R2    R(1,3)                  1.5205         calculate D2E/DX2 analytically  !
 ! R3    R(1,8)                  1.0882         calculate D2E/DX2 analytically  !
 ! R4    R(1,9)                  1.0883         calculate D2E/DX2 analytically  !
 ! R5    R(2,4)                  1.3524         calculate D2E/DX2 analytically  !
 ! R6    R(2,5)                  1.3474         calculate D2E/DX2 analytically  !
 ! R7    R(2,6)                  1.3523         calculate D2E/DX2 analytically  !
 ! R8    R(3,7)                  1.8123         calculate D2E/DX2 analytically  !
 ! R9    R(3,10)                 1.085          calculate D2E/DX2 analytically  !
 ! R10   R(3,11)                 1.085          calculate D2E/DX2 analytically  !
 ! A1    A(2,1,3)              111.6586         calculate D2E/DX2 analytically  !
 ! A2    A(2,1,8)              107.5109         calculate D2E/DX2 analytically  !
 ! A3    A(2,1,9)              107.5246         calculate D2E/DX2 analytically  !
 ! A4    A(3,1,8)              110.84           calculate D2E/DX2 analytically  !
 ! A5    A(3,1,9)              110.8564         calculate D2E/DX2 analytically  !
 ! A6    A(8,1,9)              108.2923         calculate D2E/DX2 analytically  !
 ! A7    A(1,2,4)              111.8901         calculate D2E/DX2 analytically  !
 ! A8    A(1,2,5)              111.2205         calculate D2E/DX2 analytically  !
 ! A9    A(1,2,6)              111.891          calculate D2E/DX2 analytically  !
 ! A10   A(4,2,5)              107.329          calculate D2E/DX2 analytically  !
 ! A11   A(4,2,6)              106.9159         calculate D2E/DX2 analytically  !
 ! A12   A(5,2,6)              107.3224         calculate D2E/DX2 analytically  !
 ! A13   A(1,3,7)              110.0426         calculate D2E/DX2 analytically  !
 ! A14   A(1,3,10)             111.7199         calculate D2E/DX2 analytically  !
 ! A15   A(1,3,11)             111.7123         calculate D2E/DX2 analytically  !
 ! A16   A(7,3,10)             106.8011         calculate D2E/DX2 analytically  !
 ! A17   A(7,3,11)             106.7949         calculate D2E/DX2 analytically  !
 ! A18   A(10,3,11)            109.5346         calculate D2E/DX2 analytically  !
 ! D1    D(3,1,2,4)             59.988          calculate D2E/DX2 analytically  !
 ! D2    D(3,1,2,5)           -179.988          calculate D2E/DX2 analytically  !
 ! D3    D(3,1,2,6)            -59.9718         calculate D2E/DX2 analytically  !
 ! D4    D(8,1,2,4)            -61.7932         calculate D2E/DX2 analytically  !
 ! D5    D(8,1,2,5)             58.2308         calculate D2E/DX2 analytically  !
 ! D6    D(8,1,2,6)            178.247          calculate D2E/DX2 analytically  !
 ! D7    D(9,1,2,4)           -178.2014         calculate D2E/DX2 analytically  !
 ! D8    D(9,1,2,5)            -58.1774         calculate D2E/DX2 analytically  !
 ! D9    D(9,1,2,6)             61.8388         calculate D2E/DX2 analytically  !
 ! D10   D(2,1,3,7)            179.9899         calculate D2E/DX2 analytically  !
 ! D11   D(2,1,3,10)            61.5315         calculate D2E/DX2 analytically  !
 ! D12   D(2,1,3,11)           -61.5641         calculate D2E/DX2 analytically  !
 ! D13   D(8,1,3,7)            -60.1705         calculate D2E/DX2 analytically  !
 ! D14   D(8,1,3,10)          -178.629          calculate D2E/DX2 analytically  !
 ! D15   D(8,1,3,11)            58.2754         calculate D2E/DX2 analytically  !
 ! D16   D(9,1,3,7)             60.1219         calculate D2E/DX2 analytically  !
 ! D17   D(9,1,3,10)           -58.3365         calculate D2E/DX2 analytically  !
 ! D18   D(9,1,3,11)           178.5679         calculate D2E/DX2 analytically  !
 --------------------------------------------------------------------------------
 Trust Radius=3.00D-01 FncErr=1.00D-07 GrdErr=1.00D-07
 Number of steps in this run=      2 maximum allowed number of steps=      2.
 GradGradGradGradGradGradGradGradGradGradGradGradGradGradGradGradGradGrad

 Leave Link  103 at Thu Jun 13 12:26:42 2024, MaxMem=  1073741824 cpu:         0.3
 (Enter /apps/z_install_tree/linux-rocky8-ivybridge/gcc-12.2.0/gaussian-09-D.01-wczn3gur5lpur3omlkzwa2l5ecyxp5ef/g09/l202.exe)
                          Input orientation:                          
 ---------------------------------------------------------------------
 Center     Atomic      Atomic             Coordinates (Angstroms)
 Number     Number       Type             X           Y           Z
 ---------------------------------------------------------------------
      1          6           0       50.126610   35.361300   31.935307
      2          6           0       50.059753   35.656319   33.415135
      3          6           0       51.506305   35.653055   31.366678
      4          9           0       50.334010   36.953123   33.683635
      5          9           0       48.834073   35.394602   33.909712
      6          9           0       50.944604   34.913321   34.117874
      7         17           0       51.537578   35.284416   29.592533
      8          1           0       49.369287   35.970248   31.445480
      9          1           0       49.864365   34.314105   31.797760
     10          1           0       52.269756   35.035904   31.828736
     11          1           0       51.771659   36.699608   31.474151
 ---------------------------------------------------------------------
                    Distance matrix (angstroms):
                    1          2          3          4          5
     1  C    0.000000
     2  C    1.510430   0.000000
     3  C    1.520533   2.507728   0.000000
     4  F    2.373514   1.352408   2.903918   0.000000
     5  F    2.360093   1.347366   3.697924   2.174835   0.000000
     6  F    2.373479   1.352350   2.903755   2.173058   2.174696
     7  Cl   2.735933   4.115162   1.812309   4.579331   5.095009
     8  H    1.088249   2.110648   2.161867   2.627940   2.586554
     9  H    1.088259   2.110833   2.162079   3.277424   2.586371
    10  H    2.170326   2.790285   1.085002   3.295982   4.032747
    11  H    2.170235   2.790428   1.085006   2.648192   4.032916
                    6          7          8          9         10
     6  F    0.000000
     7  Cl   4.579087   0.000000
     8  H    3.277256   2.933473   0.000000
     9  H    2.628480   2.933286   1.764089   0.000000
    10  H    2.647869   2.366103   3.071255   2.511546   0.000000
    11  H    3.296075   2.366020   2.510812   3.071338   1.772497
                   11
    11  H    0.000000
 Symmetry turned off by external request.
 Stoichiometry    C3H4ClF3
 Framework group  C1[X(C3H4ClF3)]
 Deg. of freedom    27
 Full point group                 C1      NOp   1
 Rotational constants (GHZ):      4.9289640      0.9248307      0.9139329
 Leave Link  202 at Thu Jun 13 12:26:43 2024, MaxMem=  1073741824 cpu:         1.8
 (Enter /apps/z_install_tree/linux-rocky8-ivybridge/gcc-12.2.0/gaussian-09-D.01-wczn3gur5lpur3omlkzwa2l5ecyxp5ef/g09/l301.exe)
 Basis read from chk: "chlorotrifluoropropane.chk" (5D, 7F)
 No pseudopotential information found on chk file.
   233 basis functions,   355 primitive gaussians,   247 cartesian basis functions
    33 alpha electrons       33 beta electrons
       nuclear repulsion energy       389.8254679580 Hartrees.
 IExCor=  402 DFT=T Ex+Corr=B3LYP ExCW=0 ScaHFX=  0.200000
 ScaDFX=  0.800000  0.720000  1.000000  0.810000 ScalE2=  1.000000  1.000000
 IRadAn=      5 IRanWt=     -1 IRanGd=            0 ICorTp=0 IEmpDi=131
 NAtoms=   11 NActive=   11 NUniq=   11 SFac= 1.00D+00 NAtFMM=   60 NAOKFM=F Big=F
 Integral buffers will be    131072 words long.
 Raffenetti 2 integral format.
 Two-electron integral symmetry is turned off.
 R6Disp:  Grimme-D3 Dispersion energy=       -0.0082908469 Hartrees.
 Nuclear repulsion after empirical dispersion term =      389.8171771111 Hartrees.
 No density basis found on file 20724.
 Leave Link  301 at Thu Jun 13 12:26:43 2024, MaxMem=  1073741824 cpu:         0.5
 (Enter /apps/z_install_tree/linux-rocky8-ivybridge/gcc-12.2.0/gaussian-09-D.01-wczn3gur5lpur3omlkzwa2l5ecyxp5ef/g09/l302.exe)
 NPDir=0 NMtPBC=     1 NCelOv=     1 NCel=       1 NClECP=     1 NCelD=      1
         NCelK=      1 NCelE2=     1 NClLst=     1 CellRange=     0.0.
 One-electron integrals computed using PRISM.
 NBasis=   233 RedAO= T EigKep=  2.52D-05  NBF=   233
 NBsUse=   233 1.00D-06 EigRej= -1.00D+00 NBFU=   233
 Precomputing XC quadrature grid using
 IXCGrd= 4 IRadAn=           5 IRanWt=          -1 IRanGd=           0 AccXCQ= 0.00D+00.
 Generated NRdTot=       0 NPtTot=           0 NUsed=           0 NTot=          32
 NSgBfM=   247   247   247   247   247 MxSgAt=    11 MxSgA2=    11.
 Leave Link  302 at Thu Jun 13 12:26:43 2024, MaxMem=  1073741824 cpu:         2.7
 (Enter /apps/z_install_tree/linux-rocky8-ivybridge/gcc-12.2.0/gaussian-09-D.01-wczn3gur5lpur3omlkzwa2l5ecyxp5ef/g09/l303.exe)
 DipDrv:  MaxL=1.
 Leave Link  303 at Thu Jun 13 12:26:44 2024, MaxMem=  1073741824 cpu:         5.9
 (Enter /apps/z_install_tree/linux-rocky8-ivybridge/gcc-12.2.0/gaussian-09-D.01-wczn3gur5lpur3omlkzwa2l5ecyxp5ef/g09/l401.exe)
 Initial guess from the checkpoint file:  "chlorotrifluoropropane.chk"
 B after Tr=     0.000000    0.000000    0.000000
         Rot=    1.000000    0.000000    0.000000    0.000000 Ang=   0.00 deg.
 Guess basis will be translated and rotated to current coordinates.
 JPrj=2 DoOrth=T DoCkMO=T.
 Leave Link  401 at Thu Jun 13 12:26:44 2024, MaxMem=  1073741824 cpu:         5.0
 (Enter /apps/z_install_tree/linux-rocky8-ivybridge/gcc-12.2.0/gaussian-09-D.01-wczn3gur5lpur3omlkzwa2l5ecyxp5ef/g09/l502.exe)
 Closed shell SCF:
 Using DIIS extrapolation, IDIIS=  1040.
 Two-electron integral symmetry not used.
 Keep R1 ints in memory in canonical form, NReq=379421756.
 IVT=      200693 IEndB=      200693 NGot=  1073741824 MDV=   701946441
 LenX=   701946441 LenY=   701884991
 Requested convergence on RMS density matrix=1.00D-08 within  96 cycles.
 Requested convergence on MAX density matrix=1.00D-06.
 Requested convergence on             energy=1.00D-06.
 No special actions if energy rises.
 FoFCou: FMM=F IPFlag=           0 FMFlag=           0 FMFlg1=           0
         NFxFlg=           0 DoJE=F BraDBF=F KetDBF=F FulRan=T
         wScrn=  0.000000 ICntrl=     600 IOpCl=  0 I1Cent=           0 NGrid=           0
         NMat0=    1 NMatS0=  27261 NMatT0=    0 NMatD0=    1 NMtDS0=    0 NMtDT0=    0
 Symmetry not used in FoFCou.

 Cycle   1  Pass 1  IDiag  1:
 E= -876.651593055583    
 DIIS: error= 4.88D-09 at cycle   1 NSaved=   1.
 NSaved= 1 IEnMin= 1 EnMin= -876.651593055583     IErMin= 1 ErrMin= 4.88D-09
 ErrMax= 4.88D-09  0.00D+00 EMaxC= 1.00D-01 BMatC= 1.25D-14 BMatP= 1.25D-14
 IDIUse=1 WtCom= 1.00D+00 WtEn= 0.00D+00
 Coeff-Com:  0.100D+01
 Coeff:      0.100D+01
 Gap=     0.300 Goal=   None    Shift=    0.000
 RMSDP=1.66D-09 MaxDP=9.96D-08              OVMax= 5.86D-08

 SCF Done:  E(RB3LYP) =  -876.651593056     A.U. after    1 cycles
            NFock=  1  Conv=0.17D-08     -V/T= 2.0027
 KE= 8.742501798368D+02 PE=-2.859111874988D+03 EE= 7.183929249846D+02
 Leave Link  502 at Thu Jun 13 12:26:46 2024, MaxMem=  1073741824 cpu:        26.3
 (Enter /apps/z_install_tree/linux-rocky8-ivybridge/gcc-12.2.0/gaussian-09-D.01-wczn3gur5lpur3omlkzwa2l5ecyxp5ef/g09/l508.exe)
 QCSCF skips out because SCF is already converged.
 Leave Link  508 at Thu Jun 13 12:26:46 2024, MaxMem=  1073741824 cpu:         0.0
 (Enter /apps/z_install_tree/linux-rocky8-ivybridge/gcc-12.2.0/gaussian-09-D.01-wczn3gur5lpur3omlkzwa2l5ecyxp5ef/g09/l801.exe)
 DoSCS=F DFT=T ScalE2(SS,OS)=  1.000000  1.000000
 Range of M.O.s used for correlation:     1   233
 NBasis=   233 NAE=    33 NBE=    33 NFC=     0 NFV=     0
 NROrb=    233 NOA=    33 NOB=    33 NVA=   200 NVB=   200

 **** Warning!!: The largest alpha MO coefficient is  0.70339235D+02

 Leave Link  801 at Thu Jun 13 12:26:46 2024, MaxMem=  1073741824 cpu:         0.2
 (Enter /apps/z_install_tree/linux-rocky8-ivybridge/gcc-12.2.0/gaussian-09-D.01-wczn3gur5lpur3omlkzwa2l5ecyxp5ef/g09/l1101.exe)
 Using compressed storage, NAtomX=    11.
 Will process     12 centers per pass.
 R6Disp: Adding Grimme-D3 dispersion energy 1st derivatives to the gradient.
 Leave Link 1101 at Thu Jun 13 12:26:47 2024, MaxMem=  1073741824 cpu:         3.8
 (Enter /apps/z_install_tree/linux-rocky8-ivybridge/gcc-12.2.0/gaussian-09-D.01-wczn3gur5lpur3omlkzwa2l5ecyxp5ef/g09/l1102.exe)
 Symmetrizing basis deriv contribution to polar:
 IMax=3 JMax=2 DiffMx= 0.00D+00
 Leave Link 1102 at Thu Jun 13 12:26:47 2024, MaxMem=  1073741824 cpu:         2.3
 (Enter /apps/z_install_tree/linux-rocky8-ivybridge/gcc-12.2.0/gaussian-09-D.01-wczn3gur5lpur3omlkzwa2l5ecyxp5ef/g09/l1110.exe)
 Forming Gx(P) for the SCF density, NAtomX=    11.
 Integral derivatives from FoFJK, PRISM(SPDF).
 Do as many integral derivatives as possible in FoFJK.
 G2DrvN: MDV=    1073741632.
 G2DrvN: will do    12 centers at a time, making    1 passes.
 Calling FoFCou, ICntrl=  3107 FMM=F I1Cent=   0 AccDes= 0.00D+00.
 FoFJK:  IHMeth= 1 ICntrl=    3107 DoSepK=F KAlg= 0 I1Cent=   0 FoldK=F
 IRaf=         0 NMat=   1 IRICut=       1 DoRegI=T DoRafI=F ISym2E= 0.
 FoFCou: FMM=F IPFlag=           0 FMFlag=      100000 FMFlg1=           0
         NFxFlg=           0 DoJE=F BraDBF=F KetDBF=F FulRan=T
         wScrn=  0.000000 ICntrl=    3107 IOpCl=  0 I1Cent=           0 NGrid=           0
         NMat0=    1 NMatS0=      1 NMatT0=    0 NMatD0=    1 NMtDS0=    0 NMtDT0=    0
 Symmetry not used in FoFCou.
 End of G2Drv F.D. properties file   721 does not exist.
 End of G2Drv F.D. properties file   722 does not exist.
 End of G2Drv F.D. properties file   788 does not exist.
 Leave Link 1110 at Thu Jun 13 12:27:04 2024, MaxMem=  1073741824 cpu:       334.2
 (Enter /apps/z_install_tree/linux-rocky8-ivybridge/gcc-12.2.0/gaussian-09-D.01-wczn3gur5lpur3omlkzwa2l5ecyxp5ef/g09/l1002.exe)
 Minotr:  Closed shell wavefunction.
          IDoAtm=11111111111
          Direct CPHF calculation.
          Differentiating once with respect to electric field.
                with respect to dipole field.
          Differentiating once with respect to nuclear coordinates.
          Requested convergence is 1.0D-08 RMS, and 1.0D-07 maximum.
          Secondary convergence is 1.0D-12 RMS, and 1.0D-12 maximum.
          NewPWx=T KeepS1=F KeepF1=F KeepIn=T MapXYZ=F SortEE=F KeepMc=T.
          MDV=    1073741477 using IRadAn=       1.
 Generate precomputed XC quadrature information.
 Keep R1 ints in memory in canonical form, NReq=379226371.
 FoFCou: FMM=F IPFlag=           0 FMFlag=           0 FMFlg1=           0
         NFxFlg=           0 DoJE=F BraDBF=F KetDBF=F FulRan=T
         wScrn=  0.000000 ICntrl=     600 IOpCl=  0 I1Cent=           0 NGrid=           0
         NMat0=    1 NMatS0=  27261 NMatT0=    0 NMatD0=    1 NMtDS0=    0 NMtDT0=    0
 Symmetry not used in FoFCou.
          Solving linear equations simultaneously, MaxMat=       0.
          There are    36 degrees of freedom in the 1st order CPHF.  IDoFFX=6 NUNeed=     3.
     33 vectors produced by pass  0 Test12= 1.83D-14 2.78D-09 XBig12= 3.86D+01 2.21D+00.
 AX will form    33 AO Fock derivatives at one time.
     33 vectors produced by pass  1 Test12= 1.83D-14 2.78D-09 XBig12= 6.05D+00 5.63D-01.
     33 vectors produced by pass  2 Test12= 1.83D-14 2.78D-09 XBig12= 1.48D-01 5.67D-02.
     33 vectors produced by pass  3 Test12= 1.83D-14 2.78D-09 XBig12= 9.45D-04 5.01D-03.
     33 vectors produced by pass  4 Test12= 1.83D-14 2.78D-09 XBig12= 2.97D-06 2.06D-04.
     28 vectors produced by pass  5 Test12= 1.83D-14 2.78D-09 XBig12= 6.60D-09 9.12D-06.
     10 vectors produced by pass  6 Test12= 1.83D-14 2.78D-09 XBig12= 8.99D-12 3.47D-07.
      3 vectors produced by pass  7 Test12= 1.83D-14 2.78D-09 XBig12= 1.06D-14 1.41D-08.
 InvSVY:  IOpt=1 It=  1 EMax= 7.11D-15
 Solved reduced A of dimension   206 with    36 vectors.
 FullF1:  Do perturbations    1 to     3.
 Isotropic polarizability for W=    0.000000       52.74 Bohr**3.
 End of Minotr F.D. properties file   721 does not exist.
 End of Minotr F.D. properties file   722 does not exist.
 End of Minotr F.D. properties file   788 does not exist.
 Leave Link 1002 at Thu Jun 13 12:27:25 2024, MaxMem=  1073741824 cpu:       411.0
 (Enter /apps/z_install_tree/linux-rocky8-ivybridge/gcc-12.2.0/gaussian-09-D.01-wczn3gur5lpur3omlkzwa2l5ecyxp5ef/g09/l601.exe)
 Copying SCF densities to generalized density rwf, IOpCl= 0 IROHF=0.

 **********************************************************************

            Population analysis using the SCF density.

 **********************************************************************

 Alpha  occ. eigenvalues -- -101.55768 -24.72736 -24.72735 -24.72719 -10.44221
 Alpha  occ. eigenvalues --  -10.25611 -10.22264  -9.47166  -7.23633  -7.22644
 Alpha  occ. eigenvalues --   -7.22634  -1.33232  -1.24518  -1.24434  -0.88487
 Alpha  occ. eigenvalues --   -0.81545  -0.71379  -0.66146  -0.61608  -0.61198
 Alpha  occ. eigenvalues --   -0.57218  -0.51676  -0.49130  -0.48552  -0.46336
 Alpha  occ. eigenvalues --   -0.44997  -0.44377  -0.43241  -0.43102  -0.41278
 Alpha  occ. eigenvalues --   -0.39646  -0.31964  -0.31729
 Alpha virt. eigenvalues --   -0.01685   0.00199   0.01852   0.02923   0.03391
 Alpha virt. eigenvalues --    0.05509   0.05836   0.06591   0.07269   0.07541
 Alpha virt. eigenvalues --    0.09261   0.10420   0.10478   0.11438   0.13237
 Alpha virt. eigenvalues --    0.13456   0.14267   0.14863   0.14981   0.18926
 Alpha virt. eigenvalues --    0.19476   0.20413   0.20991   0.22207   0.23692
 Alpha virt. eigenvalues --    0.23775   0.24971   0.27373   0.29010   0.29333
 Alpha virt. eigenvalues --    0.31483   0.31761   0.33843   0.34734   0.35604
 Alpha virt. eigenvalues --    0.35951   0.36682   0.37501   0.39252   0.39793
 Alpha virt. eigenvalues --    0.42728   0.43186   0.45472   0.45619   0.46252
 Alpha virt. eigenvalues --    0.47111   0.49459   0.50034   0.53293   0.54228
 Alpha virt. eigenvalues --    0.54615   0.58235   0.58941   0.61199   0.62310
 Alpha virt. eigenvalues --    0.62892   0.70628   0.73307   0.73437   0.75932
 Alpha virt. eigenvalues --    0.76123   0.77804   0.78442   0.90233   0.91862
 Alpha virt. eigenvalues --    0.92197   0.97854   0.98676   1.00055   1.04866
 Alpha virt. eigenvalues --    1.07672   1.10398   1.13538   1.15819   1.17755
 Alpha virt. eigenvalues --    1.19496   1.21502   1.23133   1.26395   1.26673
 Alpha virt. eigenvalues --    1.29375   1.32020   1.34407   1.35503   1.36309
 Alpha virt. eigenvalues --    1.36692   1.39678   1.39955   1.41574   1.45387
 Alpha virt. eigenvalues --    1.45652   1.47473   1.48226   1.50050   1.51321
 Alpha virt. eigenvalues --    1.54407   1.56854   1.61851   1.62705   1.93811
 Alpha virt. eigenvalues --    1.95355   1.95915   1.99424   2.00260   2.06257
 Alpha virt. eigenvalues --    2.09480   2.10034   2.12958   2.15658   2.28353
 Alpha virt. eigenvalues --    2.28482   2.29821   2.32323   2.37378   2.40958
 Alpha virt. eigenvalues --    2.43587   2.50850   2.52048   2.54617   2.57231
 Alpha virt. eigenvalues --    2.60601   2.67210   2.72685   2.73474   2.82579
 Alpha virt. eigenvalues --    2.85454   2.89447   2.95383   2.97148   3.10959
 Alpha virt. eigenvalues --    3.14784   3.21729   3.27016   3.30387   3.34086
 Alpha virt. eigenvalues --    3.36872   3.40650   3.43113   3.44989   3.47313
 Alpha virt. eigenvalues --    3.49655   3.51550   3.56060   3.56493   3.63186
 Alpha virt. eigenvalues --    3.64520   3.64956   3.67965   3.70689   3.90861
 Alpha virt. eigenvalues --    3.92179   3.96188   4.00017   4.05128   4.10114
 Alpha virt. eigenvalues --    4.11929   4.18304   4.24728   4.24745   4.29585
 Alpha virt. eigenvalues --    4.35088   4.66347   4.82896   5.04514   5.08591
 Alpha virt. eigenvalues --    6.29897   6.32161   6.33976   6.36925   6.38693
 Alpha virt. eigenvalues --    6.40605   6.43783   6.71320   6.73899   8.99176
 Alpha virt. eigenvalues --    9.01732   9.02049   9.12100   9.12692   9.13030
 Alpha virt. eigenvalues --    9.14944   9.25019   9.25597   9.42310   9.56778
 Alpha virt. eigenvalues --    9.60434   9.61666   9.77806   9.78714   9.79403
 Alpha virt. eigenvalues --   23.78669  23.87375  23.92302  25.93372  25.96027
 Alpha virt. eigenvalues --   27.12444  66.81008  66.82241  66.85863 215.79152
          Condensed to atoms (all electrons):
               1          2          3          4          5          6
     1  C    5.481179   0.179469  -0.116061  -0.054561  -0.140997  -0.054543
     2  C    0.179469   4.377257   0.074115   0.219694   0.255428   0.219693
     3  C   -0.116061   0.074115   5.233311  -0.014233   0.026233  -0.014229
     4  F   -0.054561   0.219694  -0.014233   9.168169  -0.010176   0.009052
     5  F   -0.140997   0.255428   0.026233  -0.010176   9.188306  -0.010193
     6  F   -0.054543   0.219693  -0.014229   0.009052  -0.010193   9.168144
     7  Cl  -0.032000   0.010327   0.290884   0.001873   0.000412   0.001866
     8  H    0.418126  -0.033178  -0.013025  -0.005129   0.004079   0.004674
     9  H    0.418093  -0.033171  -0.012993   0.004673   0.004082  -0.005130
    10  H   -0.041109   0.003630   0.426016  -0.002381  -0.000100   0.003766
    11  H   -0.041075   0.003619   0.426007   0.003762  -0.000101  -0.002383
               7          8          9         10         11
     1  C   -0.032000   0.418126   0.418093  -0.041109  -0.041075
     2  C    0.010327  -0.033178  -0.033171   0.003630   0.003619
     3  C    0.290884  -0.013025  -0.012993   0.426016   0.426007
     4  F    0.001873  -0.005129   0.004673  -0.002381   0.003762
     5  F    0.000412   0.004079   0.004082  -0.000100  -0.000101
     6  F    0.001866   0.004674  -0.005130   0.003766  -0.002383
     7  Cl  16.804367  -0.005686  -0.005688  -0.040437  -0.040450
     8  H   -0.005686   0.520386  -0.023294   0.004207  -0.006052
     9  H   -0.005688  -0.023294   0.520392  -0.006038   0.004205
    10  H   -0.040437   0.004207  -0.006038   0.549601  -0.033929
    11  H   -0.040450  -0.006052   0.004205  -0.033929   0.549596
 Mulliken charges:
               1
     1  C   -0.016520
     2  C    0.723116
     3  C   -0.306025
     4  F   -0.320743
     5  F   -0.316974
     6  F   -0.320718
     7  Cl   0.014531
     8  H    0.134892
     9  H    0.134867
    10  H    0.136774
    11  H    0.136800
 Sum of Mulliken charges =   0.00000
 Mulliken charges with hydrogens summed into heavy atoms:
               1
     1  C    0.253239
     2  C    0.723116
     3  C   -0.032451
     4  F   -0.320743
     5  F   -0.316974
     6  F   -0.320718
     7  Cl   0.014531
 APT charges:
               1
     1  C   -0.073782
     2  C    1.634146
     3  C    0.357547
     4  F   -0.545917
     5  F   -0.580120
     6  F   -0.545929
     7  Cl  -0.302826
     8  H    0.028811
     9  H    0.028835
    10  H   -0.000384
    11  H   -0.000382
 Sum of APT charges =   0.00000
 APT charges with hydrogens summed into heavy atoms:
               1
     1  C   -0.016135
     2  C    1.634146
     3  C    0.356781
     4  F   -0.545917
     5  F   -0.580120
     6  F   -0.545929
     7  Cl  -0.302826
 Electronic spatial extent (au):  <R**2>=        1147493.2354
 Charge=              0.0000 electrons
 Dipole moment (field-independent basis, Debye):
    X=              0.0564    Y=             -0.0683    Z=             -0.4018  Tot=              0.4115
 Quadrupole moment (field-independent basis, Debye-Ang):
   XX=            -41.2079   YY=            -51.6523   ZZ=            -80.6898
   XY=             -0.8933   XZ=            -15.7060   YZ=            -17.3584
 Traceless Quadrupole moment (field-independent basis, Debye-Ang):
   XX=             16.6421   YY=              6.1977   ZZ=            -22.8398
   XY=             -0.8933   XZ=            -15.7060   YZ=            -17.3584
 Octapole moment (field-independent basis, Debye-Ang**2):
  XXX=          -6696.0578  YYY=          -5250.1835  ZZZ=          -6516.1677  XYY=          -2506.1506
  XXY=          -1582.2017  XXZ=          -2063.8777  XZZ=          -3850.0229  YZZ=          -2994.8226
  YYZ=          -2226.5545  XYZ=           -696.2206
 Hexadecapole moment (field-independent basis, Debye-Ang**3):
 XXXX=        -693295.0882 YYYY=        -367315.8924 ZZZZ=        -391889.2491 XXXY=        -242421.3541
 XXXZ=        -244787.1363 YYYX=        -261366.3541 YYYZ=        -189755.3660 ZZZX=        -319561.8372
 ZZZY=        -236599.3410 XXYY=        -180648.3713 XXZZ=        -231401.6449 YYZZ=        -159228.7142
 XXYZ=         -79427.6037 YYXZ=        -105619.0208 ZZXY=        -142695.5961
 N-N= 3.898171771111D+02 E-N=-2.859111875316D+03  KE= 8.742501798368D+02
  Exact polarizability:  49.253   0.044  45.724  -5.432   2.211  63.243
 Approx polarizability:  68.403  -0.031  67.650  -1.968   2.581  81.983
 No NMR shielding tensors so no spin-rotation constants.
 Leave Link  601 at Thu Jun 13 12:27:25 2024, MaxMem=  1073741824 cpu:         2.5
 (Enter /apps/z_install_tree/linux-rocky8-ivybridge/gcc-12.2.0/gaussian-09-D.01-wczn3gur5lpur3omlkzwa2l5ecyxp5ef/g09/l701.exe)
 Compute integral second derivatives.
 ... and contract with generalized density number  0.
 R6Disp: Adding Grimme-D3 dispersion energy 2nd derivatives to the Hessian.
 Leave Link  701 at Thu Jun 13 12:27:26 2024, MaxMem=  1073741824 cpu:         4.0
 (Enter /apps/z_install_tree/linux-rocky8-ivybridge/gcc-12.2.0/gaussian-09-D.01-wczn3gur5lpur3omlkzwa2l5ecyxp5ef/g09/l702.exe)
 L702 exits ... SP integral derivatives will be done elsewhere.
 Leave Link  702 at Thu Jun 13 12:27:26 2024, MaxMem=  1073741824 cpu:         0.1
 (Enter /apps/z_install_tree/linux-rocky8-ivybridge/gcc-12.2.0/gaussian-09-D.01-wczn3gur5lpur3omlkzwa2l5ecyxp5ef/g09/l703.exe)
 Compute integral second derivatives, UseDBF=F ICtDFT=           0.
 Integral derivatives from FoFJK, PRISM(SPDF).
 Calling FoFJK, ICntrl=    100127 FMM=F ISym2X=0 I1Cent= 0 IOpClX= 0 NMat=1 NMatS=1 NMatT=0.
 FoFJK:  IHMeth= 1 ICntrl=  100127 DoSepK=F KAlg= 0 I1Cent=   0 FoldK=F
 IRaf=         0 NMat=   1 IRICut=       1 DoRegI=T DoRafI=F ISym2E= 0.
 FoFCou: FMM=F IPFlag=           0 FMFlag=      100000 FMFlg1=         800
         NFxFlg=           0 DoJE=F BraDBF=F KetDBF=F FulRan=T
         wScrn=  0.000000 ICntrl=  100127 IOpCl=  0 I1Cent=           0 NGrid=           0
         NMat0=    1 NMatS0=      1 NMatT0=    0 NMatD0=    1 NMtDS0=    0 NMtDT0=    0
 Symmetry not used in FoFCou.
 Leave Link  703 at Thu Jun 13 12:27:49 2024, MaxMem=  1073741824 cpu:       439.1
 (Enter /apps/z_install_tree/linux-rocky8-ivybridge/gcc-12.2.0/gaussian-09-D.01-wczn3gur5lpur3omlkzwa2l5ecyxp5ef/g09/l716.exe)
 Dipole        = 2.21901496D-02-2.68692116D-02-1.58086181D-01
 Polarizability= 4.92528498D+01 4.42263990D-02 4.57238677D+01
                -5.43171790D+00 2.21078899D+00 6.32431165D+01
 Full mass-weighted force constant matrix:
 Low frequencies ---   -3.9444   -1.7145   -0.0033   -0.0020   -0.0013    4.1738
 Low frequencies ---   78.8330  104.0455  151.4319
 Diagonal vibrational polarizability:
       14.1333445      27.1458535      10.0555735
 Harmonic frequencies (cm**-1), IR intensities (KM/Mole), Raman scattering
 activities (A**4/AMU), depolarization ratios for plane and unpolarized
 incident light, reduced masses (AMU), force constants (mDyne/A),
 and normal coordinates:
                      1                      2                      3
                      A                      A                      A
 Frequencies --     78.8324               104.0450               151.4315
 Red. masses --      4.3406                 2.8296                 9.0845
 Frc consts  --      0.0159                 0.0180                 0.1227
 IR Inten    --      5.3542                 0.0189                 4.8212
  Atom  AN      X      Y      Z        X      Y      Z        X      Y      Z
     1   6    -0.05   0.18  -0.04     0.06  -0.18   0.04    -0.32  -0.11  -0.05
     2   6    -0.01   0.02   0.00     0.02  -0.05   0.01    -0.09  -0.04  -0.05
     3   6    -0.10   0.32  -0.07    -0.05   0.17  -0.04    -0.26  -0.06   0.08
     4   9     0.01  -0.02   0.15     0.10  -0.05  -0.10     0.06  -0.02  -0.25
     5   9     0.01  -0.03   0.01    -0.03   0.09  -0.02     0.05   0.09   0.33
     6   9     0.01  -0.08  -0.13    -0.08  -0.05   0.12     0.07  -0.04  -0.24
     7  17     0.04  -0.15   0.03    -0.01   0.03  -0.01     0.17   0.07   0.08
     8   1    -0.13   0.15   0.04    -0.13  -0.44   0.00    -0.32  -0.09  -0.03
     9   1     0.03   0.17  -0.10     0.34  -0.27   0.15    -0.31  -0.11  -0.02
    10   1     0.01   0.58   0.11     0.16   0.45  -0.01    -0.32  -0.05   0.19
    11   1    -0.30   0.39  -0.32    -0.37   0.26  -0.14    -0.32  -0.06   0.19
                      4                      5                      6
                      A                      A                      A
 Frequencies --    258.1236               360.0725               382.1711
 Red. masses --     14.5731                 3.7834                 7.4982
 Frc consts  --      0.5721                 0.2890                 0.6452
 IR Inten    --      0.2294                 0.9184                 4.6494
  Atom  AN      X      Y      Z        X      Y      Z        X      Y      Z
     1   6    -0.13  -0.03   0.07     0.06  -0.20   0.04     0.24   0.07  -0.02
     2   6    -0.03   0.03   0.19    -0.02   0.08  -0.02    -0.08  -0.02   0.01
     3   6    -0.18  -0.11  -0.25     0.02  -0.07   0.02     0.33   0.10   0.00
     4   9    -0.07   0.02   0.27    -0.08   0.04   0.20    -0.20   0.03  -0.12
     5   9    -0.04   0.04   0.24    -0.04   0.13  -0.03     0.02   0.08   0.34
     6   9    -0.08   0.05   0.26     0.07  -0.01  -0.21    -0.14  -0.18  -0.08
     7  17     0.25  -0.01  -0.41     0.00   0.01   0.00    -0.03  -0.02  -0.06
     8   1    -0.22  -0.03   0.18    -0.08  -0.59  -0.22     0.33   0.06  -0.17
     9   1    -0.22  -0.02   0.18     0.35  -0.33   0.41     0.33   0.07  -0.17
    10   1    -0.16  -0.10  -0.28     0.10   0.00  -0.02     0.36   0.07  -0.10
    11   1    -0.15  -0.11  -0.27    -0.08  -0.04   0.03     0.35   0.10  -0.10
                      7                      8                      9
                      A                      A                      A
 Frequencies --    527.8430               541.2613               628.1121
 Red. masses --      7.3833                10.8857                 8.8716
 Frc consts  --      1.2120                 1.8790                 2.0622
 IR Inten    --      0.2577                 1.3479                41.6842
  Atom  AN      X      Y      Z        X      Y      Z        X      Y      Z
     1   6     0.01  -0.04   0.01    -0.05   0.01   0.13     0.03   0.10   0.42
     2   6    -0.06   0.21  -0.04     0.25   0.08   0.05    -0.05   0.03   0.24
     3   6     0.01  -0.04   0.01    -0.21  -0.07  -0.04     0.02   0.05   0.22
     4   9     0.23   0.23   0.03    -0.26   0.30  -0.07     0.09   0.13  -0.18
     5   9     0.10  -0.32   0.07     0.32   0.06  -0.18    -0.30  -0.10  -0.07
     6   9    -0.31   0.04  -0.09    -0.05  -0.39   0.07     0.17  -0.12  -0.13
     7  17     0.00   0.00   0.00     0.02   0.01   0.03     0.02  -0.02  -0.13
     8   1    -0.10  -0.45  -0.31    -0.17   0.03   0.34     0.01   0.09   0.46
     9   1     0.29  -0.17   0.44    -0.17   0.02   0.35     0.01   0.10   0.46
    10   1     0.00  -0.05   0.00    -0.22  -0.05   0.00     0.08   0.03   0.07
    11   1     0.03  -0.04   0.02    -0.21  -0.08   0.00     0.07   0.05   0.07
                     10                     11                     12
                      A                      A                      A
 Frequencies --    748.9959               790.7108               836.5636
 Red. masses --      7.0595                 1.2066                 5.8153
 Frc consts  --      2.3334                 0.4445                 2.3979
 IR Inten    --     37.2147                 0.0355                 8.5807
  Atom  AN      X      Y      Z        X      Y      Z        X      Y      Z
     1   6    -0.09  -0.03  -0.01    -0.02   0.08  -0.02     0.10   0.10   0.35
     2   6    -0.01  -0.02  -0.09     0.00   0.01   0.00     0.05   0.01   0.00
     3   6     0.01   0.12   0.56    -0.02   0.07  -0.02    -0.06  -0.04  -0.12
     4   9    -0.03  -0.09   0.03    -0.01  -0.03  -0.02    -0.05  -0.26  -0.05
     5   9     0.21   0.05  -0.06     0.00   0.01   0.00     0.14   0.03  -0.03
     6   9    -0.08   0.06   0.00     0.02  -0.01   0.03    -0.17   0.15  -0.14
     7  17    -0.02  -0.04  -0.17     0.00  -0.01   0.00     0.02   0.01   0.02
     8   1     0.01   0.00  -0.10    -0.33  -0.34  -0.05    -0.03   0.09   0.53
     9   1     0.02  -0.04  -0.09     0.45  -0.06   0.14    -0.03   0.12   0.52
    10   1    -0.04   0.04   0.51    -0.35  -0.37  -0.06     0.03  -0.01  -0.21
    11   1    -0.07   0.14   0.49     0.48  -0.07   0.16     0.04  -0.06  -0.20
                     13                     14                     15
                      A                      A                      A
 Frequencies --    975.1263              1056.0599              1099.9036
 Red. masses --      1.9780                 4.1076                 1.6526
 Frc consts  --      1.1082                 2.6991                 1.1779
 IR Inten    --     77.2270                 9.0440                86.8346
  Atom  AN      X      Y      Z        X      Y      Z        X      Y      Z
     1   6    -0.04   0.13  -0.03     0.35   0.09  -0.09    -0.02   0.06  -0.01
     2   6    -0.04   0.15  -0.03     0.09   0.02  -0.02     0.05  -0.17   0.04
     3   6     0.03  -0.11   0.02    -0.33  -0.08   0.09     0.03  -0.09   0.02
     4   9    -0.01  -0.09  -0.03     0.00  -0.01  -0.01     0.01   0.06   0.01
     5   9     0.00  -0.01   0.00    -0.07  -0.01   0.05     0.00   0.01   0.00
     6   9     0.05  -0.05   0.06    -0.01   0.01  -0.01    -0.03   0.04  -0.03
     7  17     0.00   0.02   0.00     0.00   0.00  -0.01     0.00   0.01   0.00
     8   1    -0.03  -0.19  -0.44     0.42   0.08  -0.20    -0.30  -0.13   0.23
     9   1     0.08   0.03   0.47     0.42   0.09  -0.20     0.35  -0.02  -0.19
    10   1     0.17   0.29   0.35    -0.35  -0.08   0.10    -0.07   0.15   0.53
    11   1    -0.25   0.00  -0.41    -0.35  -0.08   0.10     0.04  -0.05  -0.56
                     16                     17                     18
                      A                      A                      A
 Frequencies --   1136.7947              1230.8128              1251.3386
 Red. masses --      5.6809                 1.6467                 3.0884
 Frc consts  --      4.3254                 1.4697                 2.8492
 IR Inten    --    229.1123                89.3280               187.5531
  Atom  AN      X      Y      Z        X      Y      Z        X      Y      Z
     1   6    -0.08  -0.05  -0.11     0.04  -0.12   0.03    -0.09  -0.04  -0.06
     2   6     0.53   0.14  -0.10    -0.05   0.18  -0.04     0.11   0.11   0.36
     3   6     0.10   0.04   0.03    -0.01   0.03  -0.01    -0.02   0.00   0.03
     4   9    -0.05  -0.05  -0.01     0.00  -0.03   0.00    -0.02  -0.06  -0.04
     5   9    -0.19  -0.04   0.08     0.00  -0.01   0.00     0.02   0.00  -0.04
     6   9    -0.07   0.01  -0.02     0.02  -0.03   0.01    -0.04   0.02  -0.06
     7  17    -0.01   0.00  -0.01     0.00   0.01   0.00     0.00   0.00   0.01
     8   1    -0.32   0.04   0.38     0.04   0.15   0.35     0.21  -0.03  -0.51
     9   1    -0.29  -0.05   0.40    -0.08  -0.04  -0.37     0.22  -0.06  -0.50
    10   1    -0.01   0.04   0.24    -0.34  -0.04   0.46     0.15  -0.02  -0.29
    11   1    -0.02   0.05   0.23     0.36  -0.02  -0.44     0.15  -0.01  -0.29
                     19                     20                     21
                      A                      A                      A
 Frequencies --   1301.5193              1330.7352              1397.0308
 Red. masses --      1.4999                 1.1942                 1.6940
 Frc consts  --      1.4970                 1.2460                 1.9480
 IR Inten    --     26.5530                27.6708                92.4128
  Atom  AN      X      Y      Z        X      Y      Z        X      Y      Z
     1   6    -0.05   0.00   0.06     0.01  -0.03   0.01     0.10  -0.01  -0.18
     2   6     0.05  -0.02  -0.14     0.03  -0.09   0.02    -0.06   0.00   0.10
     3   6    -0.06   0.00   0.10    -0.02   0.07  -0.01    -0.02   0.01   0.08
     4   9     0.00   0.02   0.02     0.00   0.02   0.00     0.00  -0.01  -0.01
     5   9    -0.02   0.00   0.02     0.00   0.01   0.00     0.02   0.00  -0.01
     6   9     0.01  -0.01   0.02    -0.01   0.01  -0.01     0.00   0.00  -0.01
     7  17     0.01   0.00   0.01     0.00   0.00   0.00     0.00   0.00   0.01
     8   1     0.09   0.03  -0.11     0.37   0.03  -0.45    -0.35  -0.02   0.48
     9   1     0.11  -0.02  -0.10    -0.38   0.00   0.44    -0.36   0.01   0.47
    10   1     0.28  -0.08  -0.61    -0.29  -0.07   0.25     0.11  -0.11  -0.31
    11   1     0.27  -0.02  -0.62     0.31   0.00  -0.24     0.07   0.02  -0.34
                     22                     23                     24
                      A                      A                      A
 Frequencies --   1486.0358              1503.6061              3083.5417
 Red. masses --      1.0891                 1.0975                 1.0594
 Frc consts  --      1.4170                 1.4619                 5.9348
 IR Inten    --      7.1201                 3.5764                 2.4122
  Atom  AN      X      Y      Z        X      Y      Z        X      Y      Z
     1   6    -0.06  -0.03  -0.04     0.00   0.01   0.03     0.05   0.02   0.03
     2   6    -0.02   0.00   0.01     0.01   0.00   0.00     0.00   0.00   0.00
     3   6     0.02   0.00  -0.01     0.08   0.03   0.01    -0.01   0.00  -0.01
     4   9     0.00   0.00   0.00     0.00   0.00   0.00     0.00   0.00   0.00
     5   9     0.00   0.00   0.00     0.00   0.00   0.00     0.00   0.00   0.00
     6   9     0.00   0.00   0.00     0.00   0.00   0.00     0.00   0.00   0.00
     7  17     0.00   0.00   0.00     0.00   0.00   0.00     0.00   0.00   0.00
     8   1     0.30   0.59   0.20    -0.02  -0.10  -0.07    -0.47   0.40  -0.31
     9   1     0.54  -0.22   0.37    -0.07   0.04  -0.10    -0.15  -0.67  -0.09
    10   1    -0.07  -0.10  -0.01    -0.37  -0.58  -0.10     0.10  -0.09   0.06
    11   1    -0.11   0.03  -0.03    -0.60   0.21  -0.27     0.03   0.14   0.01
                     25                     26                     27
                      A                      A                      A
 Frequencies --   3104.4811              3128.3341              3164.8438
 Red. masses --      1.0564                 1.1064                 1.1111
 Frc consts  --      5.9984                 6.3796                 6.5571
 IR Inten    --      7.0114                 0.9648                 1.4059
  Atom  AN      X      Y      Z        X      Y      Z        X      Y      Z
     1   6    -0.01   0.00  -0.01    -0.03   0.08  -0.02    -0.01   0.03  -0.01
     2   6     0.00   0.00   0.00     0.00   0.00   0.00     0.00   0.00   0.00
     3   6    -0.05  -0.02  -0.03     0.01  -0.03   0.01    -0.03   0.09  -0.02
     4   9     0.00   0.00   0.00     0.00   0.00   0.00     0.00   0.00   0.00
     5   9     0.00   0.00   0.00     0.00   0.00   0.00     0.00   0.00   0.00
     6   9     0.00   0.00   0.00     0.00   0.00   0.00     0.00   0.00   0.00
     7  17     0.00   0.00   0.00     0.00   0.00   0.00     0.00   0.00   0.00
     8   1     0.10  -0.08   0.07     0.46  -0.37   0.31     0.16  -0.12   0.10
     9   1     0.03   0.14   0.02    -0.16  -0.64  -0.09    -0.06  -0.22  -0.03
    10   1     0.48  -0.41   0.28    -0.16   0.13  -0.10     0.47  -0.38   0.27
    11   1     0.16   0.67   0.05     0.05   0.22   0.02    -0.17  -0.64  -0.05

 -------------------
 - Thermochemistry -
 -------------------
 Temperature   298.150 Kelvin.  Pressure   1.00000 Atm.
 Atom     1 has atomic number  6 and mass  12.00000
 Atom     2 has atomic number  6 and mass  12.00000
 Atom     3 has atomic number  6 and mass  12.00000
 Atom     4 has atomic number  9 and mass  18.99840
 Atom     5 has atomic number  9 and mass  18.99840
 Atom     6 has atomic number  9 and mass  18.99840
 Atom     7 has atomic number 17 and mass  34.96885
 Atom     8 has atomic number  1 and mass   1.00783
 Atom     9 has atomic number  1 and mass   1.00783
 Atom    10 has atomic number  1 and mass   1.00783
 Atom    11 has atomic number  1 and mass   1.00783
 Molecular mass:   131.99536 amu.
 Principal axes and moments of inertia in atomic units:
                           1         2         3
     Eigenvalues --   366.150211951.428781974.69763
           X           -0.37339   0.88395  -0.28145
           Y            0.08500   0.33472   0.93848
           Z            0.92377   0.32649  -0.20011
 This molecule is an asymmetric top.
 Rotational symmetry number  1.
 Rotational temperatures (Kelvin)      0.23655     0.04438     0.04386
 Rotational constants (GHZ):           4.92896     0.92483     0.91393
 Zero-point vibrational energy     189358.8 (Joules/Mol)
                                   45.25785 (Kcal/Mol)
 Warning -- explicit consideration of   8 degrees of freedom as
           vibrations may cause significant error
 Vibrational temperatures:    113.42   149.70   217.88   371.38   518.06
          (Kelvin)            549.86   759.45   778.75   903.71  1077.64
                             1137.66  1203.63  1402.99  1519.43  1582.51
                             1635.59  1770.86  1800.39  1872.59  1914.63
                             2010.01  2138.07  2163.35  4436.52  4466.65
                             4500.97  4553.50
 
 Zero-point correction=                           0.072123 (Hartree/Particle)
 Thermal correction to Energy=                    0.079224
 Thermal correction to Enthalpy=                  0.080169
 Thermal correction to Gibbs Free Energy=         0.039439
 Sum of electronic and zero-point Energies=           -876.579470
 Sum of electronic and thermal Energies=              -876.572369
 Sum of electronic and thermal Enthalpies=            -876.571425
 Sum of electronic and thermal Free Energies=         -876.612154
 
                     E (Thermal)             CV                S
                      KCal/Mol        Cal/Mol-Kelvin    Cal/Mol-Kelvin
 Total                   49.714             24.056             85.722
 Electronic               0.000              0.000              0.000
 Translational            0.889              2.981             40.546
 Rotational               0.889              2.981             28.736
 Vibrational             47.937             18.095             16.441
 Vibration     1          0.600              1.963              3.920
 Vibration     2          0.605              1.946              3.377
 Vibration     3          0.619              1.901              2.654
 Vibration     4          0.667              1.749              1.674
 Vibration     5          0.735              1.555              1.122
 Vibration     6          0.752              1.508              1.031
 Vibration     7          0.883              1.188              0.592
 Vibration     8          0.896              1.159              0.563
                       Q            Log10(Q)             Ln(Q)
 Total Bot       0.723240D-18        -18.140717        -41.770545
 Total V=0       0.108013D+16         15.033477         34.615861
 Vib (Bot)       0.285356D-31        -31.544613        -72.634156
 Vib (Bot)    1  0.261289D+01          0.417121          0.960458
 Vib (Bot)    2  0.197092D+01          0.294668          0.678499
 Vib (Bot)    3  0.133846D+01          0.126605          0.291519
 Vib (Bot)    4  0.753168D+00         -0.123108         -0.283467
 Vib (Bot)    5  0.509014D+00         -0.293271         -0.675280
 Vib (Bot)    6  0.472382D+00         -0.325707         -0.749968
 Vib (Bot)    7  0.303594D+00         -0.517706         -1.192063
 Vib (Bot)    8  0.292365D+00         -0.534074         -1.229752
 Vib (V=0)       0.426169D+02          1.629582          3.752250
 Vib (V=0)    1  0.316030D+01          0.499729          1.150668
 Vib (V=0)    2  0.253335D+01          0.403695          0.929543
 Vib (V=0)    3  0.192880D+01          0.285287          0.656899
 Vib (V=0)    4  0.140403D+01          0.147375          0.339343
 Vib (V=0)    5  0.121351D+01          0.084043          0.193516
 Vib (V=0)    6  0.118786D+01          0.074763          0.172149
 Vib (V=0)    7  0.108495D+01          0.035411          0.081536
 Vib (V=0)    8  0.107920D+01          0.033104          0.076224
 Electronic      0.100000D+01          0.000000          0.000000
 Translational   0.596064D+08          7.775293         17.903274
 Rotational      0.425209D+06          5.628603         12.960337
 
                                                        chlorotrifluoropropane
                                                             IR Spectrum
 
     3 333                                                              11  1  11 11   11 1                                          
     1 110                                                              54  3  33 22   11 0  9     8 77    6  55     33   2   1 1    
     6 208                                                              08  9  30 53   30 5  7     3 94    2  42     86   5   5 07   
     5 844                                                              46  7  12 11   70 6  5     7 19    8  18     20   8   1 49   
 
     X XXX                                                              XX  X  XX XX   XX X  X     X  X    X  XX     XX   X   X  X   
                                                                            X  XX XX   XX    X        X    X                         
                                                                            X     XX   XX    X        X    X                         
                                                                            X     XX   XX    X             X                         
                                                                            X     XX   XX    X                                       
                                                                            X     XX   XX    X                                       
                                                                            X     XX   XX    X                                       
                                                                            X     XX   XX                                            
                                                                                  X    X                                             
                                                                                  X    X                                             
                                                                                  X    X                                             
                                                                                  X    X                                             
                                                                                  X    X                                             
                                                                                  X    X                                             
                                                                                  X    X                                             
                                                                                  X    X                                             
                                                                                       X                                             
                                                                                       X                                             
                                                                                       X                                             
                                                                                       X                                             
 
 -------------------------------------------------------------------
 Center     Atomic                   Forces (Hartrees/Bohr)
 Number     Number              X              Y              Z
 -------------------------------------------------------------------
      1        6          -0.000033975    0.000009334   -0.000041537
      2        6          -0.000031010   -0.000027326   -0.000057051
      3        6           0.000020751    0.000015904    0.000023278
      4        9          -0.000019868    0.000037638    0.000019824
      5        9           0.000026433    0.000026366   -0.000006751
      6        9           0.000045218   -0.000048851    0.000055215
      7       17          -0.000003170   -0.000006360   -0.000011389
      8        1          -0.000008530   -0.000011285    0.000001940
      9        1           0.000010299    0.000011800    0.000012194
     10        1          -0.000008548    0.000002689   -0.000001552
     11        1           0.000002400   -0.000009910    0.000005829
 -------------------------------------------------------------------
 Cartesian Forces:  Max     0.000057051 RMS     0.000025392
 Force constants in Cartesian coordinates: 
                1             2             3             4             5 
      1  0.535041D+00
      2 -0.182471D-01  0.617334D+00
      3  0.420792D-01 -0.161204D-01  0.491207D+00
      4 -0.754930D-01  0.614838D-03  0.806783D-02  0.485231D+00
      5 -0.910144D-03 -0.766283D-01 -0.213496D-01  0.151880D-02  0.475899D+00
      6  0.898555D-03 -0.234995D-01 -0.183443D+00 -0.125526D-01  0.204111D-01
      7 -0.177941D+00 -0.215835D-01  0.292397D-01 -0.765489D-04  0.370177D-02
      8 -0.214092D-01 -0.893008D-01  0.989596D-02  0.681521D-02  0.153214D-02
      9  0.301011D-01  0.101545D-01 -0.795753D-01  0.312025D-01  0.524313D-02
     10  0.689683D-02 -0.549397D-02 -0.197629D-02 -0.761998D-01 -0.258105D-01
     11 -0.710236D-02 -0.297813D-01 -0.905565D-02 -0.250788D-01 -0.206936D+00
     12 -0.811324D-02 -0.421591D-01 -0.554061D-02 -0.822377D-02 -0.495445D-01
     13 -0.214375D-01 -0.585992D-02  0.126807D-01 -0.195468D+00 -0.203652D-01
     14  0.129872D-02  0.721689D-02 -0.149929D-02 -0.224436D-01 -0.753562D-01
     15  0.463106D-01  0.856956D-02 -0.177204D-01  0.691758D-01  0.974783D-02
     16 -0.500815D-02  0.112560D-01 -0.114806D-01 -0.127215D+00  0.442117D-01
     17  0.672576D-02  0.155994D-02  0.430107D-02  0.455812D-01 -0.107397D+00
     18 -0.342541D-01  0.287667D-01 -0.249298D-01 -0.577895D-01  0.443829D-01
     19  0.138043D-02  0.559872D-02  0.258889D-01 -0.438006D-02 -0.147087D-02
     20  0.421222D-03  0.145206D-02  0.105834D-02 -0.630399D-03 -0.633454D-03
     21  0.159121D-02 -0.621231D-02 -0.303079D-01  0.236314D-02  0.185280D-02
     22 -0.173103D+00  0.104256D+00 -0.841125D-01 -0.146905D-02 -0.374595D-03
     23  0.105472D+00 -0.136038D+00  0.699201D-01 -0.456508D-02  0.149817D-02
     24 -0.824873D-01  0.658001D-01 -0.104877D+00 -0.253075D-01  0.220823D-01
     25 -0.611485D-01 -0.577370D-01 -0.811084D-02 -0.162301D-02  0.726181D-03
     26 -0.586951D-01 -0.297962D+00 -0.345797D-01 -0.167639D-02 -0.101231D-01
     27 -0.858815D-02 -0.301169D-01 -0.549171D-01 -0.834884D-02 -0.342089D-01
     28 -0.213924D-01  0.175811D-01 -0.108104D-01 -0.285751D-02  0.174828D-02
     29 -0.639640D-02  0.532453D-02 -0.365475D-02  0.126034D-02  0.116803D-03
     30  0.963974D-02 -0.796989D-02  0.756464D-02  0.816214D-03 -0.804328D-03
     31 -0.779488D-02 -0.303856D-01 -0.146574D-02 -0.449067D-03 -0.297548D-02
     32 -0.115742D-02 -0.317754D-02  0.108384D-02 -0.139614D-02 -0.197297D-02
     33  0.282228D-02  0.127873D-01  0.253975D-02  0.596767D-03  0.218717D-02
                6             7             8             9            10 
      6  0.585002D+00
      7  0.165483D-01  0.496259D+00
      8  0.872662D-03 -0.220794D-01  0.585964D+00
      9 -0.198638D-01  0.444327D-01 -0.423548D-01  0.340414D+00
     10 -0.103767D-01 -0.114540D-02 -0.106184D-02 -0.359430D-04  0.875693D-01
     11 -0.605830D-01 -0.256423D-02 -0.209967D-02  0.149036D-02  0.543525D-01
     12 -0.100946D+00 -0.125454D-02 -0.749756D-03  0.946972D-03  0.106382D-01
     13  0.789068D-01  0.436481D-02  0.114958D-02  0.164182D-02 -0.292317D-01
     14  0.126727D-01 -0.308751D-03  0.143052D-02 -0.789357D-03 -0.549737D-01
     15 -0.122823D+00 -0.521810D-02 -0.284031D-02 -0.433013D-02  0.113733D-03
     16 -0.655156D-01 -0.292656D-02  0.567729D-03  0.123909D-03  0.908657D-02
     17  0.524599D-01  0.123805D-02 -0.415935D-03 -0.558246D-03  0.313021D-01
     18 -0.149546D+00 -0.255808D-02  0.522694D-03  0.104102D-02  0.300192D-03
     19 -0.158975D-02 -0.320083D-01 -0.169645D-03 -0.393210D-02  0.500302D-03
     20  0.672117D-03 -0.329540D-03 -0.383295D-01 -0.186490D-01  0.530814D-03
     21  0.479863D-02 -0.467755D-02 -0.188741D-01 -0.116237D+00 -0.594209D-05
     22 -0.107594D-02 -0.235803D-01  0.171302D-01 -0.134482D-01  0.437308D-03
     23 -0.313463D-02 -0.545368D-02  0.475587D-02 -0.407295D-02  0.477532D-04
     24 -0.138395D-01  0.109047D-01 -0.887141D-02  0.613965D-02  0.193652D-02
     25 -0.158994D-02 -0.912777D-02 -0.316073D-01 -0.361811D-02  0.137403D-02
     26  0.267914D-03 -0.223598D-02 -0.441177D-02 -0.293508D-03 -0.805097D-04
     27 -0.205120D-02  0.394955D-02  0.140440D-01  0.869373D-03 -0.399344D-03
     28 -0.256234D-02 -0.186034D+00  0.110865D+00 -0.801400D-01  0.216540D-03
     29  0.493441D-03  0.112142D+00 -0.147240D+00  0.697352D-01 -0.501819D-04
     30  0.150326D-02 -0.834618D-01  0.706287D-01 -0.878859D-01 -0.134062D-03
     31 -0.109087D-02 -0.677834D-01 -0.602008D-01 -0.632767D-02  0.496034D-03
     32 -0.632786D-03 -0.625264D-01 -0.311884D+00 -0.199053D-01  0.123756D-02
     33  0.120891D-02 -0.790493D-02 -0.222737D-01 -0.415192D-01 -0.603416D-04
               11            12            13            14            15 
     11  0.336983D+00
     12  0.533656D-01  0.835927D-01
     13 -0.449252D-01  0.595458D-02  0.317963D+00
     14 -0.320056D-01  0.147988D-01  0.518937D-01  0.864648D-01
     15  0.730958D-02  0.152212D-01 -0.970553D-01 -0.217173D-01  0.110042D+00
     16  0.232828D-01 -0.129976D-02 -0.757426D-01  0.244257D-01 -0.167686D-01
     17 -0.699213D-01  0.259208D-01  0.182109D-01  0.104662D-01 -0.182723D-02
     18  0.148771D-01  0.141005D-01 -0.458346D-02 -0.392597D-02  0.192415D-01
     19  0.740837D-03  0.429963D-03 -0.114895D-02  0.563028D-04  0.197315D-02
     20  0.962895D-03  0.640894D-04  0.214079D-03  0.107507D-03 -0.994407D-04
     21 -0.574557D-03 -0.715174D-03  0.271018D-02  0.122530D-03 -0.317341D-02
     22 -0.639311D-03  0.320012D-03  0.371073D-03 -0.430217D-03  0.500838D-03
     23  0.371927D-03  0.307829D-03 -0.107407D-02  0.235698D-04  0.505459D-03
     24 -0.403331D-03  0.221534D-02  0.904077D-03 -0.137827D-02  0.216524D-02
     25  0.525347D-03  0.115361D-02 -0.448404D-03  0.134622D-03  0.379380D-03
     26  0.141627D-02 -0.105118D-02  0.664177D-03  0.155807D-02  0.201206D-03
     27 -0.544273D-02 -0.781708D-02 -0.550686D-03  0.192345D-02  0.145911D-02
     28 -0.755598D-04  0.361210D-03  0.538655D-03 -0.234729D-03  0.457391D-03
     29  0.884983D-04 -0.318155D-03  0.000000D+00 -0.102780D-03 -0.148015D-03
     30  0.569210D-04 -0.273135D-03 -0.360635D-03  0.149898D-03 -0.406747D-04
     31  0.148390D-02  0.337654D-04  0.238886D-03  0.582018D-03  0.131160D-03
     32  0.921380D-03 -0.634382D-03  0.925141D-04  0.197001D-03  0.298685D-03
     33 -0.104021D-02 -0.784591D-03 -0.248054D-03 -0.357213D-03 -0.417329D-04
               16            17            18            19            20 
     16  0.196768D+00
     17 -0.102030D+00  0.161917D+00
     18  0.958348D-01 -0.825383D-01  0.149412D+00
     19  0.116898D-02 -0.363334D-03  0.807959D-03  0.269398D-01
     20 -0.405665D-03  0.316693D-03 -0.277250D-03  0.604184D-03  0.292428D-01
     21  0.625066D-04  0.664227D-05 -0.735388D-03 -0.457272D-02  0.345980D-01
     22  0.178030D-02 -0.273892D-03  0.173218D-02  0.136060D-02 -0.252907D-03
     23 -0.795952D-03  0.193171D-02 -0.254139D-02  0.166539D-03 -0.203907D-03
     24 -0.199231D-02  0.270444D-03 -0.874373D-02  0.215073D-03 -0.254587D-03
     25 -0.273831D-04  0.384703D-03  0.358752D-04  0.933362D-03  0.637164D-03
     26  0.285816D-03  0.135630D-02  0.309351D-03  0.448154D-03  0.663356D-03
     27  0.115228D-02  0.184153D-02  0.169482D-02 -0.156264D-03  0.588797D-03
     28  0.200391D-02 -0.943881D-03  0.347617D-03  0.380394D-02 -0.181306D-02
     29 -0.798613D-03 -0.563521D-04  0.163521D-03 -0.590010D-02  0.515964D-02
     30 -0.781961D-04  0.430739D-03 -0.120639D-02 -0.141718D-01  0.843975D-02
     31  0.111580D-03  0.168555D-03  0.126454D-03  0.144990D-02  0.102411D-02
     32  0.000000D+00  0.242356D-03  0.260751D-03  0.289215D-03  0.126186D-02
     33 -0.384443D-04 -0.307376D-03 -0.328376D-03 -0.489239D-02 -0.261408D-01
               21            22            23            24            25 
     21  0.190458D+00
     22 -0.236993D-03  0.191411D+00
     23 -0.516691D-03 -0.113130D+00  0.141829D+00
     24  0.110561D-02  0.892971D-01 -0.753042D-01  0.114199D+00
     25 -0.795611D-03  0.585883D-02  0.209556D-01  0.437577D-02  0.682480D-01
     26  0.524589D-03 -0.395117D-02 -0.156335D-01 -0.278120D-02  0.660630D-01
     27  0.666009D-03  0.443457D-02  0.147492D-01  0.249028D-02  0.610615D-02
     28  0.286676D-02 -0.393990D-02 -0.170337D-02  0.301124D-02  0.854202D-03
     29 -0.849687D-02 -0.203055D-02  0.757388D-03  0.765472D-03  0.178783D-03
     30 -0.260532D-01  0.280760D-02  0.728260D-03 -0.102873D-02 -0.557076D-03
     31  0.695009D-03  0.872701D-03  0.799958D-04 -0.857401D-03 -0.489333D-02
     32 -0.243008D-02 -0.304286D-03  0.707597D-03  0.746281D-04 -0.261059D-03
     33 -0.198063D-01 -0.218729D-03 -0.641031D-03  0.173811D-03  0.262080D-02
               26            27            28            29            30 
     26  0.320995D+00
     27  0.373152D-01  0.581666D-01
     28 -0.340371D-03 -0.520999D-03  0.199619D+00
     29  0.715599D-03 -0.753062D-03 -0.120388D+00  0.150647D+00
     30  0.142854D-03  0.181306D-03  0.828535D-01 -0.707662D-01  0.103254D+00
     31 -0.481624D-03  0.292173D-02  0.718776D-02  0.219838D-01  0.264647D-02
     32  0.142503D-02  0.593354D-04 -0.469573D-02 -0.154097D-01 -0.103665D-02
     33 -0.555838D-04 -0.742060D-03  0.413596D-02  0.129795D-01  0.398510D-02
               31            32            33 
     31  0.705638D-01
     32  0.687211D-01  0.327689D+00
     33  0.318708D-02  0.228620D-01  0.553147D-01
 FormGI is forming the generalized inverse of G from B-inverse, IUseBI=4.
 Leave Link  716 at Thu Jun 13 12:27:49 2024, MaxMem=  1073741824 cpu:         0.5
 (Enter /apps/z_install_tree/linux-rocky8-ivybridge/gcc-12.2.0/gaussian-09-D.01-wczn3gur5lpur3omlkzwa2l5ecyxp5ef/g09/l103.exe)

 GradGradGradGradGradGradGradGradGradGradGradGradGradGradGradGradGradGrad
 Berny optimization.
 Red2BG is reusing G-inverse.
 Internal  Forces:  Max     0.000085210 RMS     0.000017740
 Search for a local minimum.
 Step number   1 out of a maximum of    2
 All quantities printed in internal units (Hartrees-Bohrs-Radians)
 Second derivative matrix not updated -- analytic derivatives used.
 ITU=  0
     Eigenvalues ---    0.00242   0.00324   0.03509   0.03799   0.04386
     Eigenvalues ---    0.06060   0.06829   0.09030   0.09896   0.11032
     Eigenvalues ---    0.12543   0.15733   0.18238   0.19958   0.22147
     Eigenvalues ---    0.23286   0.23977   0.24958   0.30503   0.33293
     Eigenvalues ---    0.33945   0.34121   0.34523   0.34719   0.35138
     Eigenvalues ---    0.38738   0.50160
 Angle between quadratic step and forces=  68.84 degrees.
 Linear search not attempted -- first point.
 Iteration  1 RMS(Cart)=  0.00017185 RMS(Int)=  0.00000002
 Iteration  2 RMS(Cart)=  0.00000002 RMS(Int)=  0.00000001
 ITry= 1 IFail=0 DXMaxC= 5.16D-04 DCOld= 1.00D+10 DXMaxT= 3.00D-01 DXLimC= 3.00D+00 Rises=F
 Variable       Old X    -DE/DX   Delta X   Delta X   Delta X     New X
                                 (Linear)    (Quad)   (Total)
    R1        2.85430   0.00001   0.00000   0.00001   0.00001   2.85431
    R2        2.87339   0.00000   0.00000   0.00001   0.00001   2.87340
    R3        2.05649   0.00000   0.00000  -0.00002  -0.00002   2.05647
    R4        2.05651  -0.00002   0.00000  -0.00004  -0.00004   2.05647
    R5        2.55568   0.00004   0.00000   0.00011   0.00011   2.55579
    R6        2.54615  -0.00003   0.00000  -0.00011  -0.00011   2.54605
    R7        2.55557   0.00009   0.00000   0.00022   0.00022   2.55580
    R8        3.42477   0.00001   0.00000   0.00007   0.00007   3.42484
    R9        2.05036  -0.00001   0.00000  -0.00002  -0.00002   2.05033
   R10        2.05036  -0.00001   0.00000  -0.00003  -0.00003   2.05033
    A1        1.94881  -0.00002   0.00000  -0.00010  -0.00010   1.94871
    A2        1.87642   0.00001   0.00000   0.00008   0.00008   1.87650
    A3        1.87666   0.00000   0.00000  -0.00016  -0.00016   1.87650
    A4        1.93452   0.00001   0.00000   0.00023   0.00023   1.93475
    A5        1.93481   0.00000   0.00000  -0.00008  -0.00008   1.93473
    A6        1.89006   0.00000   0.00000   0.00003   0.00003   1.89009
    A7        1.95285   0.00002   0.00000   0.00007   0.00007   1.95292
    A8        1.94116   0.00000   0.00000   0.00003   0.00003   1.94119
    A9        1.95287   0.00002   0.00000   0.00005   0.00005   1.95291
   A10        1.87324  -0.00003   0.00000  -0.00015  -0.00015   1.87310
   A11        1.86604  -0.00001   0.00000   0.00000   0.00000   1.86604
   A12        1.87313  -0.00001   0.00000  -0.00001  -0.00001   1.87311
   A13        1.92061  -0.00001   0.00000  -0.00006  -0.00006   1.92055
   A14        1.94988  -0.00001   0.00000  -0.00009  -0.00009   1.94979
   A15        1.94975   0.00001   0.00000   0.00008   0.00008   1.94983
   A16        1.86403   0.00001   0.00000  -0.00001  -0.00001   1.86402
   A17        1.86392   0.00001   0.00000   0.00007   0.00007   1.86399
   A18        1.91174   0.00000   0.00000   0.00001   0.00001   1.91175
    D1        1.04699   0.00002   0.00000  -0.00011  -0.00011   1.04687
    D2       -3.14138   0.00000   0.00000  -0.00023  -0.00023   3.14157
    D3       -1.04671   0.00000   0.00000  -0.00020  -0.00020  -1.04691
    D4       -1.07850   0.00001   0.00000  -0.00039  -0.00039  -1.07888
    D5        1.01632  -0.00001   0.00000  -0.00051  -0.00051   1.01581
    D6        3.11100  -0.00001   0.00000  -0.00047  -0.00047   3.11052
    D7       -3.11020   0.00001   0.00000  -0.00038  -0.00038  -3.11058
    D8       -1.01539  -0.00001   0.00000  -0.00050  -0.00050  -1.01589
    D9        1.07929  -0.00001   0.00000  -0.00047  -0.00047   1.07882
   D10        3.14142  -0.00001   0.00000  -0.00003  -0.00003   3.14138
   D11        1.07393   0.00000   0.00000   0.00008   0.00008   1.07400
   D12       -1.07450   0.00000   0.00000   0.00007   0.00007  -1.07443
   D13       -1.05017   0.00000   0.00000   0.00015   0.00015  -1.05002
   D14       -3.11766   0.00000   0.00000   0.00026   0.00026  -3.11740
   D15        1.01710   0.00000   0.00000   0.00026   0.00026   1.01736
   D16        1.04933   0.00000   0.00000   0.00029   0.00029   1.04962
   D17       -1.01816   0.00001   0.00000   0.00040   0.00040  -1.01776
   D18        3.11660   0.00001   0.00000   0.00040   0.00040   3.11699
         Item               Value     Threshold  Converged?
 Maximum Force            0.000085     0.000450     YES
 RMS     Force            0.000018     0.000300     YES
 Maximum Displacement     0.000516     0.001800     YES
 RMS     Displacement     0.000172     0.001200     YES
 Predicted change in Energy=-3.188970D-08
 Optimization completed.
    -- Stationary point found.
                           ----------------------------
                           !   Optimized Parameters   !
                           ! (Angstroms and Degrees)  !
 --------------------------                            --------------------------
 ! Name  Definition              Value          Derivative Info.                !
 --------------------------------------------------------------------------------
 ! R1    R(1,2)                  1.5104         -DE/DX =    0.0                 !
 ! R2    R(1,3)                  1.5205         -DE/DX =    0.0                 !
 ! R3    R(1,8)                  1.0882         -DE/DX =    0.0                 !
 ! R4    R(1,9)                  1.0883         -DE/DX =    0.0                 !
 ! R5    R(2,4)                  1.3524         -DE/DX =    0.0                 !
 ! R6    R(2,5)                  1.3474         -DE/DX =    0.0                 !
 ! R7    R(2,6)                  1.3523         -DE/DX =    0.0001              !
 ! R8    R(3,7)                  1.8123         -DE/DX =    0.0                 !
 ! R9    R(3,10)                 1.085          -DE/DX =    0.0                 !
 ! R10   R(3,11)                 1.085          -DE/DX =    0.0                 !
 ! A1    A(2,1,3)              111.6586         -DE/DX =    0.0                 !
 ! A2    A(2,1,8)              107.5109         -DE/DX =    0.0                 !
 ! A3    A(2,1,9)              107.5246         -DE/DX =    0.0                 !
 ! A4    A(3,1,8)              110.84           -DE/DX =    0.0                 !
 ! A5    A(3,1,9)              110.8564         -DE/DX =    0.0                 !
 ! A6    A(8,1,9)              108.2923         -DE/DX =    0.0                 !
 ! A7    A(1,2,4)              111.8901         -DE/DX =    0.0                 !
 ! A8    A(1,2,5)              111.2205         -DE/DX =    0.0                 !
 ! A9    A(1,2,6)              111.891          -DE/DX =    0.0                 !
 ! A10   A(4,2,5)              107.329          -DE/DX =    0.0                 !
 ! A11   A(4,2,6)              106.9159         -DE/DX =    0.0                 !
 ! A12   A(5,2,6)              107.3224         -DE/DX =    0.0                 !
 ! A13   A(1,3,7)              110.0426         -DE/DX =    0.0                 !
 ! A14   A(1,3,10)             111.7199         -DE/DX =    0.0                 !
 ! A15   A(1,3,11)             111.7123         -DE/DX =    0.0                 !
 ! A16   A(7,3,10)             106.8011         -DE/DX =    0.0                 !
 ! A17   A(7,3,11)             106.7949         -DE/DX =    0.0                 !
 ! A18   A(10,3,11)            109.5346         -DE/DX =    0.0                 !
 ! D1    D(3,1,2,4)             59.988          -DE/DX =    0.0                 !
 ! D2    D(3,1,2,5)            180.012          -DE/DX =    0.0                 !
 ! D3    D(3,1,2,6)            -59.9718         -DE/DX =    0.0                 !
 ! D4    D(8,1,2,4)            -61.7932         -DE/DX =    0.0                 !
 ! D5    D(8,1,2,5)             58.2308         -DE/DX =    0.0                 !
 ! D6    D(8,1,2,6)            178.247          -DE/DX =    0.0                 !
 ! D7    D(9,1,2,4)           -178.2014         -DE/DX =    0.0                 !
 ! D8    D(9,1,2,5)            -58.1774         -DE/DX =    0.0                 !
 ! D9    D(9,1,2,6)             61.8388         -DE/DX =    0.0                 !
 ! D10   D(2,1,3,7)            179.9899         -DE/DX =    0.0                 !
 ! D11   D(2,1,3,10)            61.5315         -DE/DX =    0.0                 !
 ! D12   D(2,1,3,11)           -61.5641         -DE/DX =    0.0                 !
 ! D13   D(8,1,3,7)            -60.1705         -DE/DX =    0.0                 !
 ! D14   D(8,1,3,10)          -178.629          -DE/DX =    0.0                 !
 ! D15   D(8,1,3,11)            58.2754         -DE/DX =    0.0                 !
 ! D16   D(9,1,3,7)             60.1219         -DE/DX =    0.0                 !
 ! D17   D(9,1,3,10)           -58.3365         -DE/DX =    0.0                 !
 ! D18   D(9,1,3,11)           178.5679         -DE/DX =    0.0                 !
 --------------------------------------------------------------------------------
 GradGradGradGradGradGradGradGradGradGradGradGradGradGradGradGradGradGrad

 Leave Link  103 at Thu Jun 13 12:27:50 2024, MaxMem=  1073741824 cpu:         9.3
 (Enter /apps/z_install_tree/linux-rocky8-ivybridge/gcc-12.2.0/gaussian-09-D.01-wczn3gur5lpur3omlkzwa2l5ecyxp5ef/g09/l9999.exe)
 1\1\GINC-K152\Freq\RB3LYP\Gen\C3H4Cl1F3\Z5112331\13-Jun-2024\0\\#P Geo
 m=AllCheck Guess=TCheck SCRF=Check GenChk RB3LYP/ChkBas Freq\\chlorotr
 ifluoropropane\\0,1\C,50.126609692,35.3612995628,31.9353065709\C,50.05
 9753173,35.656319408,33.4151346422\C,51.5063054553,35.6530546867,31.36
 66782712\F,50.3340097672,36.953122855,33.6836346132\F,48.8340732398,35
 .3946019876,33.9097121476\F,50.9446041949,34.9133214152,34.1178741617\
 Cl,51.5375777473,35.2844155575,29.5925331661\H,49.3692871264,35.970247
 5096,31.4454798903\H,49.8643646967,34.3141050169,31.797759919\H,52.269
 7562413,35.0359035393,31.8287355557\H,51.7716586662,36.6996084615,31.4
 74151062\\Version=ES64L-G09RevD.01\HF=-876.6515931\RMSD=1.660e-09\RMSF
 =2.539e-05\ZeroPoint=0.072123\Thermal=0.0792244\Dipole=0.0221901,-0.02
 68692,-0.1580862\DipoleDeriv=0.0053783,-0.0173356,-0.0272817,0.002408,
 0.0293298,-0.0720173,0.0654161,-0.0442736,-0.2560529,1.6266015,-0.0062
 766,-0.0350583,-0.0276255,1.613931,-0.0021608,-0.1351874,-0.032145,1.6
 619062,0.159301,-0.016794,-0.1223716,-0.0218392,0.1429498,0.1000831,-0
 .1463325,0.0930184,0.7703915,-0.3123672,-0.1091334,-0.0002519,-0.10414
 23,-0.8809108,-0.1415998,0.0005974,-0.2069791,-0.4444733,-0.8748657,-0
 .1150533,0.290689,-0.1023951,-0.3082765,0.0288244,0.3505132,0.0466902,
 -0.5572178,-0.5464459,0.229395,-0.1873781,0.2178268,-0.475741,0.156513
 9,-0.219381,0.2125702,-0.6156001,-0.1852012,0.0011548,0.0485649,0.0154
 108,-0.1651168,-0.0714525,0.1154463,-0.0514307,-0.5581609,0.0102298,0.
 0370756,0.0019457,0.0529085,0.0404518,0.0286029,-0.0289721,0.0272819,0
 .0357522,0.0581683,-0.0120539,0.0258307,-0.0383308,-0.0260333,-0.00203
 99,0.0074844,-0.0154804,0.0543704,0.008431,0.0244012,-0.0109645,0.0439
 325,0.0475586,0.0119236,-0.022657,0.0088091,-0.0571407,0.0507701,-0.01
 53799,0.0162758,-0.0381537,-0.0181427,-0.0366778,0.0130725,-0.0380609,
 -0.0337746\Polar=49.2528498,0.0442264,45.7238677,-5.4317179,2.210789,6
 3.2431165\PG=C01 [X(C3H4Cl1F3)]\NImag=0\\0.53504133,-0.01824707,0.6173
 3434,0.04207923,-0.01612038,0.49120694,-0.07549298,0.00061484,0.008067
 83,0.48523057,-0.00091014,-0.07662833,-0.02134956,0.00151880,0.4758993
 7,0.00089856,-0.02349952,-0.18344270,-0.01255259,0.02041114,0.58500157
 ,-0.17794145,-0.02158351,0.02923974,-0.00007655,0.00370177,0.01654830,
 0.49625871,-0.02140921,-0.08930077,0.00989596,0.00681521,0.00153214,0.
 00087266,-0.02207935,0.58596359,0.03010108,0.01015450,-0.07957533,0.03
 120247,0.00524313,-0.01986384,0.04443271,-0.04235475,0.34041419,0.0068
 9683,-0.00549397,-0.00197629,-0.07619984,-0.02581050,-0.01037669,-0.00
 114540,-0.00106184,-0.00003594,0.08756929,-0.00710236,-0.02978126,-0.0
 0905565,-0.02507882,-0.20693589,-0.06058301,-0.00256423,-0.00209967,0.
 00149036,0.05435250,0.33698278,-0.00811324,-0.04215914,-0.00554061,-0.
 00822377,-0.04954449,-0.10094617,-0.00125454,-0.00074976,0.00094697,0.
 01063816,0.05336555,0.08359270,-0.02143746,-0.00585992,0.01268065,-0.1
 9546762,-0.02036520,0.07890683,0.00436481,0.00114958,0.00164182,-0.029
 23166,-0.04492515,0.00595458,0.31796325,0.00129872,0.00721689,-0.00149
 929,-0.02244361,-0.07535615,0.01267274,-0.00030875,0.00143052,-0.00078
 936,-0.05497374,-0.03200562,0.01479881,0.05189365,0.08646479,0.0463105
 8,0.00856956,-0.01772039,0.06917578,0.00974783,-0.12282315,-0.00521810
 ,-0.00284031,-0.00433013,0.00011373,0.00730958,0.01522121,-0.09705530,
 -0.02171732,0.11004245,-0.00500815,0.01125596,-0.01148063,-0.12721488,
 0.04421175,-0.06551556,-0.00292656,0.00056773,0.00012391,0.00908657,0.
 02328285,-0.00129976,-0.07574258,0.02442573,-0.01676862,0.19676822,0.0
 0672576,0.00155994,0.00430107,0.04558125,-0.10739659,0.05245994,0.0012
 3805,-0.00041594,-0.00055825,0.03130211,-0.06992131,0.02592082,0.01821
 086,0.01046621,-0.00182723,-0.10203017,0.16191697,-0.03425406,0.028766
 65,-0.02492985,-0.05778951,0.04438290,-0.14954578,-0.00255808,0.000522
 69,0.00104102,0.00030019,0.01487708,0.01410054,-0.00458346,-0.00392597
 ,0.01924149,0.09583483,-0.08253834,0.14941163,0.00138043,0.00559872,0.
 02588886,-0.00438006,-0.00147087,-0.00158975,-0.03200826,-0.00016965,-
 0.00393210,0.00050030,0.00074084,0.00042996,-0.00114895,0.00005630,0.0
 0197315,0.00116898,-0.00036333,0.00080796,0.02693977,0.00042122,0.0014
 5206,0.00105834,-0.00063040,-0.00063345,0.00067212,-0.00032954,-0.0383
 2948,-0.01864904,0.00053081,0.00096289,0.00006409,0.00021408,0.0001075
 1,-0.00009944,-0.00040567,0.00031669,-0.00027725,0.00060418,0.02924283
 ,0.00159121,-0.00621231,-0.03030787,0.00236314,0.00185280,0.00479863,-
 0.00467755,-0.01887407,-0.11623682,-0.00000594,-0.00057456,-0.00071517
 ,0.00271018,0.00012253,-0.00317341,0.00006251,0.00000664,-0.00073539,-
 0.00457272,0.03459802,0.19045793,-0.17310276,0.10425641,-0.08411245,-0
 .00146905,-0.00037459,-0.00107594,-0.02358031,0.01713022,-0.01344819,0
 .00043731,-0.00063931,0.00032001,0.00037107,-0.00043022,0.00050084,0.0
 0178030,-0.00027389,0.00173218,0.00136060,-0.00025291,-0.00023699,0.19
 141121,0.10547198,-0.13603834,0.06992009,-0.00456508,0.00149817,-0.003
 13463,-0.00545368,0.00475587,-0.00407295,0.00004775,0.00037193,0.00030
 783,-0.00107407,0.00002357,0.00050546,-0.00079595,0.00193171,-0.002541
 39,0.00016654,-0.00020391,-0.00051669,-0.11312971,0.14182948,-0.082487
 25,0.06580011,-0.10487743,-0.02530749,0.02208231,-0.01383953,0.0109046
 8,-0.00887141,0.00613965,0.00193652,-0.00040333,0.00221534,0.00090408,
 -0.00137827,0.00216524,-0.00199231,0.00027044,-0.00874373,0.00021507,-
 0.00025459,0.00110561,0.08929710,-0.07530416,0.11419948,-0.06114849,-0
 .05773697,-0.00811084,-0.00162301,0.00072618,-0.00158994,-0.00912777,-
 0.03160733,-0.00361811,0.00137403,0.00052535,0.00115361,-0.00044840,0.
 00013462,0.00037938,-0.00002738,0.00038470,0.00003588,0.00093336,0.000
 63716,-0.00079561,0.00585883,0.02095560,0.00437577,0.06824797,-0.05869
 507,-0.29796152,-0.03457966,-0.00167639,-0.01012309,0.00026791,-0.0022
 3598,-0.00441177,-0.00029351,-0.00008051,0.00141627,-0.00105118,0.0006
 6418,0.00155807,0.00020121,0.00028582,0.00135630,0.00030935,0.00044815
 ,0.00066336,0.00052459,-0.00395117,-0.01563347,-0.00278120,0.06606296,
 0.32099524,-0.00858815,-0.03011685,-0.05491714,-0.00834884,-0.03420890
 ,-0.00205120,0.00394955,0.01404399,0.00086937,-0.00039934,-0.00544273,
 -0.00781708,-0.00055069,0.00192345,0.00145911,0.00115228,0.00184153,0.
 00169482,-0.00015626,0.00058880,0.00066601,0.00443457,0.01474921,0.002
 49028,0.00610615,0.03731522,0.05816657,-0.02139241,0.01758108,-0.01081
 038,-0.00285751,0.00174828,-0.00256234,-0.18603384,0.11086543,-0.08013
 997,0.00021654,-0.00007556,0.00036121,0.00053866,-0.00023473,0.0004573
 9,0.00200391,-0.00094388,0.00034762,0.00380394,-0.00181306,0.00286676,
 -0.00393990,-0.00170337,0.00301124,0.00085420,-0.00034037,-0.00052100,
 0.19961865,-0.00639640,0.00532453,-0.00365475,0.00126034,0.00011680,0.
 00049344,0.11214156,-0.14724030,0.06973517,-0.00005018,0.00008850,-0.0
 0031815,-0.00000052,-0.00010278,-0.00014802,-0.00079861,-0.00005635,0.
 00016352,-0.00590010,0.00515964,-0.00849687,-0.00203055,0.00075739,0.0
 0076547,0.00017878,0.00071560,-0.00075306,-0.12038808,0.15064668,0.009
 63974,-0.00796989,0.00756464,0.00081621,-0.00080433,0.00150326,-0.0834
 6178,0.07062867,-0.08788586,-0.00013406,0.00005692,-0.00027314,-0.0003
 6064,0.00014990,-0.00004067,-0.00007820,0.00043074,-0.00120639,-0.0141
 7179,0.00843975,-0.02605324,0.00280760,0.00072826,-0.00102873,-0.00055
 708,0.00014285,0.00018131,0.08285351,-0.07076622,0.10325372,-0.0077948
 8,-0.03038556,-0.00146574,-0.00044907,-0.00297548,-0.00109087,-0.06778
 339,-0.06020079,-0.00632767,0.00049603,0.00148390,0.00003377,0.0002388
 9,0.00058202,0.00013116,0.00011158,0.00016855,0.00012645,0.00144990,0.
 00102411,0.00069501,0.00087270,0.00008000,-0.00085740,-0.00489333,-0.0
 0048162,0.00292173,0.00718776,0.02198377,0.00264647,0.07056381,-0.0011
 5742,-0.00317754,0.00108384,-0.00139614,-0.00197297,-0.00063279,-0.062
 52635,-0.31188419,-0.01990529,0.00123756,0.00092138,-0.00063438,0.0000
 9251,0.00019700,0.00029869,0.00000057,0.00024236,0.00026075,0.00028922
 ,0.00126186,-0.00243008,-0.00030429,0.00070760,0.00007463,-0.00026106,
 0.00142503,0.00005934,-0.00469573,-0.01540970,-0.00103665,0.06872111,0
 .32768917,0.00282228,0.01278728,0.00253975,0.00059677,0.00218717,0.001
 20891,-0.00790493,-0.02227368,-0.04151923,-0.00006034,-0.00104021,-0.0
 0078459,-0.00024805,-0.00035721,-0.00004173,-0.00003844,-0.00030738,-0
 .00032838,-0.00489239,-0.02614079,-0.01980628,-0.00021873,-0.00064103,
 0.00017381,0.00262080,-0.00005558,-0.00074206,0.00413596,0.01297948,0.
 00398510,0.00318708,0.02286195,0.05531470\\0.00003397,-0.00000933,0.00
 004154,0.00003101,0.00002733,0.00005705,-0.00002075,-0.00001590,-0.000
 02328,0.00001987,-0.00003764,-0.00001982,-0.00002643,-0.00002637,0.000
 00675,-0.00004522,0.00004885,-0.00005522,0.00000317,0.00000636,0.00001
 139,0.00000853,0.00001129,-0.00000194,-0.00001030,-0.00001180,-0.00001
 219,0.00000855,-0.00000269,0.00000155,-0.00000240,0.00000991,-0.000005
 83\\\@


     ON THE SURVIVAL OF THE FITTEST -
 "STRONG REPRESENTATIVES FROM EACH PAST ERA THRIVE TODAY,
 SUCH AS PROGRAMMING IN THE THIRTY YEAR OLD LANGUAGE KNOWN
 AS FORTRAN, AND EVEN IN THE ANCIENT SCRIPT KNOWN AS DIRECT
 MACHINE CODE. SOME PEOPLE MIGHT LOOK ON SUCH RELICS AS LIVING
 FOSSILS; OTHERS WOULD POINT OUT THAT EVEN A VERY OLD SPECIES
 MIGHT STILL BE FILLING A PARTICULAR ECOLOGICAL NICHE."
     -- ALAN KAY, SCI.AM. SEPTEMBER 1984
 Job cpu time:       0 days  0 hours 21 minutes 17.5 seconds.
 File lengths (MBytes):  RWF=    132 Int=      0 D2E=      0 Chk=      6 Scr=      2
 Normal termination of Gaussian 09 at Thu Jun 13 12:27:50 2024.
