tetrafluoromethane                                                      
Freq      RB3LYP                                                      Gen                 
Number of atoms                            I                5
Info1-9                                    I   N=           9
          31          18        1002           0           0         100
           6          18        -502
Charge                                     I                0
Multiplicity                               I                1
Number of electrons                        I               42
Number of alpha electrons                  I               21
Number of beta electrons                   I               21
Number of basis functions                  I              135
Number of independent functions            I              135
Number of point charges in /Mol/           I                0
Number of translation vectors              I                0
Atomic numbers                             I   N=           5
           6           9           9           9           9
Nuclear charges                            R   N=           5
  6.00000000E+00  9.00000000E+00  9.00000000E+00  9.00000000E+00  9.00000000E+00
Current cartesian coordinates              R   N=          15
  9.46295204E+01  6.70802778E+01  6.18786760E+01  9.50814106E+01  6.61630893E+01
  6.41693599E+01  9.22076017E+01  6.67602250E+01  6.13119176E+01  9.60484272E+01
  6.58718189E+01  6.01997292E+01  9.51826692E+01  6.95264111E+01  6.18338387E+01
Force Field                                I                0
Int Atom Types                             I   N=           5
           0           0           0           0           0
MM charges                                 R   N=           5
  0.00000000E+00  0.00000000E+00  0.00000000E+00  0.00000000E+00  0.00000000E+00
Integer atomic weights                     I   N=           5
          12          19          19          19          19
Real atomic weights                        R   N=           5
  1.20000000E+01  1.89984032E+01  1.89984032E+01  1.89984032E+01  1.89984032E+01
Atom fragment info                         I   N=           5
           0           0           0           0           0
Atom residue num                           I   N=           5
           0           0           0           0           0
Nuclear spins                              I   N=           5
           0           1           1           1           1
Nuclear ZEff                               R   N=           5
 -3.60000000E+00 -6.75000000E+00 -6.75000000E+00 -6.75000000E+00 -6.75000000E+00
Nuclear ZNuc                               R   N=           5
  6.00000000E+00  9.00000000E+00  9.00000000E+00  9.00000000E+00  9.00000000E+00
Nuclear QMom                               R   N=           5
  0.00000000E+00  0.00000000E+00  0.00000000E+00  0.00000000E+00  0.00000000E+00
Nuclear GFac                               R   N=           5
  0.00000000E+00  2.62886700E+00  2.62886700E+00  2.62886700E+00  2.62886700E+00
MicOpt                                     I   N=           5
          -1          -1          -1          -1          -1
Number of contracted shells                I               35
Number of primitive shells                 I               70
Pure/Cartesian d shells                    I                0
Pure/Cartesian f shells                    I                0
Highest angular momentum                   I                2
Largest degree of contraction              I                6
Shell types                                I   N=          35
           0          -1          -1          -1          -1          -2
          -2           0          -1          -1          -1          -1
          -2          -2           0          -1          -1          -1
          -1          -2          -2           0          -1          -1
          -1          -1          -2          -2           0          -1
          -1          -1          -1          -2          -2
Number of primitives per shell             I   N=          35
           6           3           1           1           1           1
           1           6           3           1           1           1
           1           1           6           3           1           1
           1           1           1           6           3           1
           1           1           1           1           6           3
           1           1           1           1           1
Shell to atom map                          I   N=          35
           1           1           1           1           1           1
           1           2           2           2           2           2
           2           2           3           3           3           3
           3           3           3           4           4           4
           4           4           4           4           5           5
           5           5           5           5           5
Primitive exponents                        R   N=          70
  4.56324000E+03  6.82024000E+02  1.54973000E+02  4.44553000E+01  1.30290000E+01
  1.82773000E+00  2.09642000E+01  4.80331000E+00  1.45933000E+00  4.83456000E-01
  1.45585000E-01  4.38000000E-02  1.25200000E+00  3.13000000E-01  1.14271000E+04
  1.72235000E+03  3.95746000E+02  1.15139000E+02  3.36026000E+01  4.91901000E+00
  5.54441000E+01  1.26323000E+01  3.71756000E+00  1.16545000E+00  3.21892000E-01
  1.07600000E-01  3.50000000E+00  8.75000000E-01  1.14271000E+04  1.72235000E+03
  3.95746000E+02  1.15139000E+02  3.36026000E+01  4.91901000E+00  5.54441000E+01
  1.26323000E+01  3.71756000E+00  1.16545000E+00  3.21892000E-01  1.07600000E-01
  3.50000000E+00  8.75000000E-01  1.14271000E+04  1.72235000E+03  3.95746000E+02
  1.15139000E+02  3.36026000E+01  4.91901000E+00  5.54441000E+01  1.26323000E+01
  3.71756000E+00  1.16545000E+00  3.21892000E-01  1.07600000E-01  3.50000000E+00
  8.75000000E-01  1.14271000E+04  1.72235000E+03  3.95746000E+02  1.15139000E+02
  3.36026000E+01  4.91901000E+00  5.54441000E+01  1.26323000E+01  3.71756000E+00
  1.16545000E+00  3.21892000E-01  1.07600000E-01  3.50000000E+00  8.75000000E-01
Contraction coefficients                   R   N=          70
  1.96665025E-03  1.52306019E-02  7.61269097E-02  2.60801033E-01  6.16462078E-01
  2.21006028E-01  1.14660081E-01  9.19999648E-01 -3.03068213E-03  1.00000000E+00
  1.00000000E+00  1.00000000E+00  1.00000000E+00  1.00000000E+00  1.80093016E-03
  1.37419012E-02  6.81334059E-02  2.33325020E-01  5.89086051E-01  2.99505026E-01
  1.14536016E-01  9.20512125E-01 -3.37804046E-03  1.00000000E+00  1.00000000E+00
  1.00000000E+00  1.00000000E+00  1.00000000E+00  1.80093016E-03  1.37419012E-02
  6.81334059E-02  2.33325020E-01  5.89086051E-01  2.99505026E-01  1.14536016E-01
  9.20512125E-01 -3.37804046E-03  1.00000000E+00  1.00000000E+00  1.00000000E+00
  1.00000000E+00  1.00000000E+00  1.80093016E-03  1.37419012E-02  6.81334059E-02
  2.33325020E-01  5.89086051E-01  2.99505026E-01  1.14536016E-01  9.20512125E-01
 -3.37804046E-03  1.00000000E+00  1.00000000E+00  1.00000000E+00  1.00000000E+00
  1.00000000E+00  1.80093016E-03  1.37419012E-02  6.81334059E-02  2.33325020E-01
  5.89086051E-01  2.99505026E-01  1.14536016E-01  9.20512125E-01 -3.37804046E-03
  1.00000000E+00  1.00000000E+00  1.00000000E+00  1.00000000E+00  1.00000000E+00
P(S=P) Contraction coefficients            R   N=          70
  0.00000000E+00  0.00000000E+00  0.00000000E+00  0.00000000E+00  0.00000000E+00
  0.00000000E+00  4.02486927E-02  2.37593957E-01  8.15853851E-01  1.00000000E+00
  1.00000000E+00  1.00000000E+00  0.00000000E+00  0.00000000E+00  0.00000000E+00
  0.00000000E+00  0.00000000E+00  0.00000000E+00  0.00000000E+00  0.00000000E+00
  3.54608874E-02  2.37450915E-01  8.20457708E-01  1.00000000E+00  1.00000000E+00
  1.00000000E+00  0.00000000E+00  0.00000000E+00  0.00000000E+00  0.00000000E+00
  0.00000000E+00  0.00000000E+00  0.00000000E+00  0.00000000E+00  3.54608874E-02
  2.37450915E-01  8.20457708E-01  1.00000000E+00  1.00000000E+00  1.00000000E+00
  0.00000000E+00  0.00000000E+00  0.00000000E+00  0.00000000E+00  0.00000000E+00
  0.00000000E+00  0.00000000E+00  0.00000000E+00  3.54608874E-02  2.37450915E-01
  8.20457708E-01  1.00000000E+00  1.00000000E+00  1.00000000E+00  0.00000000E+00
  0.00000000E+00  0.00000000E+00  0.00000000E+00  0.00000000E+00  0.00000000E+00
  0.00000000E+00  0.00000000E+00  3.54608874E-02  2.37450915E-01  8.20457708E-01
  1.00000000E+00  1.00000000E+00  1.00000000E+00  0.00000000E+00  0.00000000E+00
Coordinates of each shell                  R   N=         105
  9.46295204E+01  6.70802778E+01  6.18786760E+01  9.46295204E+01  6.70802778E+01
  6.18786760E+01  9.46295204E+01  6.70802778E+01  6.18786760E+01  9.46295204E+01
  6.70802778E+01  6.18786760E+01  9.46295204E+01  6.70802778E+01  6.18786760E+01
  9.46295204E+01  6.70802778E+01  6.18786760E+01  9.46295204E+01  6.70802778E+01
  6.18786760E+01  9.50814106E+01  6.61630893E+01  6.41693599E+01  9.50814106E+01
  6.61630893E+01  6.41693599E+01  9.50814106E+01  6.61630893E+01  6.41693599E+01
  9.50814106E+01  6.61630893E+01  6.41693599E+01  9.50814106E+01  6.61630893E+01
  6.41693599E+01  9.50814106E+01  6.61630893E+01  6.41693599E+01  9.50814106E+01
  6.61630893E+01  6.41693599E+01  9.22076017E+01  6.67602250E+01  6.13119176E+01
  9.22076017E+01  6.67602250E+01  6.13119176E+01  9.22076017E+01  6.67602250E+01
  6.13119176E+01  9.22076017E+01  6.67602250E+01  6.13119176E+01  9.22076017E+01
  6.67602250E+01  6.13119176E+01  9.22076017E+01  6.67602250E+01  6.13119176E+01
  9.22076017E+01  6.67602250E+01  6.13119176E+01  9.60484272E+01  6.58718189E+01
  6.01997292E+01  9.60484272E+01  6.58718189E+01  6.01997292E+01  9.60484272E+01
  6.58718189E+01  6.01997292E+01  9.60484272E+01  6.58718189E+01  6.01997292E+01
  9.60484272E+01  6.58718189E+01  6.01997292E+01  9.60484272E+01  6.58718189E+01
  6.01997292E+01  9.60484272E+01  6.58718189E+01  6.01997292E+01  9.51826692E+01
  6.95264111E+01  6.18338387E+01  9.51826692E+01  6.95264111E+01  6.18338387E+01
  9.51826692E+01  6.95264111E+01  6.18338387E+01  9.51826692E+01  6.95264111E+01
  6.18338387E+01  9.51826692E+01  6.95264111E+01  6.18338387E+01  9.51826692E+01
  6.95264111E+01  6.18338387E+01  9.51826692E+01  6.95264111E+01  6.18338387E+01
Constraint Structure                       R   N=          15
  9.46295204E+01  6.70802778E+01  6.18786760E+01  9.50814106E+01  6.61630893E+01
  6.41693599E+01  9.22076017E+01  6.67602250E+01  6.13119176E+01  9.60484272E+01
  6.58718189E+01  6.01997292E+01  9.51826692E+01  6.95264111E+01  6.18338387E+01
Num ILSW                                   I              100
ILSW                                       I   N=         100
           0           0           0           0           2           0
           0           0           0           0         402          -1
           5           0           0           0           2           0
           0           0           0           0           1           0
           1           1           0           0           0           0
           0           0      100000           0          -1           0
           0           0           0           0           0           0
           0           0           0           1           0           0
           0           0           1           0           0           0
           0           0         131          41           0           0
           0           0           5           0           0           0
           0           0           0           5           0           0
           0           0           0           0           0           0
           0           0           0           0           0           0
           0           0           0           0           0           0
           0           0           0           0           0           0
           0           0           0           0
Num RLSW                                   I               41
RLSW                                       R   N=          41
  8.00000000E-01  7.20000000E-01  1.00000000E+00  8.10000000E-01  2.00000000E-01
  0.00000000E+00  0.00000000E+00  1.00000000E+00  0.00000000E+00  0.00000000E+00
  0.00000000E+00  0.00000000E+00  1.00000000E+00  0.00000000E+00  0.00000000E+00
  0.00000000E+00  0.00000000E+00  1.00000000E+00  0.00000000E+00  0.00000000E+00
  0.00000000E+00  0.00000000E+00  1.00000000E+00  0.00000000E+00  0.00000000E+00
  0.00000000E+00  0.00000000E+00  1.00000000E+00  0.00000000E+00  0.00000000E+00
  0.00000000E+00  0.00000000E+00  1.00000000E+00  0.00000000E+00  0.00000000E+00
  0.00000000E+00  0.00000000E+00  0.00000000E+00  1.00000000E+00  1.00000000E+00
  0.00000000E+00
MxBond                                     I                4
NBond                                      I   N=           5
           4           1           1           1           1
IBond                                      I   N=          20
           2           3           4           5           1           0
           0           0           1           0           0           0
           1           0           0           0           1           0
           0           0
RBond                                      R   N=          20
  1.00000000E-01  1.00000000E-01  1.00000000E-01  1.00000000E-01  1.00000000E-01
  0.00000000E+00  0.00000000E+00  0.00000000E+00  1.00000000E-01  0.00000000E+00
  0.00000000E+00  0.00000000E+00  1.00000000E-01  0.00000000E+00  0.00000000E+00
  0.00000000E+00  1.00000000E-01  0.00000000E+00  0.00000000E+00  0.00000000E+00
Virial Ratio                               R      2.002689546094838E+00
SCF Energy                                 R     -4.376375873002771E+02
Total Energy                               R     -4.376375873002771E+02
RMS Force                                  R      9.216723624903780E-05
RMS Density                                R      7.211778295817208E-10
External E-field                           R   N=          35
  0.00000000E+00  0.00000000E+00  0.00000000E+00  0.00000000E+00  0.00000000E+00
  0.00000000E+00  0.00000000E+00  0.00000000E+00  0.00000000E+00  0.00000000E+00
  0.00000000E+00  0.00000000E+00  0.00000000E+00  0.00000000E+00  0.00000000E+00
  0.00000000E+00  0.00000000E+00  0.00000000E+00  0.00000000E+00  0.00000000E+00
  0.00000000E+00  0.00000000E+00  0.00000000E+00  0.00000000E+00  0.00000000E+00
  0.00000000E+00  0.00000000E+00  0.00000000E+00  0.00000000E+00  0.00000000E+00
  0.00000000E+00  0.00000000E+00  0.00000000E+00  0.00000000E+00  0.00000000E+00
IOpCl                                      I                0
IROHF                                      I                0
Alpha Orbital Energies                     R   N=         135
 -2.47547059E+01 -2.47545634E+01 -2.47545600E+01 -2.47545454E+01 -1.05310287E+01
 -1.39425182E+00 -1.28057861E+00 -1.28040664E+00 -1.28037700E+00 -7.53473397E-01
 -6.60551278E-01 -6.60489546E-01 -6.60483018E-01 -5.24630151E-01 -5.24619304E-01
 -4.99583166E-01 -4.99545763E-01 -4.99538373E-01 -4.55467303E-01 -4.55457773E-01
 -4.55400498E-01  8.02056310E-03  4.97597221E-02  4.97601844E-02  4.97620485E-02
  1.43621808E-01  1.43654794E-01  1.43825579E-01  1.71525521E-01  2.17987815E-01
  2.17990230E-01  2.21141632E-01  2.21148296E-01  2.21212843E-01  2.44936954E-01
  3.01654881E-01  3.01658530E-01  3.01675453E-01  3.06537543E-01  3.06543075E-01
  3.06553604E-01  3.29314989E-01  4.05029009E-01  4.05052742E-01  4.05081480E-01
  6.16021714E-01  6.16088382E-01  6.16171172E-01  8.22589112E-01  8.22617949E-01
  8.86609588E-01  1.08141603E+00  1.08145000E+00  1.08149714E+00  1.22507943E+00
  1.22516375E+00  1.22518134E+00  1.23203383E+00  1.23205199E+00  1.34131849E+00
  1.36100190E+00  1.36101387E+00  1.36104766E+00  1.45259367E+00  1.45260906E+00
  1.45261777E+00  1.85244354E+00  1.85251010E+00  1.85251765E+00  1.92277825E+00
  1.92278745E+00  1.92283016E+00  1.93841585E+00  1.93843239E+00  1.98786932E+00
  1.98801565E+00  1.98803318E+00  2.06428029E+00  2.10320623E+00  2.10336172E+00
  2.10343548E+00  2.52889337E+00  2.52895841E+00  2.52947819E+00  2.58405370E+00
  2.58412586E+00  2.58441022E+00  3.01188157E+00  3.21832538E+00  3.21847223E+00
  3.23924543E+00  3.23925850E+00  3.40950238E+00  3.40960995E+00  3.40962554E+00
  4.12771020E+00  4.12772164E+00  4.12777857E+00  6.18538473E+00  6.18538755E+00
  6.28283744E+00  6.29793480E+00  6.29794187E+00  6.29799329E+00  6.30088681E+00
  6.30089547E+00  6.30095354E+00  6.71895759E+00  6.71917465E+00  6.71975026E+00
  8.95950626E+00  8.95951229E+00  8.95956540E+00  8.98624018E+00  8.98625575E+00
  9.09548652E+00  9.09560498E+00  9.09566160E+00  9.13433444E+00  9.13442498E+00
  9.13443134E+00  9.35874456E+00  9.35887468E+00  9.35901366E+00  9.50441693E+00
  9.71476318E+00  9.71478438E+00  9.71481294E+00  9.77830161E+00  9.77839964E+00
  2.38766123E+01  6.67608266E+01  6.67609458E+01  6.67609590E+01  6.68173902E+01
Alpha MO coefficients                      R   N=       18225
  3.18024213E-05 -1.20620198E-04  1.68425888E-04  2.23477536E-05  3.95044148E-05
  3.81473714E-06 -1.97073575E-03 -2.61574859E-04 -4.62192160E-04  8.58945443E-03
 -4.79060841E-03 -6.34260030E-04 -1.12473033E-03 -3.94006275E-04 -1.57636724E-04
 -2.09045480E-05 -3.69754575E-05 -6.28983959E-05  5.61526059E-05  7.46930363E-06
  1.18095910E-04  3.16989099E-05 -7.33083515E-04  6.53920817E-04  8.72423279E-05
  1.37440056E-03  3.68937771E-04 -4.06408462E-03 -3.51097276E-03  1.13195394E-06
 -6.34572692E-06  1.47769308E-05  1.55428790E-06 -2.15702309E-05  1.34568104E-05
 -4.15002262E-05 -8.83914066E-05  2.95689942E-04  2.35908722E-05  1.04274661E-04
 -9.88258242E-04  8.55539883E-04 -2.69813203E-05  5.14690997E-04 -1.03613005E-05
  1.56916322E-05  5.51605099E-06  1.63941480E-05  1.63996221E-07  5.71534037E-05
 -7.08039396E-05 -2.99924174E-05 -8.20564948E-05 -4.21788329E-06  5.47630432E-01
  4.71818826E-01  9.18998822E-04  1.21370829E-04  2.15112663E-04  1.29632879E-02
 -1.08611430E-05 -1.38203479E-06 -2.59828542E-06 -1.21057192E-02 -3.77837192E-03
 -4.99338524E-04 -8.83872420E-04  1.05498429E-03  5.94329920E-04  7.91898883E-05
  1.39347858E-04 -1.13553343E-04  1.01371145E-04  1.34015973E-05  2.12850501E-04
  5.72440980E-05  3.60632752E-04 -3.21908869E-04 -4.25734762E-05 -6.75982141E-04
 -1.81791196E-04 -3.69376884E-03 -3.19191327E-03  7.16395384E-06 -7.97082175E-06
 -1.11502966E-05  1.02639440E-05 -3.75961938E-05  1.83154505E-05  2.46737049E-05
 -9.69532660E-05  3.12848568E-04  1.75030246E-05  3.89436515E-05 -9.88334238E-04
  9.94870779E-04 -6.91261948E-05 -5.62114355E-05 -1.38764953E-05  4.35016132E-06
 -5.66136358E-06  2.00646043E-05  1.92327687E-06  6.74890600E-05 -2.94834731E-05
  2.93969001E-05 -9.67515771E-05 -1.52385848E-05 -4.15170259E-03 -3.58645852E-03
  1.79220280E-06  1.61352340E-05 -7.43043533E-07 -4.80644441E-07 -2.30837630E-05
 -4.25997338E-05 -2.53019190E-06 -8.75044995E-05  2.97291959E-04  7.69404901E-05
  6.70334285E-05 -9.91440785E-04  8.70549284E-04  4.57781025E-04  1.79043060E-04
 -5.69071049E-06  6.61493776E-06  3.80362939E-06  1.98622787E-05  1.29300556E-05
  2.55539330E-05 -3.35432913E-05 -1.75794205E-05 -1.03477474E-04 -5.60836744E-05
  1.90246454E-05 -7.21518337E-05 -2.14161679E-05 -1.83528866E-04  5.01328523E-05
  1.49206038E-06  2.50403326E-04  2.14401439E-03 -5.85300321E-04  5.14066409E-03
  6.09187553E-04  5.20933463E-03 -1.42289408E-03 -2.35560077E-04  1.99752178E-05
  1.71235231E-04 -4.67480976E-05 -1.07105159E-04 -1.06518638E-05  2.04295081E-05
 -1.04867752E-04  6.03075134E-05 -1.24558027E-03 -1.23880031E-04  2.37423058E-04
 -1.21899046E-03  7.01747604E-04 -1.78080433E-01 -1.53436447E-01  5.77006157E-05
 -1.14397950E-04  2.90452925E-04 -4.12565343E-03 -4.95920652E-06  2.86025405E-05
 -3.81570270E-05  3.77116112E-03 -2.71487487E-04  1.62798930E-04 -1.10430216E-03
 -1.24676598E-03 -5.24035385E-05 -9.58423625E-04  4.79333580E-04 -7.93194387E-05
 -2.80408562E-05  4.17784052E-05 -8.56578662E-06  1.52404874E-05  2.82207109E-04
  9.56818802E-05 -1.27541204E-04  5.46208402E-05 -6.03282984E-05  2.45870693E-03
  2.11273363E-03 -1.07988801E-06  1.92975651E-06 -8.67392605E-07  1.15868675E-04
  2.56019913E-05  1.81615698E-05  1.41323619E-06 -1.60048239E-04 -9.56919061E-05
 -3.21425613E-04  7.19302245E-05 -5.75090573E-04 -3.08156586E-04 -8.88425333E-04
  1.86445187E-04 -1.36824749E-05 -5.07048680E-06  4.67407086E-06 -1.32769705E-05
  1.91535236E-05  6.50343409E-05  2.62357261E-05 -2.17387504E-05  7.31131237E-05
 -8.72302082E-05 -2.11523835E-02 -1.82301465E-02  2.45071454E-05 -1.85387812E-05
 -2.92776339E-05 -4.38831439E-04 -1.31675783E-05  2.76670609E-05  1.35603087E-05
  3.54026754E-04 -1.02985246E-04 -2.57360303E-04  1.64080941E-04 -6.64174067E-04
  2.53414515E-05 -9.67654894E-04  8.60374115E-05 -2.00596727E-05  1.09268012E-05
  1.70687530E-06 -1.97783991E-05  6.32827336E-06  9.55832593E-05 -4.33550140E-05
 -1.24230231E-05  9.47502666E-05 -2.97288530E-05  5.17475103E-01  4.45841332E-01
 -1.99197713E-04 -8.79439969E-04  1.55890325E-05  1.22156658E-02  4.31186927E-06
  2.59980517E-05 -4.31364322E-06 -1.13751619E-02  8.34946398E-04  3.54161075E-03
  1.51043826E-05  1.34147043E-03 -8.59559236E-05 -7.97291259E-04  2.33735828E-04
 -1.30822279E-04 -2.07193582E-06 -1.64998722E-06 -1.97090083E-04  9.66375897E-05
  4.25499513E-04  7.77531354E-06 -3.91089657E-06  6.27448705E-04 -3.11724747E-04
  3.81496278E-05 -1.44685584E-04 -3.07035858E-05 -2.28811383E-06 -1.59206276E-04
  2.45658236E-06  3.58476611E-04  2.71971891E-05  1.85865813E-03  1.03044414E-02
  8.74735640E-04  6.67583687E-05  4.51737615E-03 -4.73426932E-04  2.85765419E-05
  2.19487446E-06  1.48399180E-04  7.79369168E-05  4.92369530E-05 -8.99619514E-05
 -4.92423472E-05  8.80254974E-06  9.06042537E-04  5.72723014E-04 -1.04542848E-03
 -5.73097628E-04  1.02025501E-04  5.16078354E-01  4.44632241E-01 -1.61155204E-04
  3.27448259E-04 -8.16030304E-04  1.22409887E-02  1.47604714E-07  5.33771774E-06
  2.53686371E-07 -1.14499493E-02  6.64871200E-04 -1.46118164E-03  3.36694509E-03
  7.48162694E-04 -9.25953245E-05 -1.14152222E-04 -4.87803532E-04  1.84038894E-04
  7.24137558E-05 -1.50169882E-04 -2.77394035E-05 -2.67327568E-05 -5.73221931E-04
 -2.30365448E-04  4.80877430E-04  9.75714154E-05  8.00771004E-05  4.80131686E-03
  4.12540241E-03 -2.56318972E-06 -3.43026667E-07  1.10300049E-06  2.29273990E-04
  5.04926091E-05  6.46663702E-06  2.44036636E-05 -3.16399699E-04 -1.69381091E-04
 -1.93894350E-05 -2.99432208E-04 -1.15047850E-03 -5.59208385E-04 -6.58494580E-05
 -8.43469009E-04  1.20376340E-05  1.54539398E-05 -8.59090892E-06 -6.49632981E-06
  5.44347241E-07 -6.59751916E-05 -6.55323623E-05  4.55812131E-05  4.55422649E-05
  4.31030521E-07 -5.30957057E-02 -4.57575912E-02  5.95974874E-05 -5.04372831E-05
 -6.82977410E-05 -1.13096090E-03 -2.77216298E-05  2.60124637E-05  4.89302835E-05
  9.43104945E-04 -2.31657011E-04  1.48328795E-04 -6.06824290E-05 -1.36948164E-03
  1.09783468E-04 -2.27125666E-04 -1.04623771E-03  1.24727292E-05  2.19121844E-05
 -2.25192510E-05 -9.23072674E-06  1.74368745E-05 -6.40688469E-05 -8.82316875E-05
  9.58655160E-05  4.30525443E-05 -6.87669646E-05  1.75406412E-01  1.51115603E-01
 -6.51769676E-05 -2.89512202E-04  7.13210903E-06  4.23747995E-03 -5.68359437E-06
 -3.65501071E-05  1.37004596E-05 -4.03279946E-03  2.58242543E-04  1.37186802E-03
 -2.97491569E-04 -5.19639839E-04 -5.96314650E-05  3.61759447E-04 -7.52866017E-04
 -3.11053887E-05  2.35011522E-06 -2.34968476E-05 -6.87009062E-05  2.87630924E-05
  7.14599718E-05 -1.49755985E-05  1.06806000E-04  2.13271180E-04 -8.29982269E-05
  3.73338333E-05 -1.41590556E-04 -1.01340050E-04  7.68431528E-05  1.03447241E-04
  2.26043931E-06  1.18318516E-03 -8.97072596E-04 -1.20785325E-03  1.00847301E-02
  2.87817867E-03 -2.17824658E-03 -2.93494033E-03 -4.63235424E-04  9.44223571E-05
 -7.16087674E-05 -9.64582993E-05  2.85885414E-05 -9.26949046E-05  7.51248149E-05
  3.24433907E-06 -6.67408220E-05  3.32169331E-04 -1.07790205E-03  8.72964942E-04
  3.75849496E-05 -7.75997118E-04  4.33648654E-02  3.73512933E-02 -1.05851850E-05
  2.28810376E-05 -6.05681980E-05  1.13275417E-03  1.25783752E-07  1.05073271E-05
 -5.02805471E-05 -1.15252770E-03 -9.95475695E-05 -1.90482360E-05  5.52007511E-04
 -9.84755306E-04 -4.00896821E-04  2.09790548E-04  8.59999159E-04  2.43398329E-05
 -1.11829972E-05  1.77041749E-06 -2.63800088E-07 -5.35558500E-06 -7.98269960E-05
  6.75880767E-05 -3.63491428E-05 -2.53132687E-06  2.42751671E-05  4.27712713E-03
  3.67401302E-03 -2.41289507E-06 -1.34653753E-06 -2.00354568E-06  2.14479200E-04
  5.52925310E-05 -9.85254325E-08  2.46721848E-06 -3.00687197E-04 -2.84566495E-04
  1.16465841E-04  1.50763254E-04 -1.12813852E-03 -8.81881804E-04  3.06459707E-04
  3.89866439E-04 -6.97688158E-07 -1.73066252E-05  5.83651801E-06  4.80089320E-06
 -1.26257733E-05 -5.88174068E-06  8.93527685E-05 -3.07093435E-05 -8.73701436E-06
  6.41271596E-05  5.44670822E-01  4.69267227E-01 -5.34135090E-04  4.54842741E-04
  6.32027108E-04  1.29103093E-02  2.24289683E-06 -9.57294803E-07 -1.13183536E-06
 -1.20682521E-02  2.20168218E-03 -1.89196570E-03 -2.63391446E-03  8.80331555E-04
 -3.24821356E-04  2.32643622E-04  3.07572852E-04  4.66842024E-05 -1.74113087E-04
  1.48338169E-04  1.89687918E-05 -1.25233521E-04 -1.49167939E-04  5.50349795E-04
 -4.68652884E-04 -5.78271289E-05  3.95740394E-04  3.71668406E-02  3.20111865E-02
 -1.07932444E-05 -5.36768491E-05 -2.29557879E-07  9.87212224E-04 -1.86760744E-06
 -5.13932429E-05 -7.58970282E-06 -1.01804600E-03 -9.31967146E-05  4.86619875E-04
  1.70310844E-04 -1.01004697E-03 -3.83774750E-04  7.63405253E-04  4.77429501E-04
 -5.26877945E-06 -8.44641059E-06  1.50379907E-05 -1.61344856E-05 -8.72490989E-06
  3.19206256E-06  4.41359008E-05 -7.31085609E-05  4.29529238E-05  5.68372436E-05
  5.63551492E-01  4.63048309E-01 -7.00260162E-07 -2.62044703E-07  1.12597069E-08
  1.78879922E-02 -2.80723343E-06  1.72079894E-06 -1.46497364E-06 -8.20507584E-03
 -5.32997198E-06  9.70282610E-07 -1.52300600E-06 -4.69814313E-04 -4.03390274E-07
  3.84197969E-07 -2.85499962E-07 -8.19049209E-07  6.14375313E-07  5.63973195E-08
  8.86131551E-07  3.48158173E-07 -1.80532389E-06  1.28594199E-06  1.44184923E-07
  1.83465367E-06  7.83715741E-07 -3.68776947E-05 -1.05597535E-04 -2.98534052E-05
  6.06455015E-05 -1.51438601E-04  9.69996395E-04 -5.76654600E-06  1.14828785E-05
 -2.87570817E-05 -2.60412668E-03  4.22586081E-04 -8.57541605E-04  2.14171245E-03
  1.73163364E-03 -2.71185284E-04  5.51174733E-04 -1.37701426E-03  2.10723340E-04
  7.99640556E-05 -1.62337423E-04 -2.45815965E-05 -3.19968859E-05 -9.15814093E-04
 -3.47515230E-04  7.05537951E-04  1.06840601E-04  1.39055052E-04 -3.69485392E-05
 -1.05757702E-04  1.60643993E-04  2.12422798E-05  3.75832408E-05  9.71683620E-04
  2.94378603E-05  3.85005194E-06  6.92036559E-06 -2.61482227E-03 -2.27151679E-03
 -3.00269764E-04 -5.31529172E-04  1.72973736E-03  1.45705426E-03  1.92203039E-04
  3.41095341E-04 -1.18956284E-04  1.06195704E-04  1.40335826E-05  2.22958385E-04
  5.99945554E-05  5.17298330E-04 -4.61785741E-04 -6.10304447E-05 -9.69536701E-04
 -2.60908524E-04 -3.68792984E-05 -1.05599381E-04 -9.38134985E-05  7.99242180E-05
  1.11025729E-04  9.70061374E-04 -1.78173458E-05  1.50754493E-05  2.09856876E-05
 -2.60470730E-03  1.32696058E-03 -1.13004526E-03 -1.56997757E-03  1.73172409E-03
 -8.52677586E-04  7.26365571E-04  1.00979754E-03  4.82574585E-05 -1.84042767E-04
  1.56790884E-04  2.13762241E-05 -1.32477806E-04 -2.09735814E-04  7.99898663E-04
 -6.81470731E-04 -9.28982592E-05  5.75790148E-04 -3.68984795E-05 -1.05640783E-04
 -3.66075633E-05 -1.61933897E-04  2.96522812E-06  9.70551672E-04 -6.89410783E-06
 -3.02278252E-05  5.58545294E-07 -2.60801197E-03  5.17943003E-04  2.28963545E-03
 -4.19314413E-05  1.73137814E-03 -3.32156985E-04 -1.47139281E-03  2.72135482E-05
 -1.40286732E-04 -1.89619764E-06 -8.47663286E-06 -2.19423787E-04  1.04591979E-04
  6.09860689E-04  8.23841606E-06  3.68436543E-05  9.53873573E-04 -4.54682226E-04
 -6.47175742E-02 -9.89029445E-02 -7.60802775E-05  2.34358179E-05 -2.70864136E-05
  2.79284180E-01 -7.03572063E-05  2.65099220E-05 -2.78979038E-05 -1.80367452E-01
 -9.15109763E-06 -2.93205783E-05  1.37978010E-05 -3.30280504E-04  5.94037899E-07
 -7.62452243E-07  4.99701926E-07 -1.61409035E-05  1.19906012E-05  1.11630762E-06
  1.75951152E-05  7.15548278E-06 -1.33151234E-06 -1.03411622E-06  9.31301697E-07
 -1.22758578E-06  1.60656602E-06 -5.39536687E-02 -8.69615800E-02 -5.47556912E-03
  1.11074142E-02 -2.77382934E-02  2.52759157E-01 -8.73079096E-03  1.77103856E-02
 -4.42284056E-02  2.20107229E-01 -8.65438836E-03  1.75645942E-02 -4.38630543E-02
  2.25807474E-02 -1.27901369E-03  2.58289888E-03 -6.44700992E-03  1.32435425E-03
  5.02982154E-04 -1.02025627E-03 -1.54623751E-04 -2.01340158E-04  7.58389251E-03
  2.87907211E-03 -5.84161706E-03 -8.84969501E-04 -1.15274682E-03 -5.40942078E-02
 -8.71890194E-02  2.94047227E-02  3.88841857E-03  6.88012043E-03  2.53433252E-01
  4.68897519E-02  6.20048912E-03  1.09713404E-02  2.20627118E-01  4.64600772E-02
  6.14226904E-03  1.08710814E-02  2.25586093E-02  6.80502863E-03  9.01838882E-04
  1.59196444E-03 -7.49395920E-04  6.68829703E-04  8.84724511E-05  1.40419315E-03
  3.78061041E-04 -4.28582964E-03  3.82706460E-03  5.05599155E-04  8.03432524E-03
  2.16115020E-03 -5.39583787E-02 -8.69691701E-02 -1.71875996E-02  1.46365239E-02
  2.03309992E-02  2.52781048E-01 -2.74052610E-02  2.33371011E-02  3.24173720E-02
  2.20124942E-01 -2.71726846E-02  2.31439593E-02  3.21490198E-02  2.25925029E-02
 -4.00230034E-03  3.40502720E-03  4.72445225E-03  3.02985625E-04 -1.15709781E-03
  9.85400299E-04  1.34469967E-04 -8.32963638E-04  1.73648962E-03 -6.62398300E-03
  5.64121703E-03  7.69374291E-04 -4.76815218E-03 -5.39978587E-02 -8.70330101E-02
 -6.70915101E-03 -2.96477636E-02  5.41715921E-04  2.52969312E-01 -1.06979259E-02
 -4.72731399E-02  8.63857748E-04  2.20273094E-01 -1.05999309E-02 -4.68660783E-02
  8.57405561E-04  2.26007665E-02 -1.56543178E-03 -6.89085964E-03  1.23725577E-04
 -8.82400083E-04 -1.19702551E-05 -5.31482452E-05 -1.38004461E-03  6.58405801E-04
 -5.04869720E-03 -6.89042294E-05 -3.04995730E-04 -7.89871170E-03  3.76574269E-03
  3.85498847E-05  6.04036997E-05 -7.73648374E-02 -1.13385342E-02 -2.04269357E-02
 -1.80877485E-04 -9.24321719E-02 -1.35416640E-02 -2.44079252E-02  9.94834819E-05
  2.04508613E-02  2.99039195E-03  5.40377666E-03 -1.02848785E-06  9.96359776E-04
  1.46554349E-04  2.62805486E-04 -8.36281524E-03  7.06064312E-03  1.37784792E-03
  1.57378420E-02  3.96446290E-03 -2.55537825E-03  2.15820535E-03  4.21129438E-04
  4.80610738E-03  1.20844767E-03  3.77976290E-02  6.11737669E-02 -3.69332537E-03
 -6.65759272E-03  1.25295359E-02 -1.81633959E-01 -5.24938284E-03 -1.08115069E-02
  2.07864755E-02 -1.44756802E-01 -3.30011648E-03 -8.19514283E-03  1.61586014E-02
  1.10783067E-02 -9.84591317E-03  6.03149214E-06 -5.79869603E-03 -7.47374473E-04
  2.85553744E-04  6.26828213E-04  3.73787456E-04 -2.10136644E-05 -3.91301471E-03
 -3.36945466E-04  3.31174422E-03  7.21137433E-04  1.56372982E-04 -1.07222495E-01
 -1.73536485E-01  3.62267977E-02  4.69316509E-03  8.28243301E-03  5.15277379E-01
  6.03013212E-02  7.82557924E-03  1.38156534E-02  4.10569045E-01  4.69867755E-02
  6.11096335E-03  1.07900435E-02 -3.15514638E-02 -1.93368993E-02 -2.69006164E-03
 -4.79927847E-03 -1.05518015E-03  9.19589905E-04  1.24313738E-04  1.97279735E-03
  5.20237582E-04 -6.05296422E-03  5.35933917E-03  7.00933872E-04  1.13308522E-02
  3.02932564E-03  3.27315822E-02  5.29745707E-02  1.13714421E-03 -7.46240892E-03
 -1.07609842E-02 -1.57288467E-01  2.68149875E-03 -1.21330364E-02 -1.74528008E-02
 -1.25357494E-01  2.79498463E-03 -9.20954372E-03 -1.32125183E-02  9.59614282E-03
 -1.09928520E-02  1.97300984E-04 -2.81610811E-04 -4.96144410E-04  3.80785525E-04
 -6.00588842E-04  4.28421153E-04  2.49729307E-04 -1.46283246E-03  2.45602596E-03
 -3.05084493E-03  4.03683420E-04  1.74047837E-03  3.68877683E-02  5.97012590E-02
 -3.15060797E-03  1.38964806E-02 -1.99082716E-03 -1.77261323E-01 -4.35778833E-03
  2.29362501E-02 -3.05337200E-03 -1.41273632E-01 -2.60853809E-03  1.77224974E-02
 -2.15134864E-03  1.08280210E-02 -9.98088548E-03 -4.86932052E-03 -2.36051204E-03
  3.01036487E-04  1.00365962E-04  1.78613587E-04  9.84377238E-04  1.98648444E-04
  2.51214687E-03  5.03120072E-05  5.07615970E-04  4.32370722E-03 -7.00103543E-04
  1.32665408E-05  2.06006640E-05 -7.00153778E-03  7.86254847E-02 -1.71092255E-02
 -6.20081001E-05 -8.37178706E-03  9.39543783E-02 -2.04471411E-02  4.80821583E-05
  1.84891364E-03 -2.07313227E-02  4.52286629E-03 -3.44974635E-06  8.96070582E-05
 -1.01197830E-03  2.20579196E-04 -1.41032119E-02  1.20853536E-03  1.30554183E-03
 -1.03479072E-02  8.70104387E-03 -4.30807504E-03  3.68778749E-04  3.97168110E-04
 -3.16046693E-03  2.65928320E-03  6.06618634E-02  9.81790277E-02  3.91873955E-03
 -2.53082815E-03  2.14074266E-02 -2.91515335E-01  6.50877931E-03 -4.98404758E-03
  3.53329130E-02 -2.32317793E-01  5.06517706E-03 -4.57893777E-03  2.72912241E-02
  1.78504084E-02 -1.90269101E-03  1.15152510E-02 -7.47072080E-03 -1.37447791E-03
 -3.91792447E-04  4.32752059E-04 -1.48929532E-04  1.62721501E-04 -6.71166004E-03
 -2.42440649E-03  3.85496019E-03  3.70112295E-04  6.86667432E-04 -7.63347289E-04
 -1.23552621E-03 -2.84373177E-04  6.66397122E-03 -1.36930630E-03  3.67035819E-03
 -3.93822639E-04  1.01120887E-02 -2.06771029E-03  2.91349457E-03 -2.42983171E-04
  7.01136018E-03 -1.42846766E-03 -2.27387938E-04 -9.03628991E-04  9.33066373E-03
 -2.04917638E-03 -1.96505557E-04 -1.02939633E-04  1.20647343E-04 -2.03718092E-04
  6.05125450E-04 -7.61250590E-05 -2.86077675E-04  2.74210800E-04 -1.46138722E-04
  1.30218612E-03  4.03997154E-02  6.53854612E-02  8.83691809E-03 -1.40982133E-03
 -1.25930818E-02 -1.94143412E-01  1.45849226E-02 -3.14333528E-03 -2.04984248E-02
 -1.54718085E-01  1.12633205E-02 -3.16621035E-03 -1.55741357E-02  1.18984064E-02
 -3.07659287E-03  1.12507297E-02  6.25203076E-04 -5.87426454E-04  7.64860444E-04
 -2.95993469E-04 -4.20482688E-04  2.80040876E-04 -1.61545861E-03  4.04174774E-03
 -2.59539542E-03 -9.97995554E-04  1.95171215E-03 -1.00229167E-01 -1.62217628E-01
 -9.70941432E-03 -3.37023078E-02 -7.01649506E-04  4.81663626E-01 -1.58697430E-02
 -5.61706199E-02 -9.71638539E-04  3.83824336E-01 -1.21137364E-02 -4.38563403E-02
 -5.83329935E-04 -2.95433340E-02  1.34047336E-03  1.89504516E-02 -2.20861274E-03
 -1.20937077E-03  1.86550852E-05  5.45667181E-05 -1.69787503E-03  1.03043627E-03
 -6.63859309E-03 -4.49364356E-05 -1.39923622E-04 -1.02627654E-02  5.34427340E-03
 -1.16300141E-06 -1.88784842E-06  2.22716219E-02 -1.46101536E-02 -7.62363648E-02
  5.59860517E-06  2.66141066E-02 -1.74592471E-02 -9.11066964E-02  8.39588218E-07
 -5.87553753E-03  3.84663716E-03  2.01252645E-02 -9.88156239E-07 -2.86912995E-04
  1.87943316E-04  9.82015650E-04 -5.11587793E-03 -1.17239109E-02  1.35598698E-02
  2.72744101E-03 -5.45817933E-03 -1.56183506E-03 -3.58353116E-03  4.13766108E-03
  8.34458818E-04 -1.66558338E-03  8.00988258E-02  1.29637188E-01  7.82647088E-03
 -1.33075003E-02  2.37477937E-02 -3.84923860E-01  1.26170838E-02 -2.16982004E-02
  3.97994496E-02 -3.06752871E-01  9.47665636E-03 -1.65176313E-02  3.12833734E-02
  2.35769265E-02  1.23049643E-03  1.14177587E-03 -1.62384931E-02 -1.09843479E-03
 -7.83757947E-04  1.29572095E-03  2.27436150E-04  2.65383607E-04 -7.44038814E-03
 -3.45995379E-03  6.58551359E-03  1.05609320E-03  1.58978831E-03  3.21325390E-03
  5.20057530E-03  5.96954205E-04 -1.40023818E-03 -6.72117686E-03 -1.54420024E-02
  7.44404723E-04 -2.14515715E-03 -1.02307708E-02 -1.23057926E-02  3.60086108E-04
 -1.50580537E-03 -7.13274145E-03  9.49672006E-04  2.95185872E-03 -1.69541436E-03
 -8.98526549E-03 -2.28237240E-04 -6.20177023E-04  4.55176100E-05  1.18092005E-04
 -1.51350587E-04 -3.20417585E-04 -1.32888999E-03 -3.35946255E-04  1.68511647E-05
 -2.69421664E-04 -9.39160511E-02 -1.51999878E-01 -2.00364692E-02  1.74301046E-02
  1.95073603E-02  4.51323252E-01 -3.31361968E-02  2.87753014E-02  3.28361857E-02
  3.59665052E-01 -2.56527574E-02  2.22295531E-02  2.59343426E-02 -2.76561931E-02
  7.86337494E-03 -6.18217697E-03 -1.52325331E-02  6.13144805E-05 -1.39460993E-03
  1.24415706E-03  1.83821129E-04 -1.12852039E-03  1.60181812E-03 -8.10918460E-03
  6.93568205E-03  9.54972519E-04 -6.25752797E-03  1.05986370E-02  1.71535599E-02
  2.83966689E-03  3.03271378E-03 -6.49790011E-03 -5.09332422E-02  4.42825051E-03
  5.13425274E-03 -9.86591181E-03 -4.05867554E-02  3.18489780E-03  4.07947329E-03
 -6.84471385E-03  3.13028181E-03  2.41550142E-03 -2.75391401E-03 -9.03779599E-03
  4.37653307E-05 -6.89965255E-07  6.52656383E-04  1.21925914E-04 -2.89143863E-04
  6.98762328E-04  3.85839256E-04  1.27804649E-03  8.82737771E-04 -8.84767478E-04
 -8.38617686E-02 -1.33495804E-01 -7.37519477E-05  6.40010771E-06 -1.74147843E-05
  4.21427018E-01 -9.86291476E-05  8.88336468E-06 -2.34712863E-05  1.11596787E-01
 -3.50382809E-05 -6.82543434E-06 -3.91012899E-06 -3.19903516E-02 -3.74143159E-06
 -2.95281777E-06  9.24018180E-07 -6.91353182E-06  6.35951287E-06  8.09935060E-08
  9.79162534E-06  3.01924924E-06 -3.18992580E-06  9.84039147E-07  9.34670878E-07
  1.47404883E-06  1.90832459E-06  3.32350179E-02  5.44495530E-02 -1.95167159E-02
  3.95754195E-02 -9.88434970E-02 -1.71028126E-01 -2.81347366E-02  5.70494344E-02
 -1.42486869E-01 -1.60292733E-01 -2.01480103E-02  4.08565787E-02 -1.02044324E-01
 -6.55773560E-03  5.80343896E-05 -1.15687413E-04  2.90605801E-04  2.19416826E-03
  8.33343184E-04 -1.69011931E-03 -2.56035398E-04 -3.33618923E-04  7.78131010E-03
  2.95580444E-03 -5.99295431E-03 -9.08116755E-04 -1.18372869E-03  3.32715586E-02
  5.45094774E-02  1.04727157E-01  1.38413489E-02  2.45085186E-02 -1.71214869E-01
  1.50967747E-01  1.99527750E-02  3.53299304E-02 -1.60523818E-01  1.08088453E-01
  1.42841910E-02  2.52958436E-02 -6.58350788E-03 -2.96318797E-04 -3.92348176E-05
 -6.94074735E-05 -1.24018335E-03  1.10725364E-03  1.46359709E-04  2.32443603E-03
  6.25413869E-04 -4.39339398E-03  3.92340637E-03  5.18385826E-04  8.23590222E-03
  2.21518356E-03  3.32354748E-02  5.44502857E-02 -6.12397262E-02  5.21414433E-02
  7.24383303E-02 -1.71029667E-01 -8.82796297E-02  7.51635124E-02  1.04422108E-01
 -1.60297246E-01 -6.32201257E-02  5.38281856E-02  7.47828459E-02 -6.55605063E-03
  1.81086238E-04 -1.52350280E-04 -2.13262983E-04  5.02118474E-04 -1.91664509E-03
  1.63205487E-03  2.22836384E-04 -1.37963334E-03  1.78076063E-03 -6.79694039E-03
  5.78642802E-03  7.90131660E-04 -4.89235727E-03  3.32448174E-02  5.44655799E-02
 -2.38966320E-02 -1.05597859E-01  1.93233866E-03 -1.71076345E-01 -3.44481441E-02
 -1.52221967E-01  2.78542998E-03 -1.60357656E-01 -2.46657390E-02 -1.09004445E-01
  1.99522376E-03 -6.55765637E-03  7.12006567E-05  3.07134777E-04 -5.57752536E-06
 -1.46083860E-03 -1.98835015E-05 -8.81446379E-05 -2.28502498E-03  1.08995097E-03
 -5.17759366E-03 -7.10834187E-05 -3.12527071E-04 -8.10057163E-03  3.86399375E-03
  3.87975354E-05  6.32006020E-05 -1.59418985E-01 -1.61757947E-02 -4.60941778E-02
 -1.96600599E-04 -2.38855948E-01 -2.42306490E-02 -6.90657041E-02 -1.25241094E-04
 -6.41090984E-02 -6.50489628E-03 -1.85356010E-02  1.43916029E-05 -1.93380795E-03
 -1.96068840E-04 -5.59360724E-04 -4.55618535E-03  3.47759750E-03  8.20113258E-04
  7.65502917E-03  2.14463723E-03 -3.31885958E-04  2.57485119E-04  5.82795842E-05
  5.56295473E-04  1.47070118E-04 -1.28652052E-02 -2.10714162E-02 -6.12248542E-02
 -4.67346530E-02  7.31822906E-02  6.60166084E-02 -8.89706335E-02 -6.76721859E-02
  1.05804987E-01  7.39556602E-02 -7.10518576E-02 -4.91951408E-02  7.36262633E-02
  1.33758400E-02 -1.78708339E-03 -2.48934282E-03  4.65877743E-03 -1.69252489E-03
  1.19960142E-03  1.58751404E-03  7.79912968E-04 -3.55622274E-04 -4.95868229E-03
  6.89883751E-03  5.78085709E-03  2.39840946E-03 -2.72430838E-03  3.29508464E-02
  5.39685615E-02  1.81112455E-01  2.64146689E-02  3.79435929E-02 -1.69078741E-01
  2.61743870E-01  3.81906274E-02  5.48071660E-02 -1.89508741E-01  1.80009604E-01
  2.65921719E-02  3.71043379E-02 -3.42683185E-02  1.20461663E-02  1.68280725E-03
  2.65926839E-03 -2.08341255E-03  1.71483373E-03  2.45390765E-04  3.82239913E-03
  1.09162213E-03 -5.60259243E-03  4.34178221E-03  6.08986255E-04  1.02219826E-02
  3.06661034E-03 -1.02188754E-02 -1.67371003E-02 -3.28232193E-02 -4.85254441E-02
 -7.93047393E-02  5.24374699E-02 -4.78674776E-02 -7.02640983E-02 -1.14876883E-01
  5.87414068E-02 -4.16202394E-02 -5.10492780E-02 -8.43723623E-02  1.06270210E-02
 -1.71010643E-04 -2.59006228E-03 -4.02227468E-03 -1.48888246E-03  4.69809985E-04
 -1.63644488E-03  1.16982439E-03  2.12062223E-04 -6.46297251E-03 -3.18911110E-04
 -6.88991193E-03  5.06881770E-03 -8.31644908E-04 -9.93782091E-03 -1.62767508E-02
 -6.22933507E-02  7.13718997E-02 -2.46682450E-02  5.09952052E-02 -9.05173497E-02
  1.03254170E-01 -3.58058377E-02  5.71297626E-02 -7.21552035E-02  7.31774846E-02
 -2.77616000E-02  1.03352241E-02 -1.84614343E-03  4.23382158E-03 -9.12111785E-04
  6.26941199E-04  1.52214855E-04  6.40049469E-04  2.01821055E-03  1.24103472E-03
  2.47534462E-03  1.71235104E-04  3.12467240E-03  6.74533612E-03  7.35545337E-03
 -9.35940198E-06 -1.49020971E-05 -5.16024701E-03 -1.50868585E-01  7.07656510E-02
  4.61262380E-05 -7.72625270E-03 -2.26067947E-01  1.06041526E-01  1.04200402E-05
 -2.07388433E-03 -6.07594617E-02  2.84806130E-02 -1.93847315E-06 -6.23479433E-05
 -1.86112903E-03  8.71114885E-04  7.25646754E-03  1.02493417E-03 -2.26107045E-03
  5.06949170E-03 -3.43756789E-03  5.20858642E-04  6.67397176E-05 -1.51499036E-04
  3.67037742E-04 -2.35866590E-04  2.35426504E-02  3.85596303E-02 -3.74175305E-02
 -5.31059286E-03 -1.40846602E-01 -1.20808102E-01 -5.41638213E-02 -8.03084062E-03
 -2.03675121E-01 -1.35344190E-01 -3.90164717E-02 -1.27088013E-02 -1.42563000E-01
 -2.44991218E-02 -2.07820085E-03  1.32346660E-03 -8.78878283E-03  3.35724272E-03
  1.35820591E-03 -8.95890464E-04  3.29871476E-04 -3.04083203E-04  1.06267654E-02
  4.77588452E-03  1.23694346E-04  1.52246520E-03 -1.19866639E-04  1.63686361E-03
  2.68098075E-03  1.03792110E-02 -7.44108067E-02  3.87481582E-02 -8.40070875E-03
  1.50104143E-02 -1.08034862E-01  5.62395601E-02 -9.40679863E-03  1.05119288E-02
 -8.43223244E-02  4.35413280E-02 -1.70071283E-03  6.46383063E-04 -2.61311798E-03
  1.44711494E-03  3.55795439E-04  9.97312749E-04 -3.29143512E-04  5.26553925E-04
 -1.82275378E-03  8.28191375E-04  4.86657194E-03 -1.36198712E-03  1.46108782E-03
 -9.09876511E-03  4.43994923E-03  7.27202510E-03 -2.32091830E-02 -5.84266024E-02
  6.00283044E-02 -2.27833875E-02 -3.36010640E-02 -8.49015638E-02  8.70363813E-02
 -2.55297481E-02 -2.42917428E-02 -6.77469570E-02  6.55796488E-02 -4.63048269E-03
 -1.26536691E-03 -1.70719880E-03  2.65755018E-03  1.45923491E-03 -1.16391598E-03
 -3.40581443E-04  1.09439536E-03  5.51197347E-04  6.15798425E-03 -5.35282047E-03
 -2.20317192E-03  4.75937660E-03  4.18547591E-03 -2.96147403E-02 -4.85046898E-02
  5.10413265E-02  1.61139175E-01  3.13171873E-02  1.51962204E-01  7.38564993E-02
  2.32857812E-01  4.54848491E-02  1.70292655E-01  5.26349448E-02  1.59740335E-01
  3.58319733E-02  3.08423327E-02  2.96414002E-03  1.08056443E-02  1.02449769E-03
  2.22075865E-03 -1.41732321E-04 -7.43802807E-04  3.21100437E-03 -1.94022137E-03
  5.58343706E-03 -9.91345251E-04 -3.80670236E-03  8.44982442E-03 -5.99973937E-03
  4.52111836E-06  7.37267680E-06 -4.85724644E-02  6.90879848E-02  1.43743261E-01
 -2.27217636E-05 -7.27845386E-02  1.03526028E-01  2.15396983E-01 -1.72677304E-05
 -1.95585249E-02  2.78335179E-02  5.78698596E-02  2.14815845E-06 -5.99348396E-04
  8.54449129E-04  1.77275073E-03  7.27918775E-04  5.83847861E-03 -6.41526317E-03
 -2.57283977E-03  3.71941280E-03  4.04744230E-05  4.08638796E-04 -4.54378319E-04
 -1.83934607E-04  2.58158519E-04  1.92589993E-02  3.15435882E-02 -5.29520492E-02
  9.26142014E-02 -7.19938676E-02 -9.88263968E-02 -7.67448812E-02  1.34191545E-01
 -1.03862537E-01 -1.10717551E-01 -5.71891620E-02  9.92665989E-02 -6.77332695E-02
 -2.00359445E-02 -2.49637133E-03  4.53577857E-03 -5.65495619E-03  9.62777770E-04
  1.49254396E-03 -2.61780332E-03 -6.06126770E-04 -8.07457830E-04  2.19584564E-04
  5.03863115E-03 -9.01572462E-03 -2.18701571E-03 -4.18188651E-03  1.10884711E-03
  1.81612851E-03 -1.57053788E-02  3.60270808E-02  7.46006704E-02 -5.68981947E-03
 -2.28404969E-02  5.22978283E-02  1.08293318E-01 -6.37800991E-03 -1.86000308E-02
  4.06356589E-02  8.41839751E-02 -1.15472035E-03 -3.70492114E-04  1.30723618E-03
  2.70398158E-03  6.61537718E-04  1.78524467E-03  3.58759734E-04 -5.48994239E-04
  8.65935035E-04  3.50638503E-03  8.23349053E-03  2.99106714E-03 -2.72554704E-03
  3.82577802E-03 -3.10902045E-02 -5.09214374E-02  1.19915466E-01 -8.81702415E-02
 -9.84255888E-02  1.59536487E-01  1.73433601E-01 -1.27443556E-01 -1.42114662E-01
  1.78745024E-01  1.21929123E-01 -8.80577537E-02 -9.51170270E-02  3.23647130E-02
  7.35725860E-03 -5.77059747E-03 -7.15422701E-03 -1.81641067E-04  3.03241839E-03
 -2.36659217E-03 -6.17150306E-04  2.42244373E-03  6.58498751E-04  8.27818564E-03
 -5.66370645E-03 -2.02386840E-03  7.30338745E-03  1.07133276E-02  1.75468968E-02
 -4.38814197E-02 -5.09828332E-02  7.40054645E-02 -5.49734482E-02 -6.36176220E-02
 -7.36250205E-02  1.07431323E-01 -6.16068424E-02 -4.77863339E-02 -4.95182357E-02
  8.35528115E-02 -1.11638896E-02 -1.97771124E-03 -3.64831724E-03  2.66994334E-03
 -6.93542210E-04 -3.51972353E-04 -1.91059999E-03 -8.51472248E-04  1.31580262E-03
 -2.02945856E-03 -2.85001855E-03 -8.82134661E-03 -1.29610742E-03  4.96550824E-03
  7.70551394E-07  1.19628653E-06  3.89799519E-05 -9.53358795E-05  1.54175239E-06
 -6.42068311E-06  4.25842575E-05 -1.15186152E-04  1.34124599E-06  2.44753576E-05
  8.43783866E-06 -8.93984685E-05  3.85782618E-07  9.03125034E-07 -1.87238342E-05
  4.66609958E-05 -1.29203153E-06 -1.16190693E-02  2.42252005E-03 -9.85002496E-03
 -1.47961597E-03 -1.95763793E-02 -3.03373487E-02  6.33712332E-03 -2.56864175E-02
 -3.87160467E-03 -5.10040771E-02  3.65063411E-06  5.84291908E-06  7.87609607E-02
 -1.18535646E-01 -6.31411749E-02 -1.73112140E-05  1.13844493E-01 -1.71337017E-01
 -9.12706143E-02 -3.82507276E-05  9.06552061E-02 -1.36435327E-01 -7.26664219E-02
 -6.49734944E-05  1.24533582E-02 -1.87449127E-02 -9.94186095E-03  1.39541481E-03
 -9.58913717E-04  1.19325972E-03  4.53931302E-04  3.70253737E-04  6.04156336E-03
 -4.03407145E-03  5.16208660E-03  1.91613193E-03  1.94363258E-03 -1.42516769E-06
 -2.31374345E-06 -2.38531806E-02  1.53637414E-01  1.48883494E-02  8.11075025E-06
 -3.44812380E-02  2.22072339E-01  2.15197684E-02 -4.31375017E-06 -2.74692173E-02
  1.76877377E-01  1.71377133E-02  7.93775705E-06 -3.75045552E-03  2.42285356E-02
  2.35117446E-03 -1.82995911E-04  2.09712003E-04  3.76527605E-04 -7.51446838E-04
  1.96642727E-03 -5.19177205E-04  8.21619287E-04  1.77264204E-03 -3.10164436E-03
  8.59492439E-03  5.52618231E-06  8.85064549E-06  8.19361800E-02 -6.42004176E-02
  1.15754091E-01 -2.64602213E-05  1.18431377E-01 -9.27971522E-02  1.67320434E-01
 -5.45943266E-05  9.43155921E-02 -7.38962886E-02  1.33223618E-01 -9.16377878E-05
  1.29775409E-02 -1.01739930E-02  1.82531177E-02  1.97200463E-03 -1.19520878E-04
 -2.34905299E-05 -2.95151478E-04  8.01440003E-04  8.43566297E-03 -5.50632649E-04
  1.07011512E-04 -1.19687071E-03  3.73331322E-03 -6.91025546E-06 -1.10638520E-05
 -1.37177736E-01  3.00498844E-02 -6.75093030E-02  3.30108806E-05 -1.98280508E-01
  4.34410153E-02 -9.75810043E-02  7.36705314E-05 -1.57906308E-01  3.45737626E-02
 -7.77068136E-02  1.30340511E-04 -2.16729364E-02  4.66839474E-03 -1.06590683E-02
 -3.14431827E-04  2.67754121E-04  8.77144110E-04  9.64019323E-04  1.66402739E-03
 -1.06665938E-03  1.06445302E-03  3.85022032E-03  4.04325618E-03  7.32110731E-03
 -5.40402722E-07 -8.43808251E-07  4.15353489E-06  1.19428487E-05 -6.20937490E-05
  4.46728839E-06  1.01683194E-05  1.63672194E-05 -8.07416129E-05 -1.59361566E-05
  4.23083285E-05  2.98142458E-05 -1.06107206E-04 -5.52422346E-07 -3.28094279E-06
 -6.72904727E-06  3.16496712E-05 -3.10777333E-03 -1.76747279E-02 -1.48848700E-02
  5.89661001E-03  6.70119376E-03 -8.08603742E-03 -4.60712327E-02 -3.88180431E-02
  1.53625089E-02  1.74678096E-02 -5.81239946E-06 -9.25623146E-06 -1.31316669E-01
 -8.34015338E-02 -7.26619529E-03  2.58564295E-05 -1.89809326E-01 -1.20553184E-01
 -1.05005225E-02  8.79731061E-05 -1.51159265E-01 -9.59884573E-02 -8.38919031E-03
  1.33296252E-04 -2.07578029E-02 -1.31490204E-02 -1.21252240E-03  1.20734988E-04
  1.61019463E-03  8.74726612E-04  1.05220244E-03 -3.92482986E-04  5.65186552E-04
  7.05823389E-03  3.94301155E-03  4.25461179E-03 -1.76814548E-03  1.41372966E-07
  2.60806801E-07 -3.27965951E-02 -1.97633795E-02  1.51370292E-01 -1.97713404E-06
 -4.74038725E-02 -2.85660809E-02  2.18796738E-01  1.69191073E-05 -3.77481080E-02
 -2.27534354E-02  1.74271803E-01  1.57097789E-05 -5.17045141E-03 -3.11660451E-03
  2.38795912E-02  9.19448520E-04  1.90197446E-03 -1.10774038E-04 -3.46843487E-04
 -2.28593959E-04  3.89297439E-03  8.28936246E-03 -1.51510530E-04 -1.56501143E-03
 -1.09103179E-03  3.77292790E-06  6.00672603E-06  9.87059330E-02  1.20415161E-01
 -3.05072772E-03 -1.66539012E-05  1.42672884E-01  1.74055049E-01 -4.40967094E-03
 -6.25228596E-05  1.13627241E-01  1.38589072E-01 -3.52302090E-03 -9.61051327E-05
  1.56182863E-02  1.89980394E-02 -5.16937565E-04 -1.35697592E-04  7.12508242E-04
  9.69402160E-04 -1.77054696E-03 -1.83375789E-04 -4.99590568E-04  3.32641016E-03
  4.33556478E-03 -7.48300549E-03 -9.01844123E-04  1.34085333E-06  2.11954411E-06
  6.53033811E-02 -1.73913866E-02 -1.40354480E-01 -5.50863103E-06  9.43927008E-02
 -2.51388929E-02 -2.02876482E-01 -2.64556563E-05  7.51707305E-02 -2.00091566E-02
 -1.61553188E-01 -4.12702068E-05  1.03152295E-02 -2.72600121E-03 -2.21679429E-02
 -1.48318930E-04  1.12624153E-04  1.93457222E-03 -3.84295046E-04 -8.43596445E-04
 -5.51272052E-04  8.35341014E-04  8.35222161E-03 -1.72054724E-03 -3.64666438E-03
  1.09168269E-05  1.88813096E-05 -3.95086924E-02 -1.30015437E-03 -1.35958413E-02
 -6.22728815E-05 -3.66382147E-02 -1.19315227E-03 -1.26171443E-02 -9.86726103E-06
 -7.32176977E-03 -2.31738015E-04 -2.52577771E-03  1.00424765E-05  3.30715651E-02
  1.09586583E-03  1.13753127E-02 -1.62692112E-02  1.03686384E-02  3.53291081E-03
  2.29914483E-02  7.43966679E-03 -2.55867822E-02  1.63100317E-02  5.55247672E-03
  3.61476000E-02  1.16816384E-02 -2.45057506E-04 -3.24135022E-04  1.53796891E-01
  6.43514091E-03  4.97111962E-02  7.21350333E-04  2.21173709E-01  8.16533565E-03
  7.39826366E-02  4.73934447E-03  1.90710114E-01  1.03500740E-02  5.62238450E-02
  2.33177330E-02  8.97327614E-03  5.00304241E-03 -7.71396077E-03 -7.17911111E-04
 -1.29779216E-03  2.88803319E-04  3.10402079E-05  6.19855328E-04 -3.68380298E-03
 -1.11278902E-02  1.57221615E-03 -1.97189817E-03  4.16652805E-03  5.11878835E-04
  6.69557565E-04  1.46612308E-01  4.13153527E-03  5.13192088E-02 -1.44352980E-03
  2.16469596E-01  6.73749657E-03  7.50609745E-02 -1.02473699E-02  1.69541521E-01
  3.38277307E-03  6.08967688E-02 -5.07335486E-02 -1.53849547E-02 -3.13860407E-03
 -2.36134969E-03 -1.03941290E-03  1.07109769E-03  1.37038998E-04  1.96759927E-03
  4.06315211E-04 -6.11823351E-03  6.99746794E-03  6.84841365E-04  1.23301797E-02
  2.21367901E-03 -1.62385897E-04 -2.14820038E-04  1.52930669E-01  6.25202725E-03
  5.47218916E-02  4.78899719E-04  2.20498206E-01  8.03812550E-03  7.72143684E-02
  3.13519237E-03  1.88402392E-01  9.82652317E-03  7.10699981E-02  1.54449483E-02
  6.48626905E-03  4.41210198E-03  9.49182383E-03  5.96759151E-04  8.78411142E-04
  2.36836788E-04 -5.42007093E-04  8.02736724E-04  6.36322555E-03  5.73607188E-03
  1.81175187E-03 -6.45001941E-03  5.48818882E-03 -1.24412708E-04 -1.64261826E-04
  1.53783332E-01  3.29799201E-03  5.30750835E-02  3.64998524E-04  2.20957248E-01
  6.18756847E-03  7.61184000E-02  2.41344889E-03  1.91138495E-01  9.53226558E-04
  6.62697845E-02  1.19229497E-02  9.78442410E-03 -5.94962269E-03  3.97512292E-03
  6.22550582E-05  4.77556155E-05 -4.23496031E-04  9.73290720E-05 -1.32360091E-03
  1.85172256E-03 -5.96144038E-04 -3.72100589E-03 -1.66061431E-03 -1.11326801E-02
 -2.08406525E-06 -3.21127629E-06  1.22644795E-02  1.49763253E-02 -3.71272347E-02
  1.09678321E-05  1.13843871E-02  1.39068837E-02 -3.45007180E-02  2.19497197E-06
  2.25910234E-03  2.76690729E-03 -6.87145837E-03 -9.94636987E-07 -1.02575734E-02
 -1.25231468E-02  3.10300607E-02 -1.69438417E-02 -1.60697574E-02  1.91977933E-02
 -7.36031162E-03 -1.02246385E-03 -2.66245098E-02 -2.52276444E-02  3.01765546E-02
 -1.15729890E-02 -1.62367504E-03 -4.75927575E-04 -6.28720825E-04 -4.86331894E-02
 -5.58011248E-02  1.38357101E-01  1.39367651E-03 -6.87442107E-02 -8.21356859E-02
  2.03691421E-01  9.23017113E-03 -6.29111356E-02 -6.50888757E-02  1.61299023E-01
  4.54544449E-02 -7.86567993E-03  4.77783784E-03 -1.19926923E-02 -1.81376164E-03
 -1.50034024E-04  1.42173039E-03  2.13492662E-04 -3.16921608E-05 -1.18632330E-02
  7.01665956E-04  8.75721242E-03  2.27783209E-03 -3.11708280E-04 -6.63031412E-05
 -8.66971332E-05 -4.68867063E-02 -5.82747818E-02  1.45004013E-01  1.87446695E-04
 -6.80630704E-02 -8.37107305E-02  2.07849430E-01  1.32318881E-03 -5.67636878E-02
 -7.24788435E-02  1.81313966E-01  6.57876301E-03 -3.32652366E-05 -3.78589735E-03
  1.13296497E-02  4.38375724E-04  9.53200284E-04  2.83372547E-04 -4.87316362E-04
 -5.92702434E-04  5.01278827E-03  9.20470280E-03  4.67541005E-04 -3.04135376E-03
 -4.59891403E-03  3.14505731E-04  4.15453943E-04 -4.54655393E-02 -6.07090318E-02
  1.41541718E-01 -9.20898283E-04 -6.73569306E-02 -8.52862531E-02  2.05581885E-01
 -6.09851659E-03 -5.20874582E-02 -7.96691064E-02  1.71097884E-01 -3.00399238E-02
  5.71159150E-03 -1.21240407E-02 -3.85951957E-04  8.55640784E-04 -1.39955508E-03
  6.54303740E-04  4.31984574E-04 -3.96509468E-05  8.26305649E-03 -9.06933595E-03
  2.91750980E-03  4.06854047E-03  2.00899597E-04  2.27807896E-04  3.00120522E-04
 -4.72992021E-02 -5.50646462E-02  1.44652256E-01 -6.60784681E-04 -6.84676114E-02
 -8.16835627E-02  2.07577905E-01 -4.45052079E-03 -5.76793112E-02 -6.28583633E-02
  1.80346126E-01 -2.19846676E-02 -8.78377141E-04  7.39442411E-03  1.03241638E-02
 -6.28374995E-04 -4.98521172E-04 -1.06187557E-03 -6.54913795E-04  5.98954148E-04
 -3.09364765E-03 -2.46333011E-03 -1.02563615E-02 -4.02236279E-03  4.62940914E-03
 -2.81294977E-07 -8.41368807E-07  6.04037147E-03 -3.90729239E-02 -1.37772709E-02
  2.89712356E-06  5.62041447E-03 -3.62888029E-02 -1.28008416E-02 -4.21215318E-06
  1.12304454E-03 -7.21229767E-03 -2.54508669E-03 -1.99807969E-07 -5.04392089E-03
  3.26678109E-02  1.15150671E-02  1.38393410E-02 -1.04395313E-02  9.58888992E-03
  1.81233440E-02 -1.57487316E-02  2.17625062E-02 -1.64015567E-02  1.50846713E-02
  2.84738121E-02 -2.47055627E-02  3.57315341E-05  4.71884880E-05 -2.35028028E-02
  1.52227196E-01  5.42258360E-02 -1.04816994E-04 -3.37964807E-02  2.18552313E-01
  7.74054868E-02 -6.90981943E-04 -2.91465899E-02  1.89558086E-01  6.84911089E-02
 -3.41856327E-03 -1.39125530E-03  1.04263033E-02  5.61331564E-03 -6.38576841E-04
 -1.29533682E-05 -9.85577583E-04 -2.46637696E-04 -5.26522894E-04 -6.46893658E-03
  8.45651979E-04 -8.70509155E-03 -3.66139784E-03 -2.70987964E-03  2.81495467E-05
  3.68555222E-05 -2.39317822E-02  1.52269683E-01  5.36316960E-02 -8.04159867E-05
 -3.39980026E-02  2.18502947E-01  7.70237548E-02 -5.57718401E-04 -3.05903261E-02
  1.89889308E-01  6.67404960E-02 -2.78283092E-03 -3.16624004E-03  1.08676119E-02
  3.56452723E-03  3.06675528E-04  3.02698124E-04  4.95377074E-04 -1.39967677E-04
  1.11942424E-03  1.18302042E-03  3.37004480E-03  3.05351866E-03 -2.89382347E-03
  1.04173804E-02  4.02229386E-04  5.31176479E-04 -2.05294097E-02  1.49460597E-01
  4.95597682E-02 -1.17717598E-03 -3.21795768E-02  2.16746214E-01  7.43237212E-02
 -7.79874298E-03 -1.96770992E-02  1.81407878E-01  5.48281547E-02 -3.84712079E-02
  1.00529362E-02  1.02739964E-03 -1.00964845E-02  1.45509909E-04 -7.59001180E-04
  1.45888711E-03 -2.95967666E-04 -1.23407234E-03 -3.31161984E-04 -4.32347683E-03
  1.01005769E-02 -4.15457545E-03 -7.82474127E-03 -4.62379854E-04 -6.08938775E-04
 -2.46008907E-02  1.45575795E-01  5.39345920E-02  1.33944702E-03 -3.40574008E-02
  2.14308054E-01  7.72796053E-02  9.03785948E-03 -3.33884368E-02  1.69750503E-01
  6.74954655E-02  4.46756922E-02 -7.00124361E-03 -1.25727338E-02  4.35967361E-03
  1.12008261E-03 -2.38626541E-04 -3.23090766E-04  1.91118606E-03 -4.34163826E-04
  6.96943020E-03 -9.31003480E-04 -3.51764429E-03  1.25081646E-02 -1.48142728E-03
  1.46718239E-08  3.41545814E-08  3.44500973E-06 -1.33595912E-05  3.45128165E-05
 -6.63498400E-07  3.37256975E-06 -1.80325597E-06  8.44296017E-06  4.00416708E-06
 -1.19805436E-05  2.87680129E-05 -7.62987378E-05 -1.25888991E-06 -1.75412157E-06
  2.33103363E-05 -5.50354025E-05  1.94410346E-05  1.43973459E-05 -1.33413168E-05
 -1.09121162E-06 -6.01233212E-06  2.61591909E-05  5.52047899E-05 -1.19236969E-07
 -2.36096774E-06 -2.55778708E-05 -8.15876210E-06 -1.36478921E-05  1.97516454E-01
  6.12008571E-02 -1.46314977E-02  4.35371097E-05  2.84011864E-01  8.80053521E-02
 -2.10473873E-02  7.49347714E-05  2.53453090E-01  7.85339510E-02 -1.87771438E-02
 -1.85479072E-05  2.37387250E-02  7.34197611E-03 -1.72903149E-03  9.06166202E-05
 -7.43498076E-04 -2.77032620E-04 -1.99331422E-04  2.77776895E-04  1.44350690E-03
 -1.27738046E-02 -5.03813331E-03 -2.78962790E-03  5.09043578E-03  2.06239821E-06
  3.44189105E-06 -2.99289384E-02 -9.48447714E-02  1.81283485E-01 -1.03878750E-05
 -4.30392004E-02 -1.36382700E-01  2.60676954E-01 -2.84929867E-05 -3.84171810E-02
 -1.21724051E-01  2.32659381E-01 -4.22891817E-06 -3.59167854E-03 -1.13881929E-02
  2.17684606E-02  2.66306957E-04  7.05111203E-04  4.53875007E-05 -8.66087940E-05
 -4.11643148E-04  4.15331398E-03  1.21902976E-02  1.33873321E-03 -1.72350200E-03
 -7.28189913E-03  3.21973502E-06  5.37600094E-06 -7.97401043E-02  1.56926781E-02
 -7.87765092E-02 -1.71262506E-05 -1.14658909E-01  2.25626850E-02 -1.13276808E-01
 -2.71603978E-05 -1.02320253E-01  2.01448554E-02 -1.01089273E-01  9.45207922E-06
 -9.58595434E-03  1.87547326E-03 -9.44153081E-03 -3.72643344E-04 -4.00730066E-05
 -1.33943378E-04  1.44805111E-04 -2.13418927E-04 -6.27419759E-03 -7.45766899E-04
 -2.56055701E-03  2.29625799E-03 -3.89152561E-03  2.90911513E-06  4.85462199E-06
 -8.78600667E-02  1.83006334E-02 -8.86841721E-02 -1.54636365E-05 -1.26336758E-01
  2.63180756E-02 -1.27521411E-01 -2.39285102E-05 -1.12741139E-01  2.34811347E-02
 -1.13810643E-01  1.44403569E-05 -1.05581891E-02  2.18384797E-03 -1.06289701E-02
  1.71604892E-05  7.68444623E-05  3.62990591E-04  1.41480702E-04  3.48496417E-04
  6.93321458E-04  1.33197590E-03  6.24634282E-03  2.21258270E-03  6.08225097E-03
 -8.24428573E-09 -2.03707981E-08 -9.36340125E-06  2.57279013E-05  1.45407011E-05
  3.09465082E-07 -3.77011003E-06  3.61579827E-06  2.21219243E-06 -1.08729817E-06
  2.01271048E-05 -5.75910877E-05 -3.35714815E-05  1.12785935E-06  1.34335819E-05
 -4.49768452E-05 -2.45340196E-05 -5.42426458E-06  1.21445982E-05 -4.99125679E-06
 -1.24345210E-05  1.84752788E-05  9.51524270E-06  2.55319138E-05  1.56026416E-05
 -2.91235721E-05  4.98043554E-05 -4.19264921E-07 -6.90873805E-07  2.13601948E-02
 -6.38478765E-02 -2.97864260E-02  2.03203906E-06  3.07142428E-02 -9.18075014E-02
 -4.28306589E-02  4.87318243E-06  2.74106194E-02 -8.19394879E-02 -3.82267948E-02
 -5.20468008E-07  2.56118843E-03 -7.65142461E-03 -3.56797858E-03  1.95426973E-04
 -5.12585852E-05  1.97965824E-04  7.40072586E-05  9.69467933E-05  3.34313069E-03
 -7.74687611E-04  3.40559612E-03  1.17716675E-03  1.88897703E-03 -5.27429053E-07
 -8.78988875E-07 -4.45800238E-02  1.81828076E-01  8.78650248E-02  2.45749926E-06
 -6.41032860E-02  2.61461055E-01  1.26346557E-01  1.06133377E-05 -5.72106445E-02
  2.33357520E-01  1.12767518E-01  1.03034945E-06 -5.35334462E-03  2.18350689E-02
  1.05521446E-02  1.75373988E-04  2.98798450E-04  2.52465737E-04 -2.54461726E-04
  7.06249218E-04  3.47873833E-03  4.95912226E-03  4.83988685E-03 -4.07041908E-03
  1.21243135E-02  6.12088271E-06  1.02345791E-05 -1.51083550E-01 -7.93237183E-02
 -7.07664120E-02 -3.26297636E-05 -2.17243562E-01 -1.14064856E-01 -1.01761715E-01
 -5.52234162E-05 -1.93869031E-01 -1.01791184E-01 -9.08053517E-02  1.65888994E-05
 -1.81701284E-02 -9.51231400E-03 -8.49193808E-03 -3.42829604E-04 -2.77306312E-04
 -3.92285230E-04  4.85986145E-04 -1.21918498E-04 -5.86955591E-03 -5.09124219E-03
 -7.12112730E-03  7.89330292E-03 -2.18408216E-03 -5.20255239E-06 -8.69640360E-06
  1.74483244E-01 -3.93354538E-02  1.23222151E-02  2.79171833E-05  2.50894671E-01
 -5.65671151E-02  1.77189160E-02  4.22073062E-05  2.23902607E-01 -5.04738142E-02
  1.58064943E-02 -1.93693351E-05  2.09630881E-02 -4.70062768E-03  1.49224388E-03
 -2.99896781E-05  2.98628134E-05 -6.05498679E-05 -3.05791184E-04 -6.82211206E-04
 -9.60493448E-04  9.14861588E-04 -1.13297543E-03 -5.00320698E-03 -1.18234352E-02
 -1.49663720E-09  4.70383125E-09  1.57120498E-07 -3.74042943E-06  2.60273983E-06
 -5.21034587E-08  5.48764687E-07 -1.10389977E-06 -4.77933467E-07  7.84877846E-07
  1.08508838E-06  1.18944275E-05 -6.55537748E-06  8.39768535E-07  1.06309029E-07
  5.71028306E-06 -3.62250896E-06  3.09995983E-06 -3.06008086E-07  5.46492832E-07
  1.87948602E-06 -1.21028169E-06  3.18699942E-06 -2.43140587E-06 -6.31798461E-06
  2.80065721E-06  9.40152377E-07 -6.86023932E-07 -1.13115336E-06  4.59237095E-02
 -1.71410476E-01 -7.77042392E-02  3.41871727E-06  6.60346071E-02 -2.46474549E-01
 -1.11733111E-01  6.74074738E-06  5.89344821E-02 -2.19969682E-01 -9.97175550E-02
 -1.23307494E-06  5.51890799E-03 -2.06022733E-02 -9.33606351E-03  5.10208640E-04
 -9.65197020E-05  5.36036080E-04  2.06259436E-04  2.39751296E-04  8.72791822E-03
 -1.37383960E-03  9.23116353E-03  3.24703395E-03  4.70459126E-03  6.67196103E-08
  1.15087977E-07  2.03084644E-04 -6.40836803E-03  2.74554708E-03 -4.35130223E-07
  2.91907666E-04 -9.21495872E-03  3.94803229E-03 -1.55328211E-07  2.61134936E-04
 -8.22468988E-03  3.52273055E-03  1.31265007E-06  2.46809616E-05 -7.71457674E-04
  3.31963928E-04  3.07893744E-06  1.16334041E-05 -4.34709470E-06  3.33616643E-06
 -2.59820465E-05  3.10447063E-05  2.04877801E-04 -7.03172060E-05  4.48059424E-05
 -4.51991341E-04 -2.81702046E-07 -4.82782926E-07  6.07787215E-03  1.62658508E-01
 -1.11926920E-01  1.51962479E-06  8.73932520E-03  2.33891017E-01 -1.60942007E-01
  4.03085837E-06  7.79808655E-03  2.08737003E-01 -1.43634112E-01  1.40142565E-07
  7.30896853E-04  1.95485583E-02 -1.34500288E-02 -5.17962728E-04  3.04975606E-04
  2.18771869E-04 -3.29642049E-04 -4.07012914E-04 -8.56168033E-03  5.57924429E-03
  3.60407590E-03 -5.49426545E-03 -7.49387368E-03  8.98769234E-07  1.51227837E-06
 -5.22048969E-02  1.52489144E-02  1.86817273E-01 -4.90948157E-06 -7.50670915E-02
  2.19280727E-02  2.68630499E-01 -8.67509675E-06 -6.69950799E-02  1.95700423E-02
  2.39747577E-01 -3.26175516E-06 -6.27322830E-03  1.83135924E-03  2.24470958E-02
  4.88658700E-06 -2.19959054E-04 -7.50151443E-04  1.20080585E-04  1.92942789E-04
 -1.95671513E-04 -4.41148115E-03 -1.27644613E-02  2.20401815E-03  3.23936155E-03
 -2.20798445E-02 -3.45203878E-02 -8.88774609E-06 -4.63951964E-05  2.38882940E-05
  3.28565466E-02 -4.27157216E-05 -5.80306123E-05  2.65430732E-05  1.26755818E+00
 -1.53832572E-04 -3.46625323E-05 -1.54450421E-05  2.36123450E+00 -5.23553791E-04
 -6.70092518E-05 -2.20960297E-05 -2.62093584E-07 -5.09786452E-06  1.48161081E-06
 -8.88473513E-06  1.18757604E-06 -2.97186065E-05  7.43381097E-06  6.85929990E-06
  2.39405411E-06  1.32543950E-05  1.90145758E-02  3.19576059E-02  2.89416648E-03
 -5.78136837E-03  1.44777755E-02 -1.12036337E-01  4.14101600E-03 -8.26606992E-03
  2.07017501E-02 -1.93358164E-01  1.58569606E-02 -3.20680055E-02  8.01433032E-02
 -6.88896139E-01  2.76922358E-02 -5.59976285E-02  1.39897735E-01  5.26058242E-04
  1.99845322E-04 -4.04942677E-04 -6.12940496E-05 -7.98566913E-05 -5.58642546E-03
 -2.11832545E-03  4.30605860E-03  6.52591608E-04  8.48150562E-04  1.90230612E-02
  3.19721703E-02 -1.52827910E-02 -2.00359555E-03 -3.59042190E-03 -1.12089880E-01
 -2.18552177E-02 -2.86390059E-03 -5.13542666E-03 -1.93539130E-01 -8.47877856E-02
 -1.11860455E-02 -1.98585019E-02 -6.89457457E-01 -1.48020419E-01 -1.95276727E-02
 -3.46739937E-02 -2.96501004E-04  2.65013459E-04  3.49415456E-05  5.55858839E-04
  1.49136669E-04  3.15481541E-03 -2.81414668E-03 -3.72532153E-04 -5.91091506E-03
 -1.59343601E-03  1.90089255E-02  3.19481254E-02  8.98642439E-03 -7.60703212E-03
 -1.05953612E-02 -1.12002983E-01  1.28514022E-02 -1.08752573E-02 -1.51490923E-02
 -1.93313387E-01  4.96634851E-02 -4.22387246E-02 -5.87201183E-02 -6.88848860E-01
  8.67162220E-02 -7.37554047E-02 -1.02506362E-01  1.20538653E-04 -4.59405549E-04
  3.90959801E-04  5.35581822E-05 -3.30261917E-04 -1.27877103E-03  4.87815071E-03
 -4.15864915E-03 -5.65364845E-04  3.51373649E-03  1.90051750E-02  3.19417488E-02
  3.51338904E-03  1.54136056E-02 -2.87088839E-04 -1.11977486E-01  5.02609686E-03
  2.20371156E-02 -4.09643588E-04 -1.93338989E-01  1.93775029E-02  8.55483381E-02
 -1.57837851E-03 -6.88865539E-01  3.38421885E-02  1.49298984E-01 -2.73181407E-03
 -3.49702887E-04 -4.82957710E-06 -2.13123604E-05 -5.46965530E-04  2.60772383E-04
  3.72081851E-03  4.94281463E-05  2.24047933E-04  5.81865246E-03 -2.77333058E-03
  1.29843523E-07  1.94963075E-07  6.54251768E-03  4.12675005E-02  2.07691380E-03
 -1.56928614E-05  9.01777682E-03  5.68216457E-02  2.86212491E-03  2.27584978E-04
  8.56918363E-02  5.38579820E-01  2.71508606E-02  6.54736717E-04  2.68532779E-01
  1.68928167E+00  8.50889029E-02  1.16928030E-03 -1.37648515E-04  1.99842300E-04
  1.78561587E-03 -9.51154060E-04 -2.21252126E-02  2.57821261E-03 -3.76884394E-03
 -3.38876554E-02  1.80376055E-02 -4.65969946E-03 -7.87588240E-03 -9.02283622E-03
 -4.21977286E-02 -1.11820930E-02  2.86689278E-02 -1.39482462E-02 -6.66130668E-02
 -1.65024973E-02  4.91365294E-02 -1.39966970E-02 -3.68665333E-02 -3.36732299E-02
  2.92317585E-01 -5.93218674E-02 -2.07851310E-01 -1.13237856E-01 -3.63399221E-04
 -1.37381780E-04  6.29384387E-06 -1.00155650E-04  3.71694433E-05  1.19341246E-03
 -2.81336044E-04 -1.93464192E-04  1.94680979E-03 -1.20438464E-03 -4.68279672E-03
 -7.91490509E-03  2.15345755E-03 -4.45176154E-02 -9.83892238E-05  2.88097235E-02
  2.27517076E-03 -6.99821797E-02 -4.13032574E-04  4.94469025E-02  2.53231955E-02
 -4.49835269E-02  5.27736207E-03  2.94028933E-01  6.77056020E-02 -2.34072382E-01
  1.25768763E-02  9.60717023E-05 -1.18596498E-04  2.94228952E-05 -3.33470136E-04
  1.67250833E-04  1.37255614E-03 -1.58347974E-04  3.65078952E-04  2.08798361E-03
 -6.21953195E-04 -6.81483782E-03 -1.15185065E-02 -1.53113079E-02 -3.89009996E-02
  7.20963285E-03  4.19278724E-02 -2.30777471E-02 -6.18303638E-02  1.01958781E-02
  7.18642346E-02 -3.60943339E-02 -2.52758832E-02  3.09468711E-02  4.27577449E-01
 -1.30713982E-01 -1.70492506E-01  9.54844225E-02 -1.64308485E-04  3.77191803E-04
 -1.50362542E-04 -2.14314213E-04  1.67685018E-04  1.28013984E-03 -2.10697473E-05
  5.37431636E-04  1.82788003E-03 -1.34637277E-03  1.61674378E-02  2.73261752E-02
  1.68219599E-04 -1.29042447E-02 -2.90674227E-03 -9.94636437E-02 -6.10000488E-04
 -2.41002156E-02 -4.48864533E-03 -1.70558479E-01  1.83153186E-02  6.62243382E-02
 -4.60746310E-03 -1.01484905E+00  4.49231200E-02  1.25025347E-01 -1.93485760E-02
 -5.38803187E-04 -7.50225720E-06 -5.08399472E-05 -8.36265147E-04  4.17640387E-04
  1.55367018E-03 -1.72228072E-04  2.12314415E-04  2.39555985E-03 -1.22272295E-03
  3.41505744E-06  5.27938737E-06 -1.66796601E-02  7.24616101E-04  3.83601201E-02
  8.43243866E-08 -2.29680009E-02  9.96193343E-04  5.28084859E-02 -2.70147031E-04
 -2.17863633E-01  9.38414538E-03  5.00730033E-01 -5.84944451E-04 -6.83092660E-01
  2.94675028E-02  1.57027046E+00 -6.92585950E-04 -1.47780116E-03  1.58682372E-03
 -1.34773494E-04 -5.60493153E-04  1.31528894E-02  2.80526616E-02 -3.01084647E-02
  2.58196940E-03  1.06392425E-02  1.23236364E-02  2.08294212E-02  2.31336975E-02
 -1.01891874E-02 -1.90686258E-02 -7.58170609E-02  3.57459751E-02 -1.48826186E-02
 -3.26655887E-02 -1.30006632E-01  3.62449639E-02 -3.38964827E-02  3.66364981E-02
 -7.73536965E-01  1.52927793E-01 -1.11020440E-01  3.57490381E-02  5.20675753E-04
  3.61180370E-04 -5.32730774E-04 -6.77743008E-05 -1.32883491E-04 -1.19842094E-03
 -1.59394937E-03  1.93657153E-03 -1.49670327E-04 -7.91876778E-04  2.85155167E-03
  4.81971184E-03  1.27623096E-02 -1.55741826E-03 -4.38822651E-02 -1.75433679E-02
  2.06925421E-02 -2.35470656E-03 -6.86801767E-02 -3.01126262E-02 -2.41067401E-04
 -3.53135033E-03 -5.06196854E-02 -1.79081160E-01  3.51102395E-02 -1.29531514E-02
 -2.46036354E-01  2.65399068E-05  3.04657145E-04  7.54124205E-07  9.45167749E-05
  5.42945077E-05 -6.03618911E-04 -1.30957601E-03  1.98915019E-03 -3.31276430E-04
 -6.83288502E-04 -1.37644666E-02 -2.32646485E-02  2.26880050E-03  1.30111310E-02
 -2.33319780E-02  8.46793481E-02  5.46517207E-03  1.87897792E-02 -3.88552034E-02
  1.45208211E-01 -3.71408148E-02  4.77418189E-02  2.16647283E-02  8.64011799E-01
 -8.39429168E-02  1.52646852E-01 -1.26134773E-02 -3.96271560E-05  5.73828105E-04
 -5.46377898E-04 -3.00374131E-05  4.84792799E-04 -5.67842732E-04 -2.02555078E-03
  2.00028502E-03 -6.53196326E-05 -6.47035648E-04 -1.42380124E-03 -2.40649506E-03
  1.78432178E-02 -3.68319757E-03 -4.24711134E-02  8.75884228E-03  2.80689454E-02
 -5.43838266E-03 -6.66320894E-02  1.50266611E-02  1.76476314E-02 -1.10385399E-02
 -4.56891451E-02  8.94417323E-02  9.29414569E-02 -3.71944228E-02 -2.30114963E-01
  6.82890129E-05 -1.19481647E-05 -2.41136647E-04  1.16183995E-04  6.00471865E-05
 -8.34623608E-04 -1.90211959E-03  1.41659952E-03 -8.16085832E-05 -4.72533607E-04
 -1.82221492E-05 -2.88784200E-05  3.77341972E-02 -6.84621841E-03  1.65494061E-02
  6.05559143E-05  5.19824150E-02 -9.42316506E-03  2.27933415E-02  4.94180549E-04
  4.93774461E-01 -8.93080460E-02  2.16439755E-01  1.20632276E-03  1.54761371E+00
 -2.80142702E-01  6.78493481E-01 -1.54092982E-03  7.07331689E-04  3.58938633E-04
  1.40182022E-03  7.16834245E-04  2.93571906E-02 -1.34871559E-02 -6.84917232E-03
 -2.67902480E-02 -1.36855743E-02  9.49245870E-03  1.60439719E-02 -3.83237217E-02
  3.65107564E-04 -3.25175625E-04 -5.83932074E-02 -6.05387419E-02  1.42184746E-03
 -2.63005307E-03 -1.00191217E-01 -3.26254810E-02 -1.72572102E-02  4.37382667E-02
 -5.95930488E-01 -1.86931498E-01 -4.09928599E-02  1.05493774E-01  5.38715168E-04
 -7.57294341E-06 -3.78066154E-04 -1.24216187E-04 -2.10913873E-05 -1.87261261E-03
  4.10576058E-04  4.81363735E-04  1.62279932E-03  1.04797534E-03 -1.52701222E-02
 -2.58093892E-02 -1.12058014E-02  1.16431780E-02 -1.11860570E-02  9.39372018E-02
 -2.11812637E-02  1.77871342E-02 -1.83901568E-02  1.61332727E-01  6.29794128E-02
  2.24865228E-02  5.49980349E-03  9.59365982E-01  1.22073518E-01  8.73192964E-02
 -1.79048482E-02  4.63399450E-04 -3.42439732E-04 -6.64697363E-05 -7.94510636E-04
 -2.87021123E-04 -1.94132107E-03  1.05980462E-03  4.26110596E-04  1.93398233E-03
  7.73008789E-04  5.27918932E-03  8.92275007E-03 -3.56702619E-02  2.29742811E-03
 -2.57146901E-02 -3.24740650E-02 -5.66897566E-02  4.22581130E-03 -3.94766677E-02
 -5.57209260E-02 -2.32720091E-02 -1.04526004E-02 -4.56990050E-02 -3.31383950E-01
 -1.56756215E-01 -1.90220905E-02 -1.83325200E-01  2.58400269E-04 -2.05681902E-04
  2.44528264E-04 -1.01423800E-04 -9.45619954E-05 -1.48268375E-03  9.95263677E-04
  5.43448846E-04  1.46475616E-03  1.11164488E-03  5.37340194E-04  9.08079772E-04
 -4.16415791E-02  8.66208057E-03 -1.83849947E-02 -3.30173559E-03 -6.53540978E-02
  1.34614991E-02 -2.88383539E-02 -5.69695952E-03 -4.43076109E-02  1.20132609E-02
 -1.98814779E-02 -3.36894631E-02 -2.24608007E-01  5.35058578E-02 -9.99148951E-02
  2.33347265E-05 -3.39028854E-05 -9.94530124E-05 -1.50079919E-04 -1.95506740E-04
 -1.85117809E-03  8.16088131E-04  2.17190634E-04  1.49247371E-03  3.99717843E-04
 -7.40793699E-05 -1.23199310E-04 -8.85940502E-02  4.23574888E-02  2.96088496E-01
  4.62260166E-04 -1.31241903E-01  6.27496242E-02  4.38612581E-01  1.03364731E-03
 -4.18806475E-01  2.00225824E-01  1.39973287E+00 -1.12687714E-03  1.37649260E-01
 -6.58288520E-02 -4.59877445E-01 -9.27014214E-03 -1.93577494E-02  2.23784844E-02
  3.39988501E-03 -8.43186213E-03 -2.26679016E-02 -4.73408975E-02  5.47240922E-02
  8.31628414E-03 -2.06207613E-02  2.44613761E-02  4.06778543E-02  3.75870037E-02
 -5.39425492E-02  6.93796905E-02 -1.30439206E-01  5.47645575E-02 -8.07642403E-02
  1.12849446E-01 -3.85954982E-01  7.68026039E-02 -1.04960996E-01  1.13257760E-01
 -6.98251045E-01  2.15950754E-01 -3.74560775E-01  7.48899569E-01  8.59891441E-04
  2.12604980E-03 -2.91743668E-03 -5.82069812E-04 -1.58208423E-03  2.10003634E-03
  1.13463137E-02 -1.48002402E-02 -3.05360038E-03 -8.65003511E-03  1.37164875E-03
  2.28110704E-03  7.44729404E-03 -7.81296744E-03 -4.97997102E-02 -7.31717848E-03
  9.02923453E-03 -1.07704104E-02 -6.79893598E-02 -2.16297199E-02  1.96432389E-02
 -1.74511631E-02 -1.12833822E-01 -3.84647106E-02 -1.08661388E-02 -2.65848425E-02
 -1.50173193E-01  1.35094255E-03  3.45858929E-03  1.13366616E-03 -8.62965048E-04
  3.28789805E-04  7.98919364E-03  2.00958833E-02  6.37898893E-03 -5.19821147E-03
  1.92339306E-03 -2.74752014E-02 -4.56894649E-02 -6.73588450E-02  6.27495847E-02
  4.86195982E-02  1.46505459E-01 -1.04470506E-01  9.62942621E-02  8.13441814E-02
  4.33523123E-01 -1.22311790E-01  1.16426461E-01  7.38981053E-02  7.85824515E-01
 -5.76080227E-01  5.06059859E-01  5.92880835E-01  9.71619679E-04  1.98891703E-03
 -1.88148354E-03 -1.60123116E-04  2.88311890E-03  6.46078699E-03  8.77558332E-03
 -8.60635782E-03 -6.17490572E-04  1.46811132E-02  1.70178904E-03  2.83012506E-03
  1.63835179E-02  1.84600288E-03 -4.83080085E-02 -9.07794616E-03  2.25909904E-02
  3.88747143E-03 -6.57216744E-02 -2.68304086E-02  3.65777929E-02  8.58589144E-04
 -1.10011434E-01 -4.79402834E-02  5.59265087E-02  4.57654136E-02 -1.38748685E-01
 -1.88376450E-04 -1.32473293E-03 -3.55727211E-03  5.07628186E-04  1.09132411E-03
 -8.81051706E-04 -7.51927147E-03 -2.07709964E-02  3.12745972E-03  6.28524572E-03
  2.53499400E-04  4.21411449E-04 -1.70871220E-02  3.07545082E-01 -4.91059262E-02
 -1.58046720E-03 -2.53086138E-02  4.55572638E-01 -7.27374346E-02 -3.58230141E-03
 -8.07848063E-02  1.45439171E+00 -2.32253648E-01  3.54403293E-03  2.64929475E-02
 -4.77922786E-01  7.62438089E-02  2.21706189E-02 -2.31602576E-03 -1.04025332E-03
  1.84075576E-02 -1.44101404E-02  5.41998056E-02 -5.66661711E-03 -2.53818832E-03
  4.49983212E-02 -3.52262592E-02 -1.64603001E-02 -2.73727101E-02 -1.28187999E-02
 -1.83430059E-02 -7.10889692E-02  8.77767377E-02 -1.98897832E-02 -1.99572732E-02
 -1.09128841E-01  2.59729195E-01 -2.32535041E-02 -5.38876205E-02 -1.31802154E-01
  4.68297625E-01 -1.09548055E-01  9.56624881E-02 -5.72772456E-01 -3.54087964E-03
 -1.14376210E-03 -1.25209951E-03 -7.01732293E-04 -5.72819737E-04 -1.86955147E-02
 -5.85362144E-03 -8.77699470E-03 -4.44037536E-03 -3.50799259E-03 -1.24597393E-03
 -2.07232658E-03  9.10865574E-03 -4.91848504E-02  9.46625623E-03  6.65093870E-03
  1.33929471E-02 -6.67610422E-02  1.31111486E-02  1.96280958E-02  1.82963195E-02
 -1.12394162E-01  2.09891753E-02  3.33680291E-02  5.43013361E-02 -1.37173512E-01
  3.37744300E-02  2.48013109E-04 -9.00623511E-04  8.38687301E-04 -6.96029987E-04
  3.72318073E-03  1.17883748E-03 -5.12144979E-03  4.87637618E-03 -4.01379455E-03
  2.17183796E-02 -1.28372310E-02 -2.13478091E-02 -3.54247046E-02 -1.74655395E-02
  5.31877352E-02  6.84580200E-02 -5.41919896E-02 -1.86244687E-02  7.94507741E-02
  2.02540745E-01 -6.61302366E-02 -5.22350347E-02  1.03933602E-01  3.64704683E-01
 -2.79558875E-01  1.02087054E-01  3.63013141E-01 -2.01613001E-03  2.75571917E-03
  3.12571329E-04 -1.84657286E-03 -9.66020399E-04 -1.14958870E-02  1.46267049E-02
  2.97323342E-03 -1.06827507E-02 -6.45818664E-03  3.03462117E-02  5.04636427E-02
  3.79638090E-02  1.05657968E-01  5.12313958E-03 -1.61811262E-01  5.71705712E-02
  1.68188654E-01  6.51929468E-03 -4.78914757E-01  7.30902828E-02  1.81439654E-01
  1.27584267E-02 -8.69879814E-01  2.74060655E-01  1.03386972E+00  1.28986560E-03
 -1.84502784E-03  3.51815095E-05  4.38447179E-04 -2.69377112E-03  2.46800862E-03
 -8.42405673E-03  2.54763162E-04  2.69502918E-03 -1.19358455E-02  1.25924635E-02
 -1.37561494E-04 -2.27860053E-04  2.98367702E-01  3.01313828E-02  8.49698226E-02
  8.40105712E-04  4.41849622E-01  4.46248306E-02  1.25828420E-01  2.33183300E-03
  1.41355876E+00  1.42789964E-01  4.02554349E-01 -1.05840608E-03 -4.64026392E-01
 -4.69133171E-02 -1.32105287E-01 -1.49267624E-02  1.14946539E-02  2.60856516E-03
  2.51352737E-02  7.09080190E-03 -3.64217852E-02  2.80447029E-02  6.36344600E-03
  6.13178954E-02  1.72988479E-02  1.23379519E-02  2.05168766E-02 -3.67451204E-02
 -2.85839706E-02  4.53899189E-02 -6.57789849E-02 -4.81391016E-02 -4.26128459E-02
  7.10623096E-02 -1.94894253E-01 -8.81658124E-02 -5.60965539E-02  8.08746842E-02
 -3.52505452E-01 -5.09749310E-02 -1.93442523E-01  4.08267251E-01  1.63602208E-03
 -2.68489477E-03 -2.08553456E-03 -7.21156471E-04  1.15167368E-03  8.10359782E-03
 -1.62086584E-02 -1.09535137E-02 -4.20167994E-03  6.84138564E-03 -3.18506685E-02
 -5.29651293E-02  1.13005251E-01  1.64301930E-02  2.39905017E-02  1.69824205E-01
  1.79167205E-01  2.57149852E-02  3.85881736E-02  5.03152376E-01  1.95911408E-01
  2.92910683E-02  4.02571138E-02  9.12790520E-01  1.08533315E+00  1.47863707E-01
  2.46835751E-01  1.80111207E-03 -1.38425547E-03 -1.90074486E-04 -3.29646511E-03
 -1.00939483E-03  8.39079894E-03 -6.18119367E-03 -8.66833637E-04 -1.52442695E-02
 -4.81384784E-03  9.99072345E-03  1.66136898E-02 -1.87329984E-02 -3.01726626E-02
 -4.89124977E-02 -5.32653753E-02 -2.07991416E-02 -4.50226634E-02 -7.20623385E-02
 -1.57809070E-01 -5.39983790E-02 -5.91169359E-02 -9.80676956E-02 -2.85326716E-01
  8.53533238E-02 -2.05360086E-01 -3.05438350E-01  2.37208660E-03  3.30399457E-04
  2.61160730E-03 -1.80190008E-03  4.57420982E-04  1.35812380E-02  2.87868242E-03
  1.42089830E-02 -1.07583677E-02  3.35249452E-03  9.61294782E-03  1.59855864E-02
 -3.72841156E-02  4.43465309E-02 -1.46892040E-02 -5.12534404E-02 -4.89549200E-02
  6.80793299E-02 -2.01221154E-02 -1.51836750E-01 -8.91996174E-02  8.22869559E-02
 -3.31244234E-02 -2.74626112E-01 -5.50611313E-02  3.58550446E-01 -4.65235306E-02
 -9.87210669E-04  2.70025316E-05 -1.17925780E-03 -2.29819436E-03 -2.89156903E-03
 -4.82678049E-03  7.65676194E-05 -6.80464622E-03 -1.22998877E-02 -1.73822344E-02
 -1.20436420E-01 -2.00233900E-01 -1.84962456E-04  5.14024790E-04 -3.17002679E-04
  7.40064193E-01 -2.53383725E-04  7.03684213E-04 -4.35758412E-04  2.19603782E+00
 -1.85776191E-03  3.25993861E-03 -2.10444499E-03 -1.62721248E+00  4.95830686E-04
 -9.06045043E-04  6.07854268E-04  7.45995103E-05 -1.79119984E-05 -1.69661773E-05
 -1.01334565E-05 -3.31588969E-05  1.16648730E-04 -3.46359224E-05 -2.58156299E-05
 -1.80972250E-05 -3.80332823E-05  2.45494627E-02  4.09746235E-02  2.21406637E-02
 -4.48962487E-02  1.12050499E-01 -1.33704872E-01  3.43384029E-02 -6.96422744E-02
  1.73818735E-01 -3.89532985E-01  4.02851426E-02 -8.16255452E-02  2.03703305E-01
  3.54031200E-01  6.05243779E-02 -1.23012261E-01  3.06312822E-01  2.68331763E-03
  1.02153474E-03 -2.07240043E-03 -3.14772418E-04 -4.10674833E-04  1.11847916E-02
  4.25859094E-03 -8.64986440E-03 -1.31663147E-03 -1.71388635E-03  2.46544115E-02
  4.11495606E-02 -1.18718154E-01 -1.57343875E-02 -2.77603812E-02 -1.34265126E-01
 -1.84229599E-01 -2.44105001E-02 -4.30820224E-02 -3.91476353E-01 -2.15768656E-01
 -2.86110986E-02 -5.04500242E-02  3.50342324E-01 -3.28908869E-01 -4.39735124E-02
 -7.67090034E-02 -1.52017698E-03  1.35314162E-03  1.80307522E-04  2.84769299E-03
  7.73155350E-04 -6.34967440E-03  5.64148435E-03  7.55144500E-04  1.18873588E-02
  3.24296120E-03  2.45914868E-02  4.10443208E-02  6.95044222E-02 -5.92053679E-02
 -8.21611289E-02 -1.33923971E-01  1.07822923E-01 -9.18490576E-02 -1.27472161E-01
 -3.90290639E-01  1.26367926E-01 -1.07619623E-01 -1.49322210E-01  3.52586579E-01
  1.91046744E-01 -1.63087251E-01 -2.25591535E-01  6.09448847E-04 -2.34810068E-03
  2.00195265E-03  2.71243807E-04 -1.69683082E-03  2.53193230E-03 -9.79309530E-03
  8.35712004E-03  1.12549346E-03 -7.08749983E-03  2.46663985E-02  4.11689325E-02
  2.71708304E-02  1.19939856E-01 -2.16663811E-03 -1.34321823E-01  4.21516522E-02
  1.86118387E-01 -3.36718399E-03 -3.91627884E-01  4.94169556E-02  2.17954551E-01
 -3.92214253E-03  3.49751165E-01  7.54979700E-02  3.32840237E-01 -5.82974410E-03
 -1.79425950E-03 -2.38136227E-05 -1.04136076E-04 -2.80653627E-03  1.34326699E-03
 -7.49288165E-03 -9.83532647E-05 -4.27073145E-04 -1.17188267E-02  5.61539374E-03
  5.86686269E-07  9.82017736E-07  3.04237762E-04 -5.54175880E-08 -5.10579539E-04
 -3.62131595E-06  6.73197915E-04  1.22032652E-05 -1.12084312E-03 -2.22831299E-05
 -1.71570261E-03 -6.24744667E-05  3.14142157E-03 -2.14687650E-05 -7.46017606E-04
  4.41083573E-05  1.26801851E-03 -8.31326893E-04 -1.51845534E-03 -1.91264910E-03
  4.95956006E-04 -2.77405813E-04 -6.70914833E-03 -1.21841603E-02 -1.59946839E-02
  4.13096897E-03 -2.15870958E-03 -2.12182800E-05 -3.71882193E-05 -3.43657151E-02
 -5.26697641E-02 -1.46899128E-02  1.63984634E-04 -3.51731961E-02 -5.37182855E-02
 -1.50609410E-02 -4.36231418E-04 -1.33492080E-01 -2.05697716E-01 -5.66693859E-02
 -3.41116574E-03  3.51038177E-01  5.40324117E-01  1.51102772E-01  3.45023326E-04
  6.76561386E-04  8.08399696E-04 -4.09989235E-04  1.81545349E-04  4.24714912E-03
  7.05750711E-03  8.73235998E-03  9.32083521E-04  5.35445368E-04 -8.59811964E-06
 -1.50860889E-05 -1.64616964E-02  2.11225197E-02  5.90826771E-02  6.63873980E-05
 -1.67951245E-02  2.15770061E-02  6.04369601E-02 -1.83167701E-04 -6.43453558E-02
  8.22772808E-02  2.29753807E-01 -1.17919375E-03  1.68471277E-01 -2.16525831E-01
 -6.04138388E-01  3.41991495E-04  5.69743340E-04  9.73174897E-04 -1.67564704E-04
  6.21207577E-05  4.23742349E-03  8.72936168E-03  6.03646347E-03 -2.90917387E-03
  2.37053734E-03  2.74850106E-05  4.79840478E-05  5.20520318E-02  3.23309534E-02
  2.00858584E-02 -2.07318549E-04  5.32151563E-02  3.29140512E-02  2.04632738E-02
  4.92707638E-04  2.02348872E-01  1.26667446E-01  7.87652632E-02  4.07017864E-03
 -5.33525883E-01 -3.32184093E-01 -2.05303377E-01  3.38910250E-04  7.38334709E-04
  8.71117179E-04 -2.41452241E-05  1.23104289E-04  4.28282522E-03  6.16836324E-03
  7.74252545E-03 -5.22216743E-03  1.32589405E-03  2.33839274E-06  4.20190772E-06
 -1.38147895E-03 -7.93526675E-04 -6.42239546E-02 -2.05629457E-05 -1.45515893E-03
 -7.82261496E-04 -6.54861617E-02  1.09473838E-04 -5.18812823E-03 -3.27951495E-03
 -2.50757077E-01  5.83080280E-04  1.32250457E-02  8.30649664E-03  6.60021544E-01
  4.80574322E-04  7.91038060E-04  7.03136761E-04 -2.69267813E-04  1.51373156E-04
  2.07049734E-03  5.39355774E-03  1.04920952E-02 -1.35096795E-03  8.80898332E-04
 -2.90533333E-06 -5.94837690E-06 -2.29275108E-04 -4.59446893E-04  2.85357726E-04
  7.17674475E-05 -5.19807573E-04 -9.96487206E-04  6.28860281E-04 -9.79892115E-04
  1.44145430E-03  2.52592665E-03 -1.69190766E-03 -4.06243510E-04  4.11643477E-04
  1.23685190E-03 -7.27819021E-04 -9.87272697E-04  1.04753761E-03 -2.10153266E-04
 -4.57721731E-04 -2.15872889E-03 -8.32756673E-03  8.45698180E-03 -1.57630461E-03
 -4.03621754E-03 -1.76447663E-02  2.50739370E-05  4.34953617E-05  5.38103236E-02
 -2.84637873E-02 -2.16556549E-02 -1.81958048E-04  5.50170717E-02 -2.90448377E-02
 -2.20133996E-02  2.97578828E-04  2.09337398E-01 -1.10924030E-01 -8.51439567E-02
  3.36407395E-03 -5.50542020E-01  2.92744429E-01  2.22209838E-01  3.42778015E-04
 -3.42399802E-04  3.06738538E-05  2.29437229E-04  1.06867168E-03  5.57894566E-03
 -6.73500643E-03  2.19461618E-03  1.18247512E-03  7.90719885E-03  1.16570812E-05
  2.07401753E-05 -2.91156895E-03  6.06651201E-02 -2.27279295E-02 -9.81077791E-05
 -3.02146501E-03  6.20103851E-02 -2.32783541E-02  2.91151474E-04 -1.09446482E-02
  2.36177948E-01 -8.82106079E-02  1.90890675E-03  3.00513129E-02 -6.20770744E-01
  2.32053534E-01  5.79673872E-04 -4.67072495E-04  6.76135165E-05  2.89873594E-04
  8.82156939E-04  1.77182935E-03 -4.76447347E-03  1.54831615E-03  2.03797609E-04
  1.07918596E-02  8.68529706E-07  1.04464318E-06  1.21682415E-02 -4.58255510E-02
  4.33947196E-02  5.42170242E-06  1.24492056E-02 -4.66984989E-02  4.42808799E-02
 -2.19892197E-04  4.73547501E-02 -1.79086088E-01  1.69225491E-01 -4.49532240E-04
 -1.24081603E-01  4.71286422E-01 -4.45540446E-01  2.56822945E-04 -5.06255358E-04
  1.78057055E-04  1.51911723E-04  1.03356413E-03  6.94179877E-03 -4.29447536E-03
 -2.75329986E-04  2.46786883E-03  8.55726749E-03 -2.46929487E-05 -4.30565081E-05
 -6.29342761E-02  1.38408433E-02  8.45092591E-04  1.84317189E-04 -6.42614037E-02
  1.40247197E-02  8.17747180E-04 -4.63308420E-04 -2.45222597E-01  5.47980144E-02
  3.50040438E-03 -3.42377392E-03  6.45447486E-01 -1.42174585E-01 -9.55258290E-03
  5.32636756E-04 -5.87654377E-04  1.27627164E-04  8.37446382E-05  8.85336680E-04
  2.54113510E-03 -2.96294776E-03  5.29220244E-04  3.53917541E-03  1.08367181E-02
 -1.17377532E-05 -2.07454471E-05 -3.94485457E-02  7.86794874E-02  1.12380430E-01
  1.17866730E-04 -8.87298071E-02  1.76967520E-01  2.52763407E-01 -7.70271363E-04
  1.85825780E-01 -3.70453672E-01 -5.29650520E-01 -6.03518087E-04  7.36870806E-02
 -1.46969746E-01 -2.10016653E-01  5.31107269E-04 -7.89237570E-03  8.44236275E-03
  4.78108330E-03 -5.92900706E-03  7.37583620E-03 -1.10228918E-01  1.18006174E-01
  6.67548617E-02 -8.28164407E-02  2.83009214E-03  5.00405765E-03  4.31663785E-02
 -8.71620162E-02  1.89265179E-02 -2.26956225E-02  5.51779267E-02 -1.11288728E-01
  2.31176795E-02  7.24850638E-02  1.09820546E-01 -2.22269164E-01  1.85500612E-02
  3.56601384E-01 -2.67905082E-01  5.43887610E-01 -3.30897243E-01 -6.62366910E-04
  2.50981421E-04 -9.12061316E-04 -1.79602115E-04 -9.24588783E-04 -4.41756249E-03
 -1.56740233E-03 -1.15978500E-03  6.94253706E-04 -6.38885424E-03  1.17963502E-04
  2.08092530E-04  2.14341856E-02 -5.10077532E-02 -7.29107035E-02 -9.33505744E-04
  2.75519183E-02 -6.54345165E-02 -9.35691187E-02  2.79932288E-03  5.91386915E-02
 -1.37343210E-01 -1.96079148E-01  1.45136154E-02 -1.00517105E-01  2.64300346E-01
  3.77667609E-01  6.39505743E-04  9.73331674E-04  9.34580825E-04 -3.50620668E-04
  6.70138403E-04  3.47599282E-03  2.55948572E-03  7.38077630E-03 -3.83860838E-04
  1.60502401E-03 -5.72375700E-03 -1.01218446E-02 -8.89916345E-02  4.71228156E-02
  6.33823348E-02  4.59314020E-02 -1.12712917E-01  5.91443367E-02  7.95241402E-02
 -1.47247431E-01 -1.99097072E-01  9.26128312E-02  1.22908573E-01 -7.21857279E-01
  7.51294390E-01 -4.93610423E-01 -6.74316429E-01  1.76549522E-04  5.17235761E-04
  8.38463356E-05 -2.05003435E-04  3.73545858E-04  1.63365012E-03 -1.86964670E-03
  4.83650101E-03  6.40297127E-04 -1.42316026E-03  2.79949724E-03  4.94956892E-03
  4.71090748E-02  4.57386184E-02 -7.41264203E-02 -2.24373948E-02  6.01439805E-02
  5.74309607E-02 -9.50072913E-02  7.15964563E-02  1.19322531E-01  8.91505861E-02
 -1.99515441E-01  3.52430271E-01 -2.98741850E-01 -4.82475318E-01  3.87921185E-01
 -2.11329208E-04 -8.10976596E-04 -1.08007171E-03  1.74287457E-04  5.73575130E-04
 -1.33643367E-04 -6.56623853E-03 -2.88105954E-03  3.59009806E-03  5.36524969E-04
  7.85218202E-05  1.27054213E-04 -2.27541791E-02 -1.19100054E-01  7.54031376E-02
 -3.30110624E-04 -5.11507744E-02 -2.67846406E-01  1.69580692E-01 -5.33387610E-03
  1.07153185E-01  5.60777317E-01 -3.55432284E-01 -1.83257700E-04  4.26115281E-02
  2.22542161E-01 -1.40933624E-01 -9.67512514E-03 -3.15151326E-03  4.45155542E-03
 -7.40923903E-03  3.71048274E-03 -1.35170878E-01 -4.39989394E-02  6.22601600E-02
 -1.03455630E-01  5.17666865E-02  4.57836707E-03  8.09656774E-03  4.34683556E-02
  1.72770431E-02  9.94176171E-02 -3.67495171E-02  5.54599324E-02  2.29324723E-02
  1.25591465E-01  1.17799007E-01  1.06464629E-01  6.76286453E-02  2.15581301E-01
  5.78688889E-01 -2.97503609E-01  6.30629503E-02 -8.92770690E-01  6.85544004E-04
  6.94198095E-04  5.97604630E-04  8.07334959E-06  8.14739227E-05 -1.38216334E-03
  1.90053311E-03  5.91854395E-03 -1.99742993E-03  1.83683680E-03  8.50963642E-04
  1.50508586E-03 -1.44380254E-02  7.24855035E-02 -5.50196565E-02 -6.83727346E-03
 -1.81350456E-02  9.30774561E-02 -7.05469385E-02  2.19465336E-02 -2.85766863E-02
  1.96659905E-01 -1.45690007E-01  1.08633523E-01  1.50149790E-01 -3.63170992E-01
  3.00582110E-01 -1.85182823E-04  9.59682075E-04  3.77232427E-05 -1.20785912E-04
 -1.33629616E-03 -3.71105391E-03  3.79655859E-03  1.53239394E-03 -3.26306750E-03
 -5.82855906E-03 -2.59399818E-04 -4.57871963E-04  9.62147197E-03  8.09959675E-02
 -4.25409732E-02  2.05912101E-03  1.23800149E-02  1.03784086E-01 -5.46060411E-02
 -6.36117773E-03  2.78329752E-02  2.17168486E-01 -1.16981290E-01 -3.10336791E-02
 -3.77972392E-02 -4.29301784E-01  2.05559732E-01  5.98121893E-04 -8.81613046E-04
 -4.38489451E-04  5.49428602E-04  1.06629221E-03  1.13016709E-04 -5.57421028E-03
 -7.90547400E-04  5.43610035E-04  6.52966551E-03 -5.19452266E-03 -9.18385203E-03
 -2.55409758E-02 -1.02183435E-01 -4.52767131E-02  4.16279761E-02 -3.23055758E-02
 -1.28763030E-01 -5.80831604E-02 -1.32838890E-01 -5.42482224E-02 -2.12226023E-01
 -1.23425944E-01 -6.52326111E-01  2.33516795E-01  9.83308677E-01  2.25928048E-01
  2.73021353E-05 -3.91211557E-04 -7.10451006E-04  4.23334665E-04 -2.58521796E-04
 -4.29257948E-03 -2.98573777E-03 -2.35314218E-03 -2.40002210E-03  8.76860869E-04
 -3.10660383E-05 -6.05153741E-05 -1.35782864E-01 -2.96819207E-03 -4.55909784E-02
  5.36856031E-04 -3.04978329E-01 -6.64937566E-03 -1.02410439E-01 -7.45511203E-03
  6.36877701E-01  1.39416014E-02  2.13945643E-01 -3.76318872E-03  2.54250458E-01
  5.66889910E-03  8.53301762E-02  7.31979901E-03 -4.71564700E-03 -1.49887621E-03
 -1.01813518E-02 -3.41233914E-03  1.02112915E-01 -6.57418513E-02 -2.09216325E-02
 -1.42011270E-01 -4.76256886E-02 -2.73703910E-03 -4.84021641E-03  6.94898047E-02
  3.72925849E-02 -5.91982707E-02  2.19668575E-02  8.93924820E-02  4.73807798E-02
 -7.47888528E-02 -7.05676529E-02  1.93462146E-01  8.79890229E-02 -1.28262536E-01
 -3.42439873E-01 -3.13607134E-01 -2.82176760E-01  5.29788196E-01 -3.26721761E-04
  1.11810593E-03  6.63694875E-04 -7.65601386E-05 -6.94882309E-04  1.71811263E-03
  4.74757746E-03  2.05205061E-03 -3.62809777E-03 -4.78563813E-03  6.08859531E-03
  1.07570750E-02 -1.17330233E-01 -2.51619963E-02 -1.85126696E-02 -4.86132890E-02
 -1.47992721E-01 -3.19279024E-02 -2.31810631E-02  1.52340183E-01 -2.43198167E-01
 -5.82695883E-02 -3.26814154E-02  7.57642788E-01  1.12609331E+00  1.98964503E-01
  2.16879833E-01 -1.91125515E-04  2.92456368E-05  2.15703876E-06  4.07511331E-04
  2.80013417E-04  2.67409817E-03 -2.54045072E-03 -6.13702626E-04 -3.66648539E-03
 -3.29837814E-04 -1.87974225E-03 -3.32480837E-03  4.92574987E-02  3.41496415E-02
  7.38819796E-02  1.51017770E-02  6.36846768E-02  4.33626284E-02  9.41964518E-02
 -4.87973755E-02  1.46184265E-01  8.08019795E-02  1.83370760E-01 -2.35322166E-01
 -1.58245946E-01 -2.58072869E-01 -4.94077021E-01 -8.80224497E-04 -4.36368728E-04
 -1.04825857E-03  4.31440352E-04 -5.53262633E-04 -2.10332549E-03 -4.37645981E-03
 -5.22994612E-03 -8.10981736E-04 -4.39185622E-03 -1.33613490E-03 -2.36363660E-03
  7.65582848E-02 -4.45667748E-02  3.00072884E-02  1.07427590E-02  9.83381332E-02
 -5.65490384E-02  3.84993109E-02 -3.49092721E-02  2.10203411E-01 -1.03785155E-01
  8.05356561E-02 -1.67530243E-01 -3.68350102E-01  3.47482591E-01 -1.56538004E-01
  5.38545959E-04 -1.53309387E-04  5.60636602E-04  4.31148737E-04  1.36553910E-03
  4.60848306E-03 -2.22605453E-03  2.40212693E-03 -1.49529991E-03  6.24647028E-03
 -1.03428110E-02 -1.29397635E-02 -3.59429516E-04 -1.48487446E-04  2.07497839E-05
 -1.42069422E-01 -8.15303313E-04 -2.70401534E-04  8.31410763E-06  5.08279961E+00
  5.89080622E-04  4.59144929E-04 -1.65605995E-04  2.03326547E+00  1.21789830E-04
  3.58142359E-04 -1.52334486E-04 -2.42628965E-06 -9.45573333E-06  4.27313648E-06
 -2.16491472E-05 -3.18578265E-06 -4.13484114E-05 -1.04666555E-04  5.05870148E-05
 -2.51334408E-04 -3.67818549E-05 -1.57160377E-02 -2.65584251E-02 -4.25209870E-03
  9.04669119E-03 -2.24470584E-02  9.67056008E-02 -8.88601248E-03  1.85622547E-02
 -4.61652151E-02  2.29810364E-01  1.49877893E-02 -2.92938985E-02  7.35315867E-02
 -1.87785634E+00  1.60715693E-01 -3.28130747E-01  8.18906006E-01  3.12519401E-03
  1.18857466E-03 -2.40524674E-03 -3.64864726E-04 -4.75720662E-04  6.59759281E-03
  2.51883529E-03 -5.06336134E-03 -7.81281758E-04 -1.01468044E-03 -1.57065179E-02
 -2.65422509E-02  2.34629340E-02  3.16208982E-03  5.43489817E-03  9.66494967E-02
  4.84899434E-02  6.47960902E-03  1.12784343E-02  2.29924247E-01 -7.86570362E-02
 -1.02041530E-02 -1.85644962E-02 -1.87939623E+00 -8.64760296E-01 -1.14709194E-01
 -2.02051919E-01 -1.76514220E-03  1.57665717E-03  2.08479886E-04  3.30821624E-03
  8.89408398E-04 -3.71681492E-03  3.32174786E-03  4.41814685E-04  6.95985119E-03
  1.86695354E-03 -1.57251852E-02 -2.65744844E-02 -1.38257868E-02  1.19816894E-02
  1.65508800E-02  9.67771752E-02 -2.84987386E-02  2.45376747E-02  3.39620008E-02
  2.29667333E-01  4.58089569E-02 -3.84706993E-02 -5.36818563E-02 -1.87800369E+00
  5.06938715E-01 -4.32676735E-01 -6.00719965E-01  7.14832301E-04 -2.73073903E-03
  2.32183130E-03  3.18269408E-04 -1.96347640E-03  1.50610013E-03 -5.77631027E-03
  4.88453132E-03  6.69561428E-04 -4.14375442E-03 -1.57335298E-02 -2.65890262E-02
 -5.31565793E-03 -2.41181086E-02  4.29989709E-04  9.68408527E-02 -1.10131817E-02
 -4.95008257E-02  8.90096342E-04  2.29582059E-01  1.80714617E-02  7.83499960E-02
 -1.46300896E-03 -1.87855617E+00  1.97377863E-01  8.75251640E-01 -1.59822958E-02
 -2.07805762E-03 -2.93595237E-05 -1.25647068E-04 -3.25119657E-03  1.55311438E-03
 -4.37229957E-03 -7.25325062E-05 -2.63292927E-04 -6.85712224E-03  3.28723724E-03
 -2.76349456E-06 -5.46759484E-06 -2.25216389E-02  5.60530328E-02  5.59686052E-02
  3.27518350E-05 -5.71770941E-02  1.42321389E-01  1.42075343E-01  3.61946607E-05
 -5.61726890E-01  1.39802824E+00  1.39556564E+00 -2.87914208E-04 -6.83556191E-01
  1.70103001E+00  1.69844727E+00  1.54772083E-03 -4.91086259E-03  5.01148333E-03
  3.74665341E-03 -4.35558023E-03 -3.34756414E-02  1.06105564E-01 -1.08297708E-01
 -8.09631126E-02  9.40838485E-02 -5.84492940E-03 -9.84060195E-03 -8.70613630E-03
  2.28644770E-02  4.09431712E-02  3.68817356E-02 -1.21666985E-02  3.10855330E-02
  4.31576748E-02  3.66508944E-02 -3.19489012E-03  2.12778388E-02  2.25748994E-01
 -1.01018858E+00  3.47542264E-01 -8.48225116E-01 -5.81283709E-01 -4.65539669E-04
  1.19423602E-03 -2.30930761E-03 -8.66044987E-04 -3.82622059E-04 -7.22954786E-03
 -3.48948029E-03 -4.67253221E-04  1.74511254E-03 -8.56553118E-03 -4.27365902E-04
 -7.19618886E-04 -1.22969885E-02  2.79789635E-02  2.78161047E-02  2.70054649E-03
 -1.45804126E-02  3.45232507E-02  3.43849119E-02  2.62066916E-03 -4.35273880E-02
  7.86319615E-02  7.73004831E-02 -7.40921584E-02  2.96307062E-01 -7.76466611E-01
 -7.76385562E-01  4.12644245E-04  1.65976369E-03  1.49540781E-04 -8.91458290E-04
  1.65547045E-03  5.42797744E-03  1.77236231E-03  9.27542549E-03  2.28178716E-04
  2.77508942E-03  1.70009286E-02  2.86232235E-02 -3.46178571E-02  4.78814261E-02
  5.55331182E-02 -1.07280739E-01 -2.95088553E-02  4.78138734E-02  5.28991950E-02
 -1.06594539E-01 -2.95423469E-01  3.03862650E-01  3.90848274E-01  2.93785329E+00
 -3.04482330E-02 -4.81021821E-01 -3.65655154E-01 -6.02810235E-04  3.00167637E-03
 -1.98848145E-03 -1.07734389E-03  1.99175008E-03  3.51629656E-03 -7.40739601E-03
  1.11932739E-02  1.67678941E-03 -7.73943250E-03 -1.07185837E-02 -1.80464293E-02
 -5.49899555E-03  5.33828519E-02  2.75716176E-02  6.76494398E-02 -1.00156111E-02
  5.15062118E-02  3.42169873E-02  6.70160197E-02  3.28606676E-02  3.65945438E-01
  7.45675967E-02 -1.85296156E+00  3.93509784E-01 -4.00251260E-01 -7.78788983E-01
 -1.19500918E-03  3.96634644E-06 -1.84075518E-03 -1.63738281E-03  1.93344723E-03
  3.72883423E-03 -8.05631289E-03 -2.42651463E-03  9.47188225E-03 -1.71426518E-03
  1.57426078E-06  1.70630140E-06  6.90017245E-03  5.93609265E-02 -5.66793590E-02
  1.29491207E-05  1.75074361E-02  1.50719165E-01 -1.43882881E-01 -2.99847009E-04
  1.71687953E-01  1.48032237E+00 -1.41325735E+00 -7.89476841E-04  2.09120703E-01
  1.80112165E+00 -1.71985007E+00  6.83033470E-03  2.53324634E-03 -3.95890879E-03
  3.43456886E-03 -2.03039045E-03 -1.47571118E-01 -5.47131867E-02  8.55055291E-02
 -7.42196913E-02  4.38401175E-02  1.59030741E-02  2.67746611E-02 -3.54255586E-03
  4.37918741E-02 -6.35379739E-02 -1.00347859E-01 -4.42472252E-04  4.60114271E-02
 -5.84621020E-02 -9.97849664E-02 -6.87785334E-02  2.43630589E-01 -4.78008358E-01
  2.74846157E+00 -1.95847872E-01 -6.11278376E-01  2.64286440E-01 -3.38303705E-03
 -1.64075421E-03  1.54271574E-03 -3.51822526E-04  5.61969014E-04  9.52673356E-03
  1.30999433E-03 -1.17015525E-02  1.35990095E-03 -2.80334276E-03  3.17177880E-04
  5.33713419E-04  4.19508237E-03  2.98467358E-02 -2.82149750E-02 -1.99178849E-03
  4.74866990E-03  3.66972022E-02 -3.48458707E-02 -2.11111578E-03  1.81776170E-02
  8.58847234E-02 -7.89521090E-02  5.46811639E-02 -8.43692624E-02 -8.18376951E-01
  7.84918015E-01 -1.03520228E-03 -1.57960970E-03  4.39492123E-04 -3.58609353E-04
  1.60853153E-03  4.82443396E-03 -5.32981146E-03 -3.88948816E-03  3.93642415E-03
  6.63611943E-03 -2.91005061E-03 -4.89951892E-03  7.44042122E-03  2.62914382E-02
 -3.30760357E-02  1.83664145E-02  6.91932812E-03  3.43053956E-02 -3.80929021E-02
  1.81972889E-02  5.48750120E-02  4.60550553E-02 -1.33969786E-01 -5.02917496E-01
 -3.63627834E-02 -8.67492688E-01  7.11458443E-01 -1.80020526E-03  9.46360068E-05
  1.16288771E-03 -1.00019053E-03 -1.09833447E-03 -4.55692324E-04  7.82771598E-03
 -2.04023260E-03 -7.57854457E-04 -7.95797937E-03 -1.32951886E-02 -2.23847136E-02
  1.06109971E-02  6.11221942E-02 -2.89417730E-02  8.39161854E-02  9.05222009E-03
  5.76135868E-02 -3.53285780E-02  8.30866781E-02  9.03415603E-02  4.39431431E-01
 -8.72105066E-02 -2.29836355E+00  8.16364661E-03 -3.56172377E-01  7.72714361E-01
 -1.93680453E-03  1.07316267E-04  1.58436639E-03 -2.39272097E-03  1.34561200E-03
  1.00276293E-02  5.02947747E-03  3.76253289E-03  7.50488374E-03 -2.95904469E-03
  4.26329394E-05  7.77241887E-05  7.90565927E-02  1.08422238E-02  2.09610879E-02
 -3.67158036E-04  2.00803376E-01  2.75344094E-02  5.32429693E-02 -1.37019082E-03
  1.96998301E+00  2.69921249E-01  5.22468764E-01 -3.34196906E-04  2.39470373E+00
  3.28177886E-01  6.35046929E-01 -3.98726433E-03  3.32429395E-03  6.49493467E-04
  7.34511608E-03  1.90106163E-03  8.59992510E-02 -7.17181517E-02 -1.40041441E-02
 -1.58425414E-01 -4.09762715E-02 -6.46880812E-03 -1.08915706E-02  4.22451575E-02
 -3.30582027E-04  2.47452265E-02  4.08330416E-02  5.04574696E-02  2.82333664E-03
  2.24256311E-02  4.04928401E-02  1.44042404E-01 -4.93532023E-02  1.91263110E-01
 -1.11782183E+00 -1.04587308E+00 -2.33038325E-01 -7.78328114E-02  1.54825352E-03
 -1.53887880E-03 -1.39146380E-03 -1.18822026E-03  2.94861419E-04 -4.82069161E-03
 -6.86392714E-03 -1.55314682E-03  5.83778197E-03  6.16318136E-03  1.81017404E-02
  3.04776366E-02  8.20630474E-02  1.10747652E-02  2.04320213E-02 -1.14275863E-01
  7.72464456E-02  1.04776769E-02  1.95911877E-02 -1.12791035E-01  5.92047103E-01
  7.89723482E-02  1.42035359E-01  3.13599188E+00 -4.64279528E-01 -6.76609781E-02
 -1.42510402E-01  1.92951313E-03 -1.63112568E-03 -2.28336612E-04 -3.57994321E-03
 -9.46418534E-04 -6.96557958E-03  6.39070635E-03  1.11661257E-03  1.30680348E-02
  3.49089782E-03 -5.59931186E-03 -9.42758132E-03  4.70791390E-02 -1.12891887E-03
  1.39322225E-03  3.53434357E-02  5.36844142E-02  2.29371812E-03  6.83247515E-03
  3.50658542E-02  1.98703860E-01 -5.84247195E-02 -7.27131929E-02 -9.67323918E-01
 -9.74360051E-01 -2.44838992E-01 -4.21863315E-01  1.61212360E-03 -4.58438884E-04
  1.47180131E-03 -1.65428249E-03 -2.33392884E-04  1.75059529E-03  8.54603710E-03
  5.18515864E-03  1.39585523E-03  5.92846587E-03 -6.07286144E-03 -1.02248291E-02
  4.27060143E-02  1.97330267E-02  1.01981650E-02  3.83313380E-02  5.07756798E-02
  1.62311640E-02  1.27100658E-02  3.80189015E-02  1.48944962E-01  1.77333711E-01
  2.68017090E-02 -1.04948793E+00 -1.04068132E+00  6.21667631E-02 -2.92447069E-01
 -3.34467629E-04 -3.35934094E-04 -6.25973384E-04 -2.34055815E-03 -1.38419213E-03
 -3.89990022E-03  3.54472979E-03 -2.48076827E-03  5.38004772E-03 -8.93265157E-03
  5.22640536E-10  6.83186401E-09 -1.18266598E-05  3.43491417E-05  6.90454684E-05
 -1.34752095E-06 -2.57388918E-05  8.18407848E-05  1.36527028E-04  6.85430738E-06
 -3.57721988E-04  9.51994669E-04  2.42030979E-03  1.40169411E-05 -3.22028156E-04
  1.04116705E-03  2.13553632E-03  1.89416251E-07 -2.63504012E-06  4.47403502E-06
  2.19229593E-06 -2.75818598E-06  4.43418315E-05  1.19967163E-04 -1.49105215E-04
 -8.52796901E-05  7.48501069E-05 -1.41463151E-05 -2.35263609E-05 -4.83568601E-02
  3.79903024E-03  1.10954048E-02  7.92881579E-05 -4.29670004E-02  3.38998665E-03
  9.86047503E-03  1.93664871E-04 -2.35965302E-01  1.84061841E-02  5.42599759E-02
 -3.06631505E-03  1.21971018E+00 -9.63664914E-02 -2.78390676E-01 -7.55464218E-04
  1.72306757E-03 -1.63379872E-04  5.99244860E-04 -3.38841243E-04 -4.12784921E-03
  9.43111124E-03 -7.72750785E-04  3.12218366E-03 -2.09111167E-03  2.85165825E-06
  4.82189977E-06  1.54142093E-02 -1.55339527E-02 -5.70763647E-02 -1.80859010E-05
  1.36887019E-02 -1.37944130E-02 -5.06898130E-02 -2.10034837E-05  7.52995512E-02
 -7.58571718E-02 -2.78707952E-01  4.48116334E-04 -3.88686501E-01  3.91953277E-01
  1.44005621E+00 -8.78150297E-04 -2.09309836E-03  2.16238821E-04  6.89472173E-04
 -6.52849819E-04 -4.83695552E-03 -1.14912900E-02  8.27991069E-04  3.78598219E-03
 -3.51454676E-03  1.82830293E-05  3.04596644E-05  4.73340233E-02  8.32332140E-03
  3.40920330E-02 -1.04607465E-04  4.20633750E-02  7.39223345E-03  3.02961065E-02
 -2.27963110E-04  2.30864945E-01  4.07297175E-02  1.66480406E-01  3.87244268E-03
 -1.19471896E+00 -2.08999310E-01 -8.58316705E-01  1.64662424E-03  2.90984654E-04
  4.43399898E-04 -1.56242345E-03  4.79697847E-04  9.00466846E-03  1.69733499E-03
  2.70455334E-03 -8.38394150E-03  2.76129618E-03 -6.86612226E-06 -1.15469051E-05
 -1.44204825E-02  3.51136959E-03  1.21102449E-02  4.27218536E-05 -1.28135287E-02
  3.12160682E-03  1.07811049E-02  5.19025053E-05 -7.03520066E-02  1.72066470E-02
  5.89791263E-02 -1.28211632E-03  3.63917157E-01 -8.79254364E-02 -3.05292422E-01
 -1.13636266E-05  8.48619143E-05 -5.03305391E-04  2.69468010E-04  5.15805501E-04
 -4.53924809E-05  3.42887526E-04 -2.73355071E-03  1.48814399E-03  2.83406344E-03
 -2.28649589E-06 -4.02299078E-06  3.55305529E-05  9.83913345E-05  1.22150390E-06
  1.76988818E-05  1.11467315E-04  2.25272951E-04  2.04097947E-05  1.01582595E-04
  6.60266859E-04  2.79718251E-03 -3.00180529E-04  9.10788579E-05  9.46752492E-04
  2.92198987E-03 -1.47723959E-05  2.50891461E-06  1.09208505E-06  6.61324038E-07
  1.02838657E-05 -2.23924944E-06 -1.29455650E-04 -1.33121615E-05  6.67038079E-06
 -2.00770856E-04  9.55621199E-05  8.88239847E-06  1.47253188E-05  3.54605639E-02
  2.30196458E-02  2.20805100E-03 -4.81438228E-05  3.15092739E-02  2.04677049E-02
  1.97160274E-03 -1.33617884E-04  1.73034326E-01  1.12285042E-01  1.06487291E-02
  1.94645495E-03 -8.94539027E-01 -5.80233324E-01 -5.65475479E-02 -9.10457250E-05
 -1.21919056E-03 -6.18336921E-04 -9.87775195E-04  2.73698862E-04 -5.14667844E-04
 -6.74755560E-03 -3.50819771E-03 -5.18418833E-03  1.54285360E-03  7.17787156E-06
  1.20954363E-05  3.86745225E-03 -5.87933855E-02  1.69108545E-02 -4.70562755E-05
  3.43965193E-03 -5.22138570E-02  1.50210718E-02 -1.81791666E-05  1.89808343E-02
 -2.87082314E-01  8.25946659E-02  1.52623370E-03 -9.67851474E-02  1.48345828E+00
 -4.26466479E-01  8.01435010E-04  5.22788786E-04 -4.40997112E-04  7.70411163E-04
 -2.10486682E-03  4.09806916E-03  2.97413240E-03 -2.42393933E-03  4.07395149E-03
 -1.16480676E-02  6.48601034E-06  1.08772137E-05  1.73259074E-02  2.34794313E-02
 -2.22790530E-03 -3.91166453E-05  1.53979677E-02  2.08779006E-02 -1.98816502E-03
 -5.93828680E-05  8.44957856E-02  1.14522970E-01 -1.07780147E-02  1.13876131E-03
 -4.37453700E-01 -5.91922626E-01  5.64460763E-02 -1.89129238E-04  3.09672795E-04
  4.83285091E-04 -1.01356356E-03 -8.69848035E-05 -9.78511832E-04  1.81550126E-03
  2.71632397E-03 -5.45473527E-03 -5.48186301E-04 -2.41774565E-05 -4.04562996E-05
 -5.65762077E-02  1.25803388E-02 -1.69017177E-02  1.44345695E-04 -5.02665954E-02
  1.11807416E-02 -1.50192830E-02  2.48144478E-04 -2.76068366E-01  6.16494164E-02
 -8.24812754E-02 -4.87848278E-03  1.42735269E+00 -3.14757712E-01  4.26128222E-01
 -5.27252272E-04  3.85826685E-04  5.75849484E-04  1.21933762E-03  1.92305359E-03
 -2.58290756E-03  1.96115724E-03  3.21609459E-03  6.59896670E-03  1.06442940E-02
 -2.05042475E-06 -3.63109861E-06 -6.21816731E-06 -2.12007707E-06  2.61747631E-05
  1.67375158E-05 -1.67873991E-05 -2.92376873E-06  7.36021237E-05  5.00010619E-05
 -1.43810288E-04 -1.34807929E-04  4.65239910E-04  8.34779568E-05 -1.84304691E-04
 -1.03385493E-04  7.30683140E-04 -1.36780822E-06 -2.20725622E-06  1.48931993E-06
  3.08877324E-07 -6.37674875E-07  2.76004897E-05  2.52772586E-05 -2.49967557E-05
  1.09790798E-05  2.58192826E-06 -4.34471627E-06 -7.36837426E-06 -7.33678957E-03
  5.21760781E-02  2.23681182E-02  2.90246664E-05 -6.51942610E-03  4.63511405E-02
  1.98748013E-02  2.07091928E-05 -3.57935700E-02  2.54658761E-01  1.09212731E-01
 -7.36920192E-04  1.85153001E-01 -1.31622939E+00 -5.63809303E-01 -1.40372771E-03
  3.50943853E-04 -1.49894035E-03 -1.00401477E-03 -1.62045973E-06 -7.71972029E-03
  1.78380487E-03 -8.26982503E-03 -5.34458870E-03 -2.83700862E-04 -4.99144699E-07
 -8.21947838E-07 -1.15085256E-03 -4.14446588E-04  5.14075729E-03  2.60072592E-06
 -1.02335394E-03 -3.71542784E-04  4.57039280E-03  9.42878598E-06 -5.61757083E-03
 -2.00701671E-03  2.50744455E-02 -1.26987346E-04  2.89716685E-02  1.03677436E-02
 -1.29777635E-01  9.47458063E-05  1.86124971E-04 -2.97820730E-05 -3.41381119E-05
 -6.86172759E-06  5.11066318E-04  1.02228447E-03 -1.31222323E-04 -1.93103285E-04
 -4.65780028E-05  2.86515653E-06  4.87310151E-06 -4.80532006E-03 -4.77159745E-02
  3.03133818E-02 -1.97582320E-05 -4.27065939E-03 -4.23938433E-02  2.69336713E-02
 -4.06739822E-06 -2.34694419E-02 -2.32864957E-01  1.47970408E-01  4.88119479E-04
  1.21031944E-01  1.20362373E+00 -7.64421422E-01  1.65071751E-03 -4.94268963E-04
 -7.80540952E-04  1.16942301E-03  5.54318220E-04  8.92287893E-03 -2.90208759E-03
 -4.23066710E-03  6.33971134E-03  3.28835778E-03  1.30172099E-06  2.22187486E-06
  1.32764987E-02 -4.06025247E-03 -5.77562742E-02 -8.90007236E-06  1.17955198E-02
 -3.60606747E-03 -5.13084934E-02  1.36118697E-06  6.47973265E-02 -1.98396146E-02
 -2.81925964E-01  1.66059135E-04 -3.34880174E-01  1.02373156E-01  1.45677169E+00
 -3.40082035E-04 -4.10463331E-05  2.30744176E-03 -1.30989519E-04 -5.45562490E-04
 -1.71638008E-03  9.26367169E-05  1.26407361E-02 -8.02836788E-04 -2.95910239E-03
 -5.31313437E-02 -9.38830551E-02  5.24827162E-05  7.49263068E-05 -2.96929775E-05
  3.31538681E-01  1.05031781E-04  1.70913894E-04 -6.76432881E-05  1.82429425E+00
  3.87989232E-04  1.12811270E-03 -5.04317804E-04  3.81090312E+00  1.18657354E-03
  4.94133739E-04  5.20395853E-05  1.31541589E-05 -5.13503497E-06 -2.39760929E-06
 -2.86924327E-06 -3.81094731E-06  1.88131564E-05 -1.81868724E-05 -3.10484700E-06
 -5.30470422E-05 -1.74836807E-05 -3.56415196E-03 -5.60700310E-03  1.69573931E-02
 -3.44176385E-02  8.59262465E-02  1.36437582E-02  1.87999416E-02 -3.81365504E-02
  9.52178821E-02  1.53152101E-01  7.84328667E-02 -1.59352285E-01  3.97798646E-01
 -2.15662945E+00 -8.90360619E-02  1.80746494E-01 -4.51492586E-01  1.69982747E-03
  6.45081811E-04 -1.31071630E-03 -1.98610757E-04 -2.58565258E-04 -4.19477156E-03
 -1.58623390E-03  3.22666504E-03  4.95121932E-04  6.32707576E-04 -3.54651089E-03
 -5.57796715E-03 -9.08796236E-02 -1.20257808E-02 -2.12564603E-02  1.35624634E-02
 -1.00729415E-01 -1.33259324E-02 -2.35626395E-02  1.52672123E-01 -4.20707462E-01
 -5.56935082E-02 -9.83858217E-02 -2.15657528E+00  4.76906432E-01  6.30421896E-02
  1.11521684E-01 -9.58623517E-04  8.55318264E-04  1.13162904E-04  1.79718372E-03
  4.84930706E-04  2.37391213E-03 -2.11419141E-03 -2.81051986E-04 -4.43205371E-03
 -1.19085651E-03 -3.56475192E-03 -5.60788755E-03  5.32548905E-02 -4.53634747E-02
 -6.29921907E-02  1.36460725E-02  5.90202814E-02 -5.02663826E-02 -6.98019201E-02
  1.53171748E-01  2.46503764E-01 -2.10036890E-01 -2.91659075E-01 -2.15795848E+00
 -2.79551490E-01  2.37955188E-01  3.30732210E-01  3.88844852E-04 -1.48551980E-03
  1.26645014E-03  1.71883410E-04 -1.07092284E-03 -9.63207245E-04  3.66537965E-03
 -3.12002335E-03 -4.21502542E-04  2.62796329E-03 -3.56220103E-03 -5.60390100E-03
  2.07843362E-02  9.18493651E-02 -1.66997638E-03  1.36440983E-02  2.30376774E-02
  1.01788102E-01 -1.85104934E-03  1.53000087E-01  9.61965321E-02  4.25284247E-01
 -7.73642039E-03 -2.15941465E+00 -1.09070188E-01 -4.81637342E-01  8.73580814E-03
 -1.13324597E-03 -1.51787949E-05 -6.79227124E-05 -1.77329892E-03  8.45433825E-04
  2.79525822E-03  3.96959501E-05  1.70153072E-04  4.36806195E-03 -2.07845208E-03
  1.92231539E-06  4.70673850E-06 -9.11595282E-03 -1.43858999E-03 -1.90424329E-03
 -4.93411996E-05 -6.99593286E-02 -1.10563780E-02 -1.46217994E-02 -1.55568867E-03
  2.85897021E+00  4.52680782E-01  5.97206102E-01 -4.40196718E-04 -8.50628985E-01
 -1.34640239E-01 -1.77741383E-01 -2.34544992E-04  2.29423144E-04  1.98842182E-05
  4.77417397E-04  1.21632369E-04  5.40750153E-02 -5.27330655E-02 -4.80635500E-03
 -1.09772208E-01 -2.79101388E-02 -5.77891126E-03 -9.30257215E-03 -1.55908086E-02
 -2.81377044E-03 -2.48840606E-03  2.20194352E-02  4.99742637E-03  6.61063934E-03
 -1.18840191E-02  2.30943212E-01 -2.08069529E-01 -8.28787525E-02  6.74632926E-02
 -2.29417346E+00  1.17953109E+00 -1.99774756E-01  1.10490478E+00  1.05313470E-03
  7.25783624E-04 -1.43350946E-03  1.06644090E-03  3.29387482E-04 -4.12378032E-03
  1.44248567E-02 -5.32625283E-03  2.38098310E-02  5.34075960E-03  1.90833921E-02
  3.07186259E-02 -1.28835019E-02 -2.11528340E-03 -2.61813902E-03 -7.26885311E-02
 -3.93754664E-02 -5.00178456E-03 -9.40747085E-03 -7.62918678E-01  1.73616877E-01
  1.69017772E-02  4.64339216E-02  7.58341761E+00  4.13195754E+00  5.72669951E-01
  9.41468943E-01  2.41213991E-03 -2.11642365E-03 -3.04541500E-04 -4.42079740E-03
 -1.19236573E-03  2.74922967E-03 -1.47127961E-03 -6.82572800E-04 -3.24253289E-03
 -1.21035664E-03 -6.45567194E-03 -1.03918052E-02 -1.51875727E-02 -2.96446463E-03
 -3.94971178E-03  2.45932910E-02 -1.66762064E-03  9.15759129E-03  1.26362845E-02
  2.58052277E-01 -1.50807042E-01 -1.04748321E-01 -1.42992640E-01 -2.56344510E+00
  1.62275601E+00 -3.69011251E-01 -5.23570016E-01  8.32702152E-05 -7.35467847E-04
  1.77561251E-03  1.20682254E-03 -6.65511091E-04 -9.85251001E-03  4.30005225E-03
  8.10270154E-03  2.54231454E-02  8.30473572E-04 -6.85690041E-03 -1.10375361E-02
 -1.55091827E-02 -1.46580063E-03 -3.31061007E-03  2.61172761E-02  3.80165442E-03
 -1.58619755E-02  1.91056477E-03  2.74157607E-01 -1.97724256E-01  1.10130363E-01
 -5.09323277E-02 -2.72377733E+00  1.26004422E+00  1.29377849E+00  1.88915659E-01
 -2.04310691E-03  6.59531179E-04 -1.70692990E-04 -9.11297782E-04  7.47963017E-04
 -1.86491312E-02  1.18611514E-02  5.54705330E-04  1.46934264E-02  1.05055943E-02
  4.84409990E-06  8.68910504E-06 -1.80119620E-03 -8.42101098E-04  9.25348216E-03
 -4.89330332E-05 -1.37634833E-02 -6.47111317E-03  7.08135661E-02  4.59972052E-04
  5.61608233E-01  2.64093831E-01 -2.88888419E+00 -4.00796617E-04 -1.66958644E-01
 -7.85404384E-02  8.59211700E-01  2.85450204E-04  3.25298423E-04 -4.17312208E-04
 -1.66855318E-05  8.21568578E-05 -6.43173268E-02 -7.32947445E-02  9.32199404E-02
  4.01015534E-03 -1.80849568E-02  1.70245615E-02  2.74034862E-02 -3.58593656E-03
 -5.00709062E-04  1.35040692E-02 -6.48208698E-02  9.31606631E-03 -1.51841312E-02
  3.19249861E-02 -6.80974555E-01 -1.12715608E-01  1.15181684E-01 -1.07669013E-01
  6.76129983E+00 -3.22395638E-01  1.14912905E+00 -3.65149157E+00 -3.91259089E-03
 -1.12491788E-03  2.69846085E-03  5.45455614E-04  1.12213978E-03 -8.96812163E-03
  7.40676724E-03 -2.79165798E-03  1.89552431E-03  7.85668430E-03 -4.95807290E-04
 -7.98465575E-04 -3.15392137E-03 -1.46452154E-03  1.58978437E-02  1.89827068E-03
  2.74213357E-03  8.69249759E-04 -7.45601756E-03  1.97175970E-02 -5.57999985E-02
 -2.27162990E-02  2.30909123E-01 -1.96041033E-01  1.15817137E-01  8.18850451E-02
 -1.03207705E+00  4.89053153E-04  3.79743517E-04 -1.30734382E-03  2.45836756E-04
  3.69180203E-04  1.39501744E-02  1.63155739E-02 -2.12640461E-02 -2.07836733E-05
  4.41152875E-03 -1.37323291E-02 -2.21045679E-02 -1.88822234E-03 -2.45966156E-03
  1.45031257E-02  5.22969229E-02 -1.83186810E-02  1.76048774E-02  1.57279283E-02
  5.49171632E-01  1.25063369E-01 -1.66392773E-01  3.17846005E-02 -5.45323968E+00
  1.51434915E+00 -1.03006766E+00 -2.57343857E+00  1.34139373E-03 -2.41938827E-03
  1.77605348E-03  2.85245945E-04 -2.53719657E-03  1.85982773E-02 -1.33911916E-05
 -6.91639607E-03  9.73552025E-04 -8.18286856E-03 -2.80002194E-03 -4.50735083E-03
 -2.99149069E-03 -1.04339811E-03  1.58940946E-02  1.06691570E-02 -6.70938021E-05
 -6.27266074E-03 -7.61984270E-03  1.11920260E-01 -3.17950800E-02  3.85179982E-02
  2.32237786E-01 -1.11158805E+00  3.01615160E-01  5.55967934E-01 -1.02226093E+00
  2.90011038E-04  1.12889481E-03 -5.61824960E-04 -9.67357491E-04  5.38587114E-04
  1.19983850E-02  1.67557023E-02 -2.06877510E-02 -5.03547752E-03  5.95786486E-03
 -7.52751111E-06 -1.35902063E-05 -1.59929640E-03  9.35095976E-03  5.50072045E-04
  9.49361274E-05 -1.21759390E-02  7.13136313E-02  4.16240428E-03 -1.19128061E-03
  4.96108577E-01 -2.90881190E+00 -1.69562748E-01  3.57260411E-04 -1.47571109E-01
  8.65089493E-01  5.03927835E-02 -3.77834390E-04  1.39795649E-04 -7.92328465E-05
 -3.27764197E-04  3.05293169E-04  8.46528787E-02 -3.11451486E-02  1.74361255E-02
  7.34346583E-02 -6.89268167E-02 -6.45047757E-03 -1.03829432E-02 -2.54266682E-03
  1.56409524E-02  1.84461843E-03  2.45596260E-02 -1.62718502E-03 -1.78502776E-03
 -1.54811914E-02  2.58010991E-01 -1.45354135E-02  1.83118870E-01  1.42909792E-01
 -2.56228330E+00  3.70921831E-01 -1.42074033E+00  9.40121574E-01  1.18823309E-03
  1.10241487E-03 -1.19178657E-03 -9.74095862E-04  7.74128786E-04 -9.80748602E-03
  1.04679596E-02 -1.04288349E-02 -1.75193875E-02  1.44102140E-02  4.49177121E-04
  7.23681043E-04 -2.68046240E-03  1.60167474E-02  9.42752923E-04 -1.72901912E-03
  2.04455347E-04 -7.95291096E-03 -7.20799734E-04 -1.77598679E-02 -3.05950797E-02
  2.36146230E-01  1.58995680E-02  1.77177018E-01  2.47308855E-01 -1.01051674E+00
 -4.22819809E-02 -1.06883031E-03  3.27061338E-04 -4.12703066E-04 -9.13611180E-04
  1.78867234E-04 -1.89122188E-02  6.74478809E-03 -4.17880797E-03 -1.71513340E-02
  1.47715227E-02 -1.16040251E-02 -1.86785622E-02 -1.71146906E-03  1.51457006E-02
 -2.58524175E-04  4.41895277E-02 -1.54165021E-02  6.46709528E-03  1.93723162E-02
  4.64042785E-01  1.03997348E-01  1.12209152E-01 -1.56702640E-01 -4.60945220E+00
  1.28751674E+00 -1.96934695E+00 -1.37759079E+00 -4.67377778E-05 -2.77538592E-03
  2.06383465E-03 -3.09907687E-04 -9.81897278E-04 -1.52291275E-02 -7.29890871E-03
  7.87515492E-03 -1.47295327E-02  5.67658992E-03  1.76100972E-02  2.83473470E-02
 -3.33457543E-03  1.33850433E-02  9.78578297E-04 -6.70885099E-02  1.12472062E-02
  3.60640629E-02 -1.25832564E-03 -7.03965801E-01 -1.25341762E-01 -1.41894131E-01
  2.05731201E-02  6.99470112E+00 -4.84351220E-01 -3.93494126E+00 -5.98997920E-03
  2.28733429E-03  4.77515169E-04  2.75122956E-05  4.24305502E-03 -1.88624046E-03
 -2.88505249E-03  7.31676805E-03 -2.92225450E-03  8.79014588E-03  3.20258515E-03
  6.52798304E-06  1.02867844E-05  4.35430603E-02 -2.40826710E-01 -4.66884087E-02
 -1.14009765E-04  1.26162337E-01 -6.97636287E-01 -1.35275722E-01  1.20291799E-03
 -1.12475620E+00  6.21816849E+00  1.20541913E+00  5.30801828E-05 -1.30939509E-01
  7.23947233E-01  1.40389566E-01  1.26243637E-02 -6.68152212E-03  4.99340422E-03
  1.27021195E-02 -1.18487809E-02 -1.74637095E-01  9.24317342E-02 -6.89727098E-02
 -1.75969668E-01  1.64365233E-01  4.84076857E-04  1.44696877E-03  6.93941056E-03
 -3.79429132E-02 -6.76433647E-03 -2.27469948E-02  7.29179290E-03 -3.16255878E-02
  7.36917207E-03  2.84431653E-01  2.17340372E-02 -2.48651597E-01 -2.49350082E-01
  1.01640106E+00  5.18652977E-02 -5.90326044E-01 -5.88150944E-01 -2.85414199E-03
  1.15041345E-03 -4.59309048E-03 -2.51898195E-03 -4.27601554E-04  1.53714431E-02
 -9.35658046E-03 -8.60895270E-03  1.65960417E-02 -2.70633780E-02 -5.83074844E-06
 -1.96393605E-05  6.83048816E-03 -3.77069245E-02 -7.30883879E-03  3.42420902E-04
  5.00923829E-03 -2.65598897E-02 -5.10754157E-03 -4.31321401E-03  5.55644251E-02
 -3.23690825E-01 -6.33672600E-02 -1.45179922E-02  1.32064151E-01 -7.67787936E-01
 -1.50277454E-01 -4.75376975E-04  1.17221414E-03  8.91686481E-04 -2.35072021E-03
  5.43461815E-03  2.49428754E-02 -9.37616386E-03  1.43438015E-02  1.73112262E-02
 -2.70143134E-03  1.56268605E-03  4.67120932E-03  7.93917974E-03 -3.86612993E-02
 -8.61462022E-03 -7.34337627E-02  2.98804561E-02 -4.79509892E-02 -3.48037514E-02
  9.18152907E-01 -3.14574528E-01 -5.54910656E-03  3.78913114E-01  3.28005544E+00
 -7.40126759E-01 -1.79986211E-02  8.91118600E-01 -1.67719478E-03 -1.08227487E-03
  3.75416525E-03 -2.68259570E-03 -2.69490375E-03  2.01710737E-02 -1.95462541E-02
  2.68820757E-02  1.60493043E-02 -3.70030253E-02 -2.04152770E-03 -6.10142469E-03
  6.24477384E-03 -4.02325873E-02 -7.26705304E-03  9.58983364E-02 -7.96063914E-03
 -8.30430974E-02 -4.12170565E-03 -1.19903988E+00  2.48360242E-01  5.16543103E-01
 -7.81225564E-02 -4.28262190E+00  5.85918949E-01  1.21152189E+00 -1.84888019E-01
  2.21922220E-03  2.32876702E-04 -1.15813823E-03  4.75512198E-03  2.88358023E-04
  3.69073067E-02 -1.32534197E-02  5.89453723E-03  4.80457125E-02 -2.46726216E-02
  5.43083939E-06  1.05340337E-05  6.56952644E-02  5.71393770E-02 -2.33393107E-01
 -2.39712926E-05  1.90343594E-01  1.65547912E-01 -6.76353438E-01 -2.51947693E-04
 -1.69639692E+00 -1.47563043E+00  6.02775966E+00 -1.20308939E-04 -1.97551151E-01
 -1.71792145E-01  7.01969644E-01 -1.16481576E-02 -1.24505695E-02  1.51232276E-02
 -2.79256449E-03 -2.01597835E-03  1.61058880E-01  1.72414625E-01 -2.08958958E-01
  3.86750719E-02  2.77528891E-02 -2.02181259E-03 -6.04052810E-03  9.84103948E-03
  9.86624188E-03 -3.88570976E-02  9.49117840E-02 -3.02971881E-03  2.72475814E-02
 -7.80665113E-02 -1.18656807E+00  2.41644393E-01 -2.35132414E-01  4.65225062E-01
 -4.24141580E+00  5.71022548E-01 -5.52539378E-01  1.09141197E+00 -4.72466775E-03
  9.82282483E-04  2.23826202E-03  9.25430822E-04 -5.23217146E-05 -4.55877698E-02
 -2.28572152E-02  4.24317803E-02 -1.95814072E-03 -4.33410478E-03 -1.66574236E-04
 -4.93492637E-04  1.04996383E-02  8.98229674E-03 -3.65397372E-02  7.68908616E-03
  1.17487238E-02  6.91627010E-03 -2.47867470E-02 -9.59730171E-02  2.15684025E-02
  6.78927563E-02 -3.28947775E-01 -3.43938585E-01  5.18985114E-02  1.61169936E-01
 -7.80308763E-01  2.89353048E-03  5.11399608E-03 -6.86822556E-04 -1.00693685E-03
 -1.17254140E-03 -1.27250950E-02 -5.26807469E-03  2.93755391E-02 -1.02456292E-02
 -9.20881344E-03  1.50643992E-03  4.50463117E-03  1.13428463E-02  8.06046853E-03
 -3.78243579E-02 -7.08399341E-02  3.14084232E-02 -1.42580451E-02 -5.44024561E-02
  8.85864947E-01 -2.71766911E-01  3.83503051E-01  1.12557884E-01  3.16556206E+00
 -6.38957668E-01  9.03840508E-01  2.60550941E-01  4.46606679E-03 -3.13890945E-03
  8.17347580E-04  1.55975653E-03 -1.27049004E-04 -6.10164987E-03 -4.02826702E-02
  3.62882859E-02  5.70992872E-04 -5.40573410E-03  6.75535283E-04  2.02020633E-03
  1.04758156E-02  9.77037176E-03 -3.65935788E-02 -3.17729072E-02  1.14787155E-02
  2.50003435E-02 -2.61497983E-02  3.97388988E-01  2.53334073E-02 -2.01679041E-01
 -3.08518098E-01  1.41990889E+00  6.07539924E-02 -4.73856184E-01 -7.30796539E-01
 -7.12731235E-05 -2.31913279E-04 -5.71032845E-03 -8.59221487E-04  1.80379276E-03
 -2.53706474E-02 -2.74591857E-02  8.57738953E-03 -9.94791081E-03  3.36013035E-03
 -5.41510486E-05 -9.59383661E-05 -2.36376452E-01 -2.85124891E-02 -7.34896306E-02
  6.38304471E-04 -6.84618789E-01 -8.25535054E-02 -2.12884998E-01 -4.11088316E-03
  6.10730772E+00  7.36141601E-01  1.89898289E+00  2.31129586E-04  7.10477109E-01
  8.56665921E-02  2.20922459E-01 -1.05939600E-02  7.81437096E-03  2.26680552E-03
  1.81661821E-02  4.74352756E-03  1.46593355E-01 -1.08256657E-01 -3.13495779E-02
 -2.51726297E-01 -6.57359448E-02 -8.94910688E-04 -2.68421180E-03 -3.72823781E-02
 -4.08234493E-03 -1.24858152E-02  4.23452679E-02 -3.08146159E-02  6.15276895E-03
 -3.13871095E-02 -5.30187614E-01 -2.48782973E-01 -1.77558778E-01  2.49203681E-01
 -1.89544476E+00 -5.90047836E-01 -4.18669334E-01  5.85634101E-01 -7.48960344E-04
 -5.30724942E-03  6.83041709E-05 -2.28567353E-03  1.37676565E-03 -2.61950014E-02
 -5.63261440E-03  5.51646315E-03  2.92795702E-02  1.59348885E-02  2.27492746E-03
  6.77950619E-03 -3.97864007E-02 -4.82636890E-03 -1.21651364E-02 -1.06256044E-01
 -8.79865570E-02 -1.13318586E-02 -2.26025954E-02  1.32790075E+00  6.03611644E-01
  8.35242484E-02  1.16778508E-01  4.75079707E+00  1.42029667E+00  1.96281597E-01
  2.74560716E-01 -2.00211750E-03  2.34865288E-03  2.13530483E-04  4.06391992E-03
  1.04548272E-03 -3.16267165E-02  2.70580637E-02  5.80743816E-03  5.69749861E-02
  1.48440202E-02 -6.36378456E-04 -1.91081644E-03 -3.75026542E-02 -4.10452656E-03
 -1.10418049E-02  3.01776871E-02 -3.64691594E-02  5.59049457E-03  3.97429303E-03
 -3.78037253E-01 -1.63807597E-01 -1.69141065E-01 -2.80541920E-01 -1.35140504E+00
 -3.89812140E-01 -3.98727174E-01 -6.61862934E-01  3.25033663E-03  2.01511874E-03
  8.18012559E-04 -4.26416697E-03  1.79205943E-03 -9.14190445E-03  2.53421419E-02
  7.94187103E-03  2.09752927E-02  1.78110098E-02 -7.09214048E-04 -2.12603499E-03
 -3.72561342E-02 -5.28647315E-03 -1.15172405E-02  3.35221729E-02 -3.06309257E-02
 -2.28163765E-02 -7.79188083E-03 -4.19821867E-01 -2.51031143E-01  2.55939586E-01
 -1.04128561E-01 -1.50124809E+00 -5.94954401E-01  6.02315749E-01 -2.46456683E-01
  1.83276272E-03 -7.73849417E-04 -1.59862286E-03 -1.51278099E-03 -5.26276292E-03
 -1.46837313E-02  1.34392045E-02 -1.79239035E-03  3.28866332E-02 -1.19140747E-02
 -1.90603891E-05 -3.96930586E-05 -4.97114547E-06 -4.47158229E-06  2.13785686E-05
  4.74077991E-04  2.27912061E-05  9.80143289E-07 -5.84929831E-06 -2.31902529E-03
  1.31291910E-03  8.21207774E-04 -3.93377878E-03 -2.69502712E-04  5.50390275E-05
  4.24762228E-05 -2.10557390E-04  6.03902421E-03  3.25432075E-02  2.78141005E-02
 -1.08447078E-02 -1.18180069E-02  1.69409962E-01  9.15605930E-01  7.84375509E-01
 -3.05724249E-01 -3.33043366E-01 -9.19401436E-07 -3.17556940E-07 -7.21705787E-02
 -4.72295920E-02 -4.70011457E-03 -4.74649115E-05 -1.26122066E-01 -8.25239450E-02
 -8.23198996E-03  1.02302017E-03 -2.11653740E-01 -1.38253261E-01 -1.43791446E-02
  4.54374362E-03 -5.13075386E-02 -3.26574083E-02 -4.92544125E-03 -8.21403342E-04
 -8.88145459E-03 -4.98255919E-03 -5.80250872E-03  2.16221594E-03  1.16349262E-03
 -2.41375652E-02 -3.03249774E-03 -5.11621249E-02  1.57733354E-03  8.74215275E-07
  1.96908078E-06 -1.83523880E-02 -9.61156040E-03  8.38707803E-02 -2.38282791E-05
 -3.20653924E-02 -1.67955943E-02  1.46561211E-01  2.44732902E-04 -5.36809681E-02
 -2.81748784E-02  2.46187768E-01  1.22031617E-03 -1.24570084E-02 -6.73347065E-03
  5.93245499E-02 -5.06067356E-03 -1.05685182E-02  5.08279263E-04  2.00001530E-03
  1.11878319E-03 -2.75418945E-02 -3.55029555E-02  3.41171090E-02  1.56701671E-03
 -5.46862113E-03  1.20903271E-07 -2.15000240E-07  5.55085011E-02  6.61930977E-02
 -7.69008099E-04  2.36610525E-05  9.70135513E-02  1.15656856E-01 -1.36160504E-03
 -6.35588526E-04  1.62961293E-01  1.93971101E-01 -2.52987735E-03 -2.94495806E-03
  3.98803687E-02  4.60811034E-02 -1.24182284E-03  5.66926242E-04 -4.01980661E-03
 -5.40449820E-03  9.81009405E-03  9.70574649E-04  1.04543257E-02  8.73201518E-03
 -5.85868372E-03  5.42941979E-02 -6.46421133E-03  4.15767437E-08  1.54554864E-07
  3.50315640E-02 -9.34803938E-03 -7.84145624E-02  1.43280481E-06  6.12177804E-02
 -1.63220486E-02 -1.37027634E-01 -1.74937085E-04  1.02813426E-01 -2.73551901E-02
 -2.30098622E-01 -8.77001314E-04  2.47806568E-02 -6.24399174E-03 -5.51749516E-02
  8.21939988E-04 -7.39218988E-04 -1.08121761E-02  2.06089217E-03  4.53990556E-03
  1.22048744E-02  3.08720401E-02 -4.23207903E-02  1.95926304E-03  1.76193474E-02
  2.98077321E-05  6.21806965E-05 -7.34843425E-06  2.52817160E-05 -8.57014518E-07
 -7.45118572E-04 -4.54498115E-05  4.41780199E-05 -6.10352697E-06  3.64801176E-03
  4.52323018E-04 -3.75361567E-03 -1.75573565E-05  4.23678813E-04  5.18241173E-05
 -2.29685256E-04  2.68226297E-06  2.14408303E-02 -5.01050661E-03  1.77746632E-02
  2.93631745E-03  3.62983606E-02  6.04362761E-01 -1.41190600E-01  5.00627178E-01
  8.34566559E-02  1.02170717E+00  1.63280759E-06  1.92038993E-06  4.48407855E-02
 -6.50748451E-02 -3.48966298E-02  2.14415750E-05  7.83623792E-02 -1.13720674E-01
 -6.09856871E-02 -5.16996561E-04  1.31492604E-01 -1.90939977E-01 -1.02006031E-01
 -2.11141298E-03  3.17188332E-02 -4.60232994E-02 -2.38175353E-02 -7.72701129E-03
  5.43482250E-03 -6.55864495E-03 -2.41895807E-03 -2.17950558E-03 -2.85897628E-02
  3.11939930E-02 -2.46849195E-02 -1.30864200E-02  2.52863470E-02 -1.56465308E-06
 -3.26543346E-06 -1.28817561E-02  8.51700543E-02  6.94292492E-03  3.14547945E-05
 -2.25131546E-02  1.48826656E-01  1.21317886E-02 -2.22934674E-04 -3.80019131E-02
  2.49963701E-01  2.03384959E-02 -1.12908845E-03 -9.57761329E-03  6.00973473E-02
  4.77877250E-03  1.03454252E-03 -9.81239182E-04 -2.12691606E-03  4.09609456E-03
 -1.09353246E-02  3.06420920E-02 -1.21599650E-02  5.23014742E-03  3.08847652E-02
 -3.38479891E-02  2.39786142E-06  3.08203726E-06  4.46686470E-02 -3.67242367E-02
  6.41712875E-02  2.27748153E-05  7.80605756E-02 -6.41778952E-02  1.12143794E-01
 -6.64565881E-04  1.31164709E-01 -1.07907479E-01  1.87859420E-01 -2.70011867E-03
  3.20831960E-02 -2.62492297E-02  4.45054218E-02 -1.09292137E-02  7.23890848E-04
  1.75972027E-04  1.46560702E-03 -4.54490703E-03 -5.02064221E-02 -6.11904801E-04
  2.07458957E-02  1.31558384E-02  9.32516276E-03 -2.34867067E-06 -3.68322571E-06
 -7.66514790E-02  1.66448033E-02 -3.62210828E-02 -5.87095084E-06 -1.33950234E-01
  2.90654308E-02 -6.32970984E-02  6.78024861E-04 -2.24900508E-01  4.84917985E-02
 -1.06228530E-01  2.88914828E-03 -5.44068169E-02  1.07114399E-02 -2.55251912E-02
  1.67484301E-03 -1.45186279E-03 -4.71286066E-03 -5.32660839E-03 -9.34557046E-03
  3.49291358E-02 -1.53244603E-02 -1.22426804E-02 -3.27536985E-02 -2.31125351E-02
  8.66769101E-02  1.89735840E-01 -1.49440803E-05  7.06481462E-06 -7.62428647E-06
 -2.67552554E+00 -5.04055153E-04  1.53196599E-04 -1.81487640E-04  1.44058733E+01
  9.86022083E-04  1.00403525E-03 -3.75818250E-04  1.73282714E+00  8.97036004E-05
 -3.63175829E-05  4.13460577E-05 -1.37021323E-05  5.62092475E-06  2.94277936E-06
 -3.47720128E-06 -4.47359675E-06 -6.02418203E-04  6.33085419E-04  1.09025958E-05
  4.95848914E-04 -2.27291058E-04  1.01241761E-02  1.60421510E-02  3.19019617E-03
 -6.54952070E-03  1.63772040E-02 -1.61560624E-02  3.11914868E-03 -6.42049016E-03
  1.60784701E-02 -9.53554267E-01  1.29569168E-01 -2.63728454E-01  6.58636854E-01
 -2.94709268E+00  1.85856079E-01 -3.77226412E-01  9.42175855E-01  9.20423210E-04
  3.39098378E-04 -7.07833579E-04 -1.07784046E-04 -1.35374619E-04 -7.29668644E-02
 -2.76916896E-02  5.62029621E-02  8.54396362E-03  1.10893260E-02  1.01241378E-02
  1.60417741E-02 -1.72863420E-02 -2.31186842E-03 -4.02987291E-03 -1.61265952E-02
 -1.70084662E-02 -2.29112341E-03 -3.95843635E-03 -9.54823089E-01 -6.97032825E-01
 -9.22660650E-02 -1.63001549E-01 -2.94933909E+00 -9.97200906E-01 -1.31693362E-01
 -2.33406300E-01 -5.18724769E-04  4.58166897E-04  6.17182545E-05  9.67393766E-04
  2.65620372E-04  4.11744001E-02 -3.67632457E-02 -4.86032918E-03 -7.71846982E-02
 -2.07583031E-02  1.01255486E-02  1.60439220E-02  1.01234698E-02 -8.62095503E-03
 -1.20167516E-02 -1.61471611E-02  9.93085411E-03 -8.43983360E-03 -1.17955886E-02
 -9.53756195E-01  4.07801982E-01 -3.47498548E-01 -4.82924283E-01 -2.94750314E+00
  5.83668975E-01 -4.97101557E-01 -6.90707709E-01  2.16279197E-04 -8.00044624E-04
  6.84969090E-04  9.22555335E-05 -5.73956914E-04 -1.66996014E-02  6.37422838E-02
 -5.42766795E-02 -7.36564908E-03  4.58692828E-02  1.01286921E-02  1.60488373E-02
  3.96332769E-03  1.74663290E-02 -3.25113276E-04 -1.61475332E-02  3.90903129E-03
  1.71243506E-02 -3.22514224E-04 -9.54300274E-01  1.59031057E-01  7.03671149E-01
 -1.29207202E-02 -2.94843020E+00  2.27566486E-01  1.00667186E+00 -1.84855021E-02
 -6.12257430E-04 -6.89719792E-06 -3.82448557E-05 -9.54047997E-04  4.54751926E-04
  4.85382468E-02  6.87578096E-04  2.92669287E-03  7.59926453E-02 -3.62003608E-02
  1.58587929E-05  3.66502061E-05  1.05324219E-02 -1.13466159E-02  6.81658760E-02
 -3.25163692E-04  5.28478780E-02 -5.67170408E-02  3.40934641E-01 -1.45317032E-03
  9.76215664E-01 -1.05290738E+00  6.32506785E+00 -9.07588427E-06  1.16730621E-01
 -1.25898996E-01  7.56269581E-01 -1.27623692E-02 -6.89346588E-03  1.25627446E-02
  4.19140674E-03  9.29918973E-05  1.73492978E+00  9.41145800E-01 -1.70397731E+00
 -5.71013275E-01 -1.45534663E-02  2.03736284E-02  3.40656496E-02  1.09263243E-02
 -2.86675449E-02  4.63199365E-02 -6.26621551E-02  3.04782205E-02 -7.96031693E-02
  1.29694202E-01 -2.87145967E+00  3.15581531E-01 -5.87171857E-01  1.67536468E+00
 -5.21962138E+00  2.79469477E-01 -6.65174806E-01  1.27374759E+00  1.17739536E-02
  4.43554843E-03 -6.78311396E-03 -1.24635495E-03 -3.27391631E-04 -6.69976391E-02
 -1.56410212E-02  4.91385107E-02 -4.65365235E-03  2.56878513E-02 -7.19240881E-03
 -1.20268712E-02  2.67351869E-02  1.15960445E-02 -3.52808622E-02  2.21475506E-02
  7.42913903E-02  3.18941467E-02 -9.63128481E-02  1.01431463E+00  5.46913243E-01
  5.21627422E-03  4.73303801E-01  1.84323720E+00  6.21065025E-01  2.06205512E-01
 -4.94777212E-01  9.70243549E-04 -9.32702495E-03 -5.33326645E-03 -1.61559307E-03
  2.28404872E-03  2.94739007E-02  2.27082001E-02 -8.04860157E-02  4.04340406E-02
  2.82996196E-02 -1.02110197E-02 -1.70740061E-02 -3.43826229E-02  3.08702103E-02
 -1.02844294E-02  3.14307225E-02 -9.50039592E-02  8.51911686E-02 -2.70350456E-02
  1.43888592E+00 -3.54043449E-01  2.89200268E-01  8.41438440E-01  2.61524863E+00
 -7.03338121E-01  6.22275302E-01  4.82328887E-02 -5.97212080E-03  5.90536968E-03
 -7.02683515E-03 -1.08109171E-03 -3.82050349E-03  5.47258600E-02 -1.94608849E-02
 -2.45174878E-02 -1.58518784E-02 -7.55440002E-02 -2.97626131E-03 -4.97705414E-03
 -9.79222056E-03 -6.77276608E-03 -4.29296887E-02  9.17663804E-03 -2.69230114E-02
 -1.89817896E-02 -1.17377146E-01  4.19291003E-01  8.86695953E-03 -2.65079765E-01
  3.60972455E-01  7.61947091E-01 -1.70610740E-01 -1.91525059E-01 -6.57564141E-01
  4.55567941E-03  5.12275294E-03  7.98924343E-03  2.33692887E-04  1.78799366E-03
  6.45168771E-02  5.65326484E-02 -2.45182443E-02 -4.67992177E-02  2.09265101E-02
  3.83147736E-05  8.81416203E-05  6.47851770E-02 -2.25389605E-02 -1.37199448E-02
 -7.15093148E-04  3.24489120E-01 -1.12648387E-01 -6.85306531E-02 -3.64485355E-03
  6.00763252E+00 -2.09142013E+00 -1.27350495E+00  2.00742329E-05  7.18268892E-01
 -2.50042779E-01 -1.52248940E-01 -9.04927879E-03  1.18614991E-02 -5.23733658E-03
  7.45829411E-03  8.93737153E-03  1.22949034E+00 -1.61490675E+00  7.09805598E-01
 -1.01295398E+00 -1.21540738E+00  2.19132224E-03  3.66363553E-03 -3.90397054E-02
  1.04221783E-02  1.83217326E-02 -6.73037457E-03 -1.06777656E-01  2.83391133E-02
  5.04371899E-02 -3.08824159E-01  3.67594146E-01 -1.74455009E-01  6.95947492E-02
 -5.61818454E-01 -5.88795374E-01  1.35654898E-01  3.42084108E-01 -2.26227673E-03
  6.19111431E-03 -6.34174812E-04 -1.85765283E-03 -8.12527109E-03  1.33963480E-02
 -3.59689159E-02  3.72756865E-02 -4.20700026E-02 -7.73304188E-02 -1.68677788E-02
 -2.82055103E-02  3.73546040E-02  2.46279865E-02  2.69781621E-02  5.19281769E-02
  1.04864917E-01  6.77445694E-02  7.44503410E-02  2.37915430E+00  1.49369627E+00
  3.39244286E-02  1.97988392E-01  4.32331567E+00  1.06625847E+00  4.43844175E-01
  5.30730378E-01  7.68835111E-03 -2.13554100E-03  3.36198021E-03 -1.00503203E-02
  6.74722970E-04 -6.30295694E-03  9.16766780E-03  5.05886845E-02  7.75604980E-02
  3.08706466E-03  1.69046072E-02  2.82657545E-02  4.96863420E-03 -2.49159377E-02
 -4.57137366E-02 -5.20122764E-02  1.51083430E-02 -6.94711438E-02 -1.26871265E-01
 -2.38221314E+00  1.01703945E+00 -6.94749843E-01 -8.73280886E-01 -4.33048131E+00
  3.65420840E-01 -6.28571650E-01 -1.04433215E+00 -1.00313344E-03 -9.72553169E-03
  2.55378372E-03  1.76611679E-03 -8.45893652E-03  4.14046419E-03  3.04122927E-02
 -7.57811825E-02 -4.30491094E-02  1.33049567E-02 -2.23500974E-03 -3.73807785E-03
 -4.33469285E-02  3.82065617E-03  8.90200392E-03  6.91731585E-03 -1.18661526E-01
  1.01232767E-02  2.43177634E-02  3.14381382E-01  3.04721079E-01 -2.72525823E-01
 -6.88976309E-02  5.70978529E-01 -6.80957147E-01 -6.88781584E-03  1.37637139E-01
  3.60620956E-03 -4.86744978E-03 -6.20478393E-04  3.55043054E-03  7.97877434E-03
  4.67497901E-02 -7.95945605E-02  2.14183918E-02 -4.02276236E-02  3.68077354E-03
  1.30088937E-05  2.94728096E-05  2.42504963E-02  6.52241011E-02  7.12880327E-03
 -1.92344258E-04  1.21635030E-01  3.26424464E-01  3.57197690E-02 -1.37284202E-03
  2.24736063E+00  6.04883392E+00  6.60823817E-01  3.71532036E-05  2.68674728E-01
  7.23122153E-01  7.89986578E-02  7.14027614E-03  4.17247579E-04  1.85531821E-03
  1.70124355E-02 -6.41474313E-03 -9.69647756E-01 -5.80563934E-02 -2.51669537E-01
 -2.31341365E+00  8.76802288E-01 -3.87469899E-03 -6.47899592E-03 -1.86424323E-02
 -3.44608686E-02 -2.15141617E-02  1.19278091E-02 -5.11581682E-02 -9.40202205E-02
 -5.93955661E-02  5.45996718E-01  7.77432099E-02  4.41951386E-01 -2.13670692E-01
  9.92267240E-01 -3.08281812E-01 -4.86713575E-01 -4.37360361E-01  2.00698230E-03
  4.57236569E-03  9.12420101E-03 -7.54333467E-04  2.59703288E-03  9.69557873E-03
  3.21639089E-02  6.37832755E-03 -8.92150795E-02  3.76026315E-02 -9.93853209E-03
 -1.66185383E-02  3.08198432E-02 -3.51266706E-02  6.27731969E-03  3.05816139E-02
  8.59076951E-02 -9.59155879E-02  1.75523423E-02  1.40218704E+00  8.07290811E-01
  4.32124672E-01  1.96568661E-01  2.54806329E+00  7.64151501E-01 -5.02691970E-01
  1.64640870E-01 -8.67151635E-04 -1.13339687E-03 -3.36547531E-03 -5.92429254E-03
 -9.28632338E-03 -8.84196387E-02  3.75553099E-02 -1.84620163E-02 -1.48910368E-02
  1.35070808E-02 -6.71223948E-03 -1.12239129E-02 -3.35481911E-02 -2.57429196E-02
  1.70988481E-02  2.06737453E-02 -9.23929540E-02 -6.98790953E-02  4.74467167E-02
  9.45587882E-01 -1.41996092E-01  5.70626443E-01  3.55898498E-01  1.71857254E+00
 -6.30501087E-01 -2.97668613E-01  3.98015867E-01 -1.19512019E-03 -3.91203825E-03
 -8.05704853E-03  2.66541834E-03  5.78916938E-03 -2.59761362E-02 -7.25189477E-02
 -1.27629846E-03 -6.33312332E-02  1.97994794E-02  2.05286615E-02  3.43275051E-02
  6.38304257E-03  5.49714530E-02 -6.27095859E-03 -6.32312023E-02  1.81979351E-02
  1.53602402E-01 -1.72084659E-02 -2.89289655E+00  4.47858760E-01  1.75973673E+00
  1.12996973E-02 -5.25818257E+00  2.35437210E-01  1.44943675E+00 -1.07467489E-01
 -6.31102375E-03  1.11685498E-04  6.45093016E-04 -1.11040637E-02  6.61675245E-03
  5.89917077E-02  1.16439571E-04  1.47929916E-03  5.84636552E-02 -2.97849483E-02
 -3.18194912E-06 -1.48036183E-05  1.62585642E-03 -1.44417463E-02 -2.18608465E-03
  1.52628736E-04 -8.24130548E-02  7.29406867E-01  1.10412385E-01  1.54965269E-03
 -4.58602821E-01  4.05524371E+00  6.13708475E-01  3.42336936E-04 -5.61212142E-02
  4.96818341E-01  7.51695764E-02 -4.54373544E-02  1.98699965E-02 -1.51389535E-02
 -4.91866648E-02  4.10033140E-02 -5.08883431E-01  2.22879474E-01 -1.68850044E-01
 -5.51897234E-01  4.62590103E-01 -7.22314573E-03 -1.22403538E-02  2.19050086E-04
  5.96326434E-02  5.88099592E-02  3.97042683E-02  4.06808035E-03  1.92360302E-01
  2.13330505E-01  3.71023201E-01 -5.70182259E-02 -4.28163944E-01 -8.12352451E-01
  7.52377835E-01  1.16443344E-02 -1.64313061E-01 -6.78763107E-02 -6.85817605E-03
 -4.75530369E-04  1.18686206E-05 -2.47827322E-03  1.61238436E-03  2.02552583E-02
 -1.84888305E-02  6.84684909E-03  3.51024273E-02 -3.44389203E-02 -1.53792832E-03
 -2.60703071E-03 -1.93220604E-02  7.64295112E-02  9.33847408E-03  8.48479285E-03
 -6.83351580E-02  2.54685679E-01  3.02855222E-02  7.86614229E-02  2.37729207E-01
 -6.83188520E-01 -6.97712553E-02  1.59906471E-01  3.00169112E-02 -1.82351172E-01
 -2.55210929E-02 -1.25696670E-03  7.05596973E-04  2.08273038E-05 -3.50298612E-03
  4.03268210E-03  3.78369335E-02 -1.50869432E-02  1.56208520E-02  3.33013991E-02
 -1.88865132E-02 -1.88639430E-02 -3.19659230E-02  6.67502422E-02  1.36994900E-02
 -7.81144124E-02  1.03662067E-01  2.50299053E-01  2.24142522E-02 -2.93286744E-01
  9.69132924E-01 -1.05679230E+00  2.61224446E-01  1.24301751E+00  1.96481844E+00
 -4.64830918E-02 -1.24979189E-01  4.96072119E-02 -4.76428458E-03  9.35078557E-03
 -6.19284316E-03 -4.17517050E-03  6.37053861E-03  2.70926294E-02  4.80651471E-03
  3.64980074E-03  3.01840946E-02 -2.54142049E-02  2.76239431E-02  4.68079160E-02
 -5.17869999E-02 -1.13339773E-01  1.54890681E-02 -1.51720363E-01 -1.88562859E-01
 -4.47653229E-01  5.29978000E-02 -1.42005873E+00  7.27091559E-01  2.16921893E+00
 -1.61348032E-01 -2.87848065E+00  5.97511661E-02 -1.51991183E-02 -2.99185473E-02
 -1.03122232E-02  5.52096420E-04 -1.59043440E-03 -1.49015567E-02  8.79804243E-03
  1.88358349E-02 -1.67307664E-02  8.52660861E-03  1.40022280E-02 -1.51703275E-02
  3.52587088E-06  3.26097967E-05 -1.40153644E-02 -2.21491647E-03  4.12458143E-03
 -4.19751895E-04  7.04014201E-01  1.11150131E-01 -2.08159386E-01 -5.98039928E-03
  3.91765557E+00  6.18065487E-01 -1.15761181E+00 -8.86726196E-04  4.80585139E-01
  7.58401908E-02 -1.41726521E-01  1.21196403E-02 -4.94113702E-02  2.41410980E-02
 -5.63219656E-02 -2.12259624E-02  1.36353412E-01 -5.58694316E-01  2.68814941E-01
 -6.30703435E-01 -2.35267864E-01 -4.17700548E-03 -7.07905190E-03  7.99843822E-02
  9.03846177E-04  4.82160760E-03  2.29915220E-02  2.69031668E-01 -9.15815442E-04
  2.59236506E-02  2.14056732E-01 -7.55530851E-01  5.66753712E-02 -2.05386436E-01
  4.34328497E-01 -1.83820863E-01 -1.91253673E-02  2.88562850E-02 -7.76481885E-04
 -5.09905974E-03  2.04990510E-03 -2.59393659E-03  3.95068724E-04 -9.92273585E-03
  2.45686008E-02 -1.84053395E-02  4.20640660E-02  2.27247539E-02 -2.58709025E-02
 -4.38400553E-02 -1.02107206E-01 -1.19061308E-02 -6.32209157E-02  1.42156592E-01
 -4.05068157E-01 -4.82428625E-02 -2.26089666E-01  1.33016834E+00  1.98485895E+00
  2.48249102E-01  8.19856825E-01  2.69993203E+00 -1.99587350E-02 -8.67498338E-03
  9.13449152E-02  6.74585280E-03 -9.20030085E-03  7.52099303E-06 -1.46423653E-02
 -4.14324485E-03  1.33314716E-03  2.02921382E-02 -2.16871283E-02  2.04665310E-02
  1.07054583E-02  1.93393036E-02  3.27724726E-02 -2.05938880E-03  7.86853245E-02
  6.94022848E-02 -1.06297197E-01 -3.49150636E-02  2.86709416E-01  2.64972440E-01
 -9.93636824E-01  4.82155876E-01 -1.10831395E+00 -1.17715743E+00 -2.01574615E+00
 -1.06642966E-01 -8.30929921E-02 -2.97846929E-02  3.01761961E-03 -8.92146720E-03
  8.75678689E-03 -2.96444835E-03 -6.44629456E-03 -2.68427280E-03  2.79077640E-02
  3.81629954E-04  3.80903381E-02  5.63594788E-03  1.06742605E-02  1.80884684E-02
  5.91327495E-02 -6.21741088E-02 -2.14465203E-02 -5.86628564E-02  1.91480535E-01
 -2.34336462E-01 -7.11530089E-02 -5.48564667E-01 -4.36377090E-01  1.00464699E+00
  1.86611493E-01 -1.11294567E+00 -1.59148142E-01  3.66788693E-02  4.85385389E-02
 -2.83173375E-03 -1.80497192E-03  1.56948730E-03 -8.52741586E-03 -7.30526155E-04
 -1.64949873E-02  4.03520642E-02 -1.55156445E-02  2.82768392E-02  9.51131682E-03
  4.34479161E-06  2.70851919E-05 -4.42089699E-03  1.61635616E-03 -1.39831192E-02
 -3.23548500E-04  2.21545019E-01 -8.15104371E-02  7.03645526E-01 -3.90441571E-03
  1.23371525E+00 -4.53717307E-01  3.91572550E+00 -6.73003952E-04  1.51487475E-01
 -5.55858348E-02  4.79952045E-01  5.47092955E-02  2.22407133E-02 -4.99261147E-02
 -2.82818967E-02 -2.50462848E-03  6.15561177E-01  2.53631095E-01 -5.57260451E-01
 -3.18732507E-01 -2.89185131E-02  2.84812004E-02  4.82658294E-02 -1.21816433E-02
  6.56541124E-02 -1.09210605E-01 -1.56595298E-01 -5.38193342E-02  2.46000868E-01
 -4.31444373E-01 -1.46288240E+00  3.27378238E-01 -1.03656749E+00  2.09166625E+00
 -2.96845523E+00 -2.11759555E-02 -4.26062355E-02 -1.32058438E-02  1.50402220E-02
  5.48788542E-03 -1.27389929E-02 -3.02438340E-03 -2.08809873E-03 -1.82746742E-02
 -9.47425673E-03  1.59406854E-02  1.75380963E-02 -2.07317859E-03 -1.44942592E-02
 -2.45609216E-02 -7.55333377E-02 -2.19027254E-02  5.15010912E-02  7.96177790E-02
 -2.88121057E-01 -7.78866076E-02  1.63555362E-01  7.45613247E-01  1.27785881E+00
  2.76828683E-01 -3.26492833E-01  1.51332435E+00  3.30890473E-02  3.18978383E-02
 -1.58270440E-01  6.88038725E-03 -3.61412968E-04 -2.24436207E-03 -8.62950126E-03
 -2.54973949E-03 -3.07754868E-02 -1.27701530E-02  3.99055933E-02  5.79224136E-03
 -4.81770297E-03 -1.22652371E-02 -2.07849264E-02  7.24458755E-02 -5.11717254E-02
  1.69991682E-02  6.74283994E-02  2.59739461E-01 -1.86085031E-01  3.57006112E-02
  6.29888724E-01 -9.49830995E-01  7.14449595E-01  1.94120237E-01  1.27781368E+00
 -1.00792711E-01  5.48600654E-02 -1.25168909E-01  3.10006192E-03  5.76191814E-03
 -5.91635009E-03 -2.07720393E-03  4.70144777E-03 -3.42183247E-02 -7.89208566E-03
  3.28775271E-02  1.90600053E-02  1.59432582E-02 -1.73642297E-03 -2.94216469E-03
  2.62104810E-02  3.34688324E-03  7.57990606E-02  9.53247782E-03  8.85172528E-02
  1.55288155E-02  2.53098692E-01  8.92915987E-02 -2.53524315E-01 -1.02214056E-01
 -6.85907005E-01  1.80903572E-01 -5.87712914E-02  1.02210418E-02 -1.72727515E-01
  2.81241731E-03  3.14859713E-04 -4.66713845E-03 -6.27569395E-04 -1.31143420E-03
 -4.19731916E-02 -2.07864072E-02  2.55120878E-02  2.23642866E-02 -3.29683640E-03
  2.41284389E-06  6.62193099E-06  4.07950358E-05  8.57627504E-05  1.70557529E-05
 -1.45150902E-05 -1.50513769E-03 -2.43976498E-03 -6.08801513E-04 -5.06499074E-04
 -7.99837875E-03 -1.45645892E-02 -3.33303521E-03 -1.32606720E-04 -1.04742434E-03
 -1.50927699E-03 -4.12137466E-04  2.85280885E-03 -4.74643591E-04  2.47158477E-03
  6.44452139E-04  4.57980066E-03  4.17319176E-01 -7.48102066E-02  3.60799585E-01
  5.27153981E-02  6.89606705E-01  2.14443448E-06  4.01192950E-06 -5.48120271E-02
  8.57709963E-02  4.51620083E-02 -2.19807648E-05 -1.86376394E-01  2.91655141E-01
  1.53563215E-01 -6.26486480E-05  5.54022712E-01 -8.67319917E-01 -4.56513742E-01
 -7.55487928E-04 -2.37902509E-01  3.75565113E-01  1.97720073E-01 -7.16844207E-03
  5.02008819E-03 -6.21592503E-03 -2.52494769E-03 -1.19501456E-03 -1.17825873E-02
  1.02860603E-02 -1.01995810E-02 -5.31550245E-03  4.03645100E-03  8.01260986E-05
  1.37154353E-04  1.77997261E-02 -1.09596391E-01 -1.25953024E-02 -4.91250994E-04
  6.07096058E-02 -3.72642171E-01 -4.27834407E-02 -3.44100125E-03 -1.82541680E-01
  1.10776489E+00  1.26737224E-01 -7.89012717E-03  7.59510293E-02 -4.76899997E-01
 -5.51827783E-02  1.38280256E-03 -1.41608309E-03 -1.62817722E-03  4.26099134E-03
 -9.94904280E-03  6.99662271E-03 -3.85724161E-03 -1.63230142E-04  9.59134432E-03
 -1.51970950E-02  2.90277640E-05  4.97766055E-05 -6.02989853E-02  4.42897554E-02
 -8.26727673E-02 -1.76132644E-04 -2.05075080E-01  1.50633299E-01 -2.81073249E-01
 -1.37521257E-03  6.10135674E-01 -4.48419951E-01  8.35067607E-01 -3.84727800E-03
 -2.61018218E-01  1.94084981E-01 -3.61104672E-01 -1.03132702E-02  4.68823812E-04
  4.65742920E-04  1.88076549E-03 -3.59625981E-03 -1.86815778E-02  2.88685418E-04
  4.40183587E-03  4.35385896E-03 -1.21672166E-03 -1.10414900E-04 -1.87703606E-04
  9.72465439E-02 -2.05745111E-02  5.00825982E-02  6.26161742E-04  3.30752277E-01
 -6.97113324E-02  1.70301076E-01  5.40274428E-03 -9.84394454E-01  2.04061851E-01
 -5.06386099E-01  1.29321478E-02  4.24087061E-01 -9.26691081E-02  2.18923029E-01
  2.27523167E-03 -1.56652149E-03 -4.58191021E-03 -5.10349929E-03 -8.26814943E-03
  8.93012658E-03 -4.18219768E-03 -6.63133319E-03 -1.09956418E-02 -1.14289860E-02
 -1.66715040E-06 -4.55634816E-06 -8.47532782E-05 -3.72947907E-05  1.67140788E-04
  7.68200766E-06  2.76102572E-03  1.15605384E-03 -5.36301891E-03  3.68137636E-04
  1.55175827E-02  6.65580067E-03 -3.05854957E-02  9.40184602E-05  1.81377405E-03
  7.35802286E-04 -3.48206427E-03  4.29194186E-04  3.81130304E-03  3.97157414E-03
 -1.58741418E-03 -1.80326223E-03  9.92244316E-02  6.24813667E-01  5.28165080E-01
 -2.12282239E-01 -2.52377228E-01 -1.98941797E-04 -3.39234198E-04  9.55720121E-02
  5.76612448E-02  5.19305231E-03  1.16870410E-03  3.25059703E-01  1.95898764E-01
  1.80932283E-02  9.21539656E-03 -9.67209521E-01 -5.80396741E-01 -5.90532852E-02
  2.17970486E-02  4.13367907E-01  2.53548795E-01  1.90467792E-02 -5.10580969E-04
 -8.26774004E-03 -3.96691200E-03 -5.96674746E-03  1.91569610E-03  1.06088246E-04
 -1.17942250E-02 -4.07920453E-03 -1.49793228E-02  1.90917736E-03 -6.72304970E-05
 -1.14969438E-04  2.29555571E-02  1.62193260E-02 -1.08570935E-01  4.07971963E-04
  7.78956495E-02  5.51285787E-02 -3.69193707E-01  2.93467579E-03 -2.29790972E-01
 -1.63629239E-01  1.09777438E+00  6.94182598E-03  1.00710639E-01  7.02968936E-02
 -4.69442604E-01 -4.94280642E-03 -9.72126501E-03  1.27217291E-03  1.54480949E-03
  1.15157267E-03 -9.70488061E-03 -1.50543299E-02  7.43604610E-03  1.53179034E-03
  2.29130970E-04  1.89826763E-04  3.23174571E-04 -7.00309354E-02 -8.62245534E-02
  4.14666704E-03 -1.09921351E-03 -2.38392914E-01 -2.92984734E-01  1.44049511E-02
 -8.91599080E-03  7.11914879E-01  8.68710107E-01 -4.66136650E-02 -2.06611068E-02
 -3.03018266E-01 -3.80367204E-01  1.67886844E-02  1.06696607E-03 -3.28339415E-03
 -4.61535931E-03  9.43308301E-03  7.23988269E-04  3.50749509E-03 -7.92593758E-04
 -5.48001098E-03  1.88030676E-02 -7.35624731E-04  7.53660479E-05  1.28041042E-04
 -4.83668675E-02  1.24025313E-02  9.89871153E-02 -4.27739211E-04 -1.64513447E-01
  4.19976286E-02  3.36605338E-01 -3.61429467E-03  4.89833317E-01 -1.22773756E-01
 -1.00122740E+00 -8.39230826E-03 -2.12162608E-01  5.62498094E-02  4.35345143E-01
  8.62554953E-04  1.29986379E-04 -9.87533801E-03  1.90923775E-03  4.50969566E-03
  3.08713918E-03  6.68526076E-03 -1.69845073E-02  2.30624823E-03  7.55318482E-03
 -6.91645804E-04 -3.02059424E-02 -2.68475099E-06  1.07969562E-05 -5.81907792E-06
 -1.40082333E-02  3.28507132E-04  8.34605591E-05  1.01452814E-05  7.55033762E+00
  4.46274169E-03  6.85721618E-04  4.29267483E-04  2.21001859E+00  3.44008570E-04
  8.61633339E-05  3.49950984E-06 -1.03162952E-05  1.20712008E-05  5.66213660E-08
  1.77839405E-05  1.47654292E-06  3.48427531E-04 -2.92313786E-04 -2.18648764E-06
 -5.53203956E-04 -2.70059978E-04  1.72309626E-02  2.94823153E-02 -1.86409879E-02
  3.80018461E-02 -9.48698672E-02 -1.07188189E-01 -7.25226446E-02  1.47752498E-01
 -3.68893361E-01 -5.97998634E-01  2.89658684E-01 -5.89636707E-01  1.47226440E+00
 -2.23054745E+00 -2.73285594E-02  5.56683878E-02 -1.38965221E-01  7.30641586E-03
  2.76869170E-03 -5.62745806E-03 -8.54543771E-04 -1.10960707E-03  1.43349912E-02
  5.44638948E-03 -1.10399374E-02 -1.66850917E-03 -2.16747062E-03  1.72049822E-02
  2.94356176E-02  1.00269515E-01  1.32322674E-02  2.34641355E-02 -1.06974676E-01
  3.89897995E-01  5.14527193E-02  9.12455417E-02 -5.96836133E-01 -1.55550770E+00
 -2.05406257E-01 -3.63986918E-01 -2.22734123E+00  1.47669994E-01  1.94950096E-02
  3.45620015E-02 -4.11606853E-03  3.67520560E-03  4.85515414E-04  7.71680227E-03
  2.07524195E-03 -8.07317686E-03  7.23616669E-03  9.46994320E-04  1.51796768E-02
  4.05541650E-03  1.72306553E-02  2.94810789E-02 -5.86945199E-02  5.00671173E-02
  6.95606794E-02 -1.07158416E-01 -2.28258674E-01  1.94663564E-01  2.70466550E-01
 -5.98365025E-01  9.11327251E-01 -7.76949997E-01 -1.07946971E+00 -2.23101513E+00
 -8.59539306E-02  7.32573392E-02  1.01832576E-01  1.67591536E-03 -6.38012054E-03
  5.43533083E-03  7.37678550E-04 -4.59262048E-03  3.28520557E-03 -1.25175617E-02
  1.06563561E-02  1.44933196E-03 -8.98961769E-03  1.72230278E-02  2.94665420E-02
 -2.28186431E-02 -1.01294079E-01  1.86692932E-03 -1.07062188E-01 -8.87623984E-02
 -3.93863214E-01  7.25947601E-03 -5.98502910E-01  3.54641554E-01  1.57217740E+00
 -2.89335508E-02 -2.23071003E+00 -3.34972545E-02 -1.48343855E-01  2.72388319E-03
 -4.85887148E-03 -6.71009985E-05 -2.94310101E-04 -7.60629910E-03  3.62090442E-03
 -9.51372856E-03 -1.43460717E-04 -5.80539048E-04 -1.49115494E-02  7.08490303E-03
 -3.30258896E-08 -4.84469266E-07 -2.22384855E-05  1.27760276E-05 -6.34623408E-05
 -1.90145990E-06  9.24006832E-05 -4.06265742E-05  2.31649079E-04  1.33081358E-04
  3.62610956E-06  4.51988313E-04 -1.32825112E-03  3.25181762E-05  4.21866548E-05
 -1.06576025E-04  3.67770465E-04  3.11010699E-05  2.42207503E-05 -2.29473246E-05
 -3.51523980E-06 -3.85058501E-06 -2.59983176E-04 -3.40542068E-04  1.00343856E-04
  4.83946108E-05  1.10187045E-04 -7.15117572E-06 -1.45227119E-05 -1.55277709E-01
 -4.00571415E-02  1.44636916E-02  1.08847490E-04 -4.78199701E-01 -1.23358290E-01
  4.45244155E-02  2.10707951E-04  1.08548330E+00  2.80101559E-01 -1.01213929E-01
  1.50151520E-03 -8.97706629E-01 -2.31320053E-01  8.30083662E-02 -1.93016777E-04
  1.66433979E-03  7.23905424E-04  3.99758289E-05 -8.66218387E-04 -1.73061261E-02
  7.16394068E-02  5.58019869E-03  5.51144761E-02 -6.17243069E-03  4.28871713E-06
  8.39045492E-06  2.69172524E-02  5.83281901E-02 -1.48143770E-01 -6.18644069E-05
  8.29034273E-02  1.79633381E-01 -4.56213616E-01  5.05648678E-05 -1.88181819E-01
 -4.07757637E-01  1.03553316E+00 -3.27983391E-04  1.55493047E-01  3.37230807E-01
 -8.56510081E-01 -3.97591307E-04 -1.65836586E-03 -5.38205302E-04  3.75326571E-04
  8.68749441E-04 -5.05557239E-02 -6.87967191E-02  3.02610237E-02 -1.44222625E-03
  1.97709930E-02  2.65435291E-06  5.37099479E-06  7.43922329E-02 -7.24121500E-03
  6.80104776E-02 -3.74661984E-05  2.29115415E-01 -2.22926085E-02  2.09435228E-01
 -1.60013484E-04 -5.20047586E-01  5.04611273E-02 -4.75444055E-01 -7.80623386E-04
  4.30223605E-01 -4.20532998E-02  3.92948450E-01  8.42548696E-04  2.01811279E-04
  5.76458228E-04 -2.89209615E-04  6.66843063E-04  4.76147633E-02  1.21257487E-03
 -2.77282513E-03 -3.21769461E-02  7.25689747E-03  5.84377054E-07  1.21305914E-06
  5.39258485E-02 -1.09705118E-02  6.54437862E-02 -5.88310457E-06  1.66091685E-01
 -3.37773508E-02  2.01536048E-01 -1.56660007E-04 -3.77052251E-01  7.67788063E-02
 -4.57386012E-01 -5.34494494E-04  3.11818443E-01 -6.32032207E-02  3.78392684E-01
 -2.46109924E-04 -2.02537462E-04 -7.63962606E-04 -1.30490202E-04 -6.71989709E-04
  2.01722531E-02 -4.08367998E-03 -3.29790750E-02 -2.15109862E-02 -2.08757153E-02
 -1.80539571E-08  4.76529661E-07  2.82517797E-05 -3.45687387E-05 -1.24616526E-05
  3.50552664E-06 -1.09409500E-04  1.10291574E-04  4.26267431E-05 -1.67615096E-04
  2.66034408E-04 -1.13912972E-03 -4.46447657E-04 -4.14029414E-05 -8.26198106E-05
  2.75464778E-04  1.16782516E-04 -1.45468131E-05  1.60671905E-05 -1.08788877E-05
 -2.07257481E-05  2.16709754E-05  4.04075346E-05 -1.55292701E-04 -2.01513949E-05
  2.02237257E-04 -3.36237010E-04  8.67406464E-07  1.76025795E-06 -1.87907386E-03
  6.23077104E-02  2.53277093E-02 -1.44466412E-05 -5.78526866E-03  1.91872008E-01
  7.79934652E-02  2.15768106E-05  1.31145936E-02 -4.35436582E-01 -1.77003884E-01
 -1.70092843E-05 -1.08608038E-02  3.60247333E-01  1.46445574E-01 -4.71762861E-04
 -1.32382008E-04 -5.95329931E-04 -1.23404167E-04 -3.18877700E-04 -2.10444258E-02
  5.44862613E-03 -2.25835011E-02 -2.16833630E-02  6.27428917E-03 -3.93576319E-06
 -7.54642256E-06  3.20104994E-02 -1.48567581E-01 -5.28202469E-02  5.34496135E-05
  9.85664568E-02 -4.57551039E-01 -1.62669387E-01 -9.49608260E-05 -2.23749262E-01
  1.03861596E+00  3.69236189E-01  8.64515506E-05  1.85097732E-01 -8.59058445E-01
 -3.05390552E-01 -6.37102347E-04 -3.74814324E-04 -8.16334268E-04  3.36715687E-04
 -1.65705945E-03  1.69543581E-02 -3.29479493E-02  2.92457543E-03  4.40064778E-02
 -7.22954862E-02  3.84989327E-06  7.92604538E-06  1.09822202E-01  5.50086392E-02
  5.31023019E-02 -5.96782353E-05  3.38232419E-01  1.69398940E-01  1.63532221E-01
 -1.87397018E-04 -7.67725698E-01 -3.84559149E-01 -3.71339718E-01 -1.05364519E-03
  6.35156728E-01  3.17824681E-01  3.06654119E-01  7.28945441E-04  7.52391174E-04
  1.03301203E-03 -7.40866644E-04  3.31330400E-04  3.22772931E-02  6.06320662E-03
  1.16955790E-02 -6.81579191E-02  6.27818741E-03 -1.51248372E-06 -3.22042902E-06
 -1.39885113E-01  3.10976762E-02 -2.56720564E-02  1.99168196E-05 -4.30834425E-01
  9.57511442E-02 -7.90742430E-02  3.24566094E-04  9.77991763E-01 -2.17549424E-01
  1.79563338E-01  1.16465796E-03 -8.08904154E-01  1.79314252E-01 -1.48398367E-01
  3.79675464E-04 -2.41843532E-04  3.79848122E-04  5.27770987E-04  1.65023783E-03
 -2.81179125E-02  2.14037144E-02  8.03363083E-03  4.58969718E-02  5.97427070E-02
 -1.19510239E-07  1.85784108E-07 -6.30182364E-06  1.51331664E-05  7.85642137E-06
  5.55141777E-06  2.31469700E-05 -5.89868957E-05 -3.36344761E-05 -1.52250158E-04
 -2.19785957E-05  1.78329826E-04 -1.46384963E-04 -3.59845767E-05  4.19523925E-06
 -7.26361529E-05  2.42798797E-05  4.52787624E-06 -1.86861501E-06 -5.40200428E-06
  4.78822979E-06 -3.61806651E-06 -3.86795358E-05  2.36965613E-05  4.28620946E-05
 -3.29545694E-05  2.77417444E-05  6.21668365E-07  1.21604965E-06 -3.35553903E-02
  1.30725885E-01  5.89553229E-02 -1.11061951E-05 -1.03337517E-01  4.02599793E-01
  1.81557908E-01  9.31351799E-05  2.34545142E-01 -9.13863551E-01 -4.12167261E-01
  2.55896484E-04 -1.94010945E-01  7.55822585E-01  3.40738708E-01 -1.08532938E-03
  2.15599362E-05 -1.18646980E-03 -2.69352403E-04 -8.69340489E-04 -4.99914712E-02
  2.56514887E-02 -4.90787574E-02 -3.77213210E-02  1.27752652E-02  1.81006729E-07
  3.99717269E-07 -2.43581890E-03  1.29904287E-02  3.05762227E-03 -4.18770714E-06
 -7.50066430E-03  4.00078966E-02  9.41306809E-03  1.24818548E-05  1.70283141E-02
 -9.08154602E-02 -2.13430742E-02  9.59407351E-06 -1.40876893E-02  7.51242366E-02
  1.76935082E-02  4.94116053E-05  1.56213731E-05  6.30394273E-05 -2.47628413E-05
  1.46714876E-04 -1.88705781E-03  2.12156096E-03  5.99193183E-05 -3.69975783E-03
  6.23733608E-03 -2.14125823E-06 -4.12332447E-06 -1.22979738E-02 -1.30113564E-01
  8.32791625E-02  2.95993302E-05 -3.78743778E-02 -4.00720549E-01  2.56468568E-01
 -3.62885262E-05  8.59905305E-02  9.09615405E-01 -5.82157364E-01  4.42800159E-05
 -7.11066079E-02 -7.52257646E-01  4.81472495E-01  8.92263643E-04 -9.41434141E-04
 -4.62784160E-04  6.80194803E-04  1.19366224E-03  6.81293651E-02 -8.71695795E-03
 -3.11275241E-02  4.66312711E-02  7.61339421E-03  5.02425045E-07  1.17293210E-06
  4.82800944E-02 -1.35579356E-02 -1.45294835E-01 -1.21042936E-05  1.48695828E-01
 -4.17521996E-02 -4.47477189E-01 -1.68049121E-05 -3.37540458E-01  9.47806039E-02
  1.01575681E+00 -1.47854912E-04  2.79174959E-01 -7.83190804E-02 -8.40069083E-01
  1.44249657E-04  9.02621590E-04  1.58667510E-03 -3.84835980E-04 -4.72315082E-04
 -1.62600701E-02 -1.90625008E-02  8.01805647E-02 -5.21585107E-03 -2.66230323E-02
 -2.53055956E-06 -7.89402646E-06 -3.20359972E-02 -2.83497377E-03  8.58642603E-02
  5.95656146E-05  6.25632477E-02  5.53568783E-03 -1.67856235E-01  4.68992953E-04
 -9.14668194E-01 -8.11661891E-02  2.45115135E+00  1.38793113E-04  3.18517093E-01
  2.81562761E-02 -8.53863518E-01 -1.15617872E-02 -1.98683045E-02  2.22621914E-02
 -1.66834298E-03 -6.68149250E-03  2.09172958E-01  3.59657708E-01 -4.02471087E-01
  3.01226318E-02  1.20723608E-01 -2.80320975E-03 -5.99381633E-03 -4.38477612E-02
 -3.78242678E-03  1.16985765E-01  6.79704239E-02 -1.41157135E-01 -1.65256398E-02
  3.92527863E-01 -8.09370636E-01  4.45418853E-01 -1.14204204E-01 -6.30644620E-01
 -1.91984303E+00 -7.13596977E-02 -3.67748277E-01  1.51229950E+00 -3.55784885E-03
 -5.33412958E-04  2.08044493E-03  4.41090387E-04  4.75863514E-04 -7.93684653E-02
  2.47560082E-02  1.52906791E-02  1.56229265E-02  2.53915051E-02 -4.51506005E-04
 -9.65715465E-04 -4.36684876E-02 -3.86677204E-03  1.17185800E-01  1.09640122E-02
 -1.44408480E-01 -1.28630076E-02  3.82322740E-01 -1.30847193E-01  3.09328722E-01
  2.46517360E-02 -1.01240047E+00 -3.10548752E-01 -3.89155102E-01 -4.08907519E-02
  6.12096963E-01  9.08201382E-04  9.30302273E-04 -4.15678980E-04 -7.55377668E-04
 -5.38430234E-05  4.92783940E-02  6.77493743E-02 -5.40800330E-02 -1.89162068E-02
  1.11635833E-02  2.82576015E-03  6.04110607E-03 -4.35298712E-02 -3.99261902E-03
  1.17074385E-01 -6.84804517E-02 -1.48699907E-01 -7.49692636E-03  3.90106173E-01
  8.15316850E-01  1.42722007E-01  2.28274947E-01 -7.27158819E-01  1.93362235E+00
 -7.80741529E-01  4.38342441E-01  1.28615140E+00  1.47451552E-03 -2.80308718E-03
  2.07495076E-03  5.22513226E-04 -1.82545870E-03  6.55698522E-02 -4.13873468E-02
  1.53874879E-02  1.84471545E-02 -3.75497925E-02  4.28619979E-04  9.16963120E-04
 -4.37128627E-02 -3.82803658E-03  1.17221493E-01 -1.04243608E-02 -1.43182244E-01
 -1.42203866E-02  3.82939947E-01  1.24747249E-01  3.58724478E-01 -2.75761966E-02
 -9.97298098E-01  2.96171825E-01 -2.73677983E-01 -1.63853248E-01  6.50034922E-01
 -8.47017402E-05  2.37246711E-04 -1.32181202E-03 -3.87412857E-04  6.78937039E-04
  1.99782992E-02  4.41253396E-02 -8.34968271E-02 -7.11967119E-03  3.30832552E-02
  4.23560963E-06  1.33815642E-05  2.39376260E-02  8.77442638E-02  1.18251676E-02
 -1.02840626E-04 -4.66746756E-02 -1.71330887E-01 -2.30944598E-02 -8.07632480E-04
  6.84234383E-01  2.50469330E+00  3.37594481E-01 -2.60417749E-04 -2.37670266E-01
 -8.72386470E-01 -1.17511233E-01  1.30317489E-02 -1.23478605E-03  4.07810087E-03
  2.71722431E-02 -1.20739499E-02 -2.35687503E-01  2.21698720E-02 -7.37722969E-02
 -4.91739536E-01  2.18564372E-01  6.52809198E-04  1.39474655E-03  3.26873723E-02
  1.19743540E-01  1.61893580E-02 -1.57674214E-02  1.06273946E-01  3.92084262E-01
  5.04776659E-02  1.86756086E-01 -2.94875688E-01 -9.85960614E-01 -2.22230653E-01
  4.42422470E-01  1.40963521E-01  7.41144250E-01 -1.10181365E-01  1.05076604E-04
  4.81670994E-05 -1.34128728E-03 -1.02333461E-03  9.18790641E-05 -2.38373308E-02
  2.50654503E-03 -4.83856753E-02 -8.25207347E-02  2.55844403E-02  1.39196904E-03
  2.97953738E-03  3.25026305E-02  1.19690004E-01  1.60886272E-02 -3.39197034E-02
  1.11676754E-01  3.91681005E-01  5.38380899E-02  4.06451631E-01 -8.25358044E-02
 -9.93573772E-01 -9.15502299E-02  9.65423714E-01  6.39842086E-01  7.21661047E-01
  1.96547014E-01 -1.26860195E-03  9.23657974E-04  2.14940594E-04  1.06280421E-03
  1.52946495E-03 -6.07470353E-02  2.84347689E-02 -9.74581758E-04 -2.31503306E-02
  6.95994823E-02  1.40479007E-03  3.00169419E-03  3.27624410E-02  1.19715917E-01
  1.60625813E-02 -3.39561433E-02  1.03786393E-01  3.93782919E-01  5.62609763E-02
  4.02882646E-01 -3.91599998E-01 -9.23587149E-01 -3.39308386E-03  9.54648602E-01
 -8.59610087E-02  8.88406471E-01  4.04381298E-01 -2.76364726E-05 -1.14124541E-03
  1.61185442E-03 -9.89249444E-04 -1.01587619E-03 -2.64209548E-02 -2.82987201E-02
  3.93437698E-02 -8.25700678E-02 -6.21229721E-03 -3.45068997E-03 -7.37675486E-03
  3.25320968E-02  1.19434191E-01  1.61361904E-02  8.36150048E-02  1.09380277E-01
  4.03839522E-01  5.24641478E-02 -9.95849145E-01 -1.68595273E-01 -5.37019264E-01
 -1.46253314E-01 -2.36142232E+00  4.36785150E-01  1.79753521E+00  6.82683817E-02
  2.60495187E-03  3.77796798E-05 -4.26126005E-05  3.90637013E-03 -1.92370287E-03
  4.84043695E-02  3.31090411E-03 -9.58457288E-03  5.78431646E-02 -3.11253585E-02
  1.25323392E-05  3.28413687E-05  8.25956790E-02 -2.65300001E-02  2.99318494E-02
 -1.88176982E-05 -1.61334552E-01  5.18997744E-02 -5.85261204E-02 -3.30549437E-03
  2.35928815E+00 -7.56911637E-01  8.54965602E-01 -6.06291868E-04 -8.20283478E-01
  2.63828519E-01 -2.97305499E-01 -2.27521120E-02  1.13572883E-02  3.17821929E-03
  1.63477306E-02  1.21405788E-02  4.11871036E-01 -2.05676368E-01 -5.75467722E-02
 -2.96101397E-01 -2.19653501E-01 -1.95684832E-03 -4.18692828E-03  1.12622092E-01
 -3.61476520E-02  4.06640614E-02  4.76055685E-02  3.69262194E-01 -1.21015624E-01
  1.40148916E-01 -5.69433767E-01 -9.08152414E-01  2.04888965E-01 -8.90466227E-02
 -1.35192708E+00  7.41750556E-01 -4.44034652E-01  8.34612627E-01 -1.71835103E-03
 -1.80504337E-03  1.84918868E-03 -1.65421790E-04  3.85851156E-04 -3.52743888E-03
 -7.53478420E-02  4.60422290E-02 -3.65276652E-02 -1.12931505E-02  3.11342671E-03
  6.66758311E-03  1.12313215E-01 -3.62238083E-02  4.07329613E-02 -7.60238492E-02
  3.79195313E-01 -1.16659772E-01  1.35917328E-01  9.12951294E-01 -5.20011067E-01
  3.66031653E-01 -2.44680727E-01  2.16923320E+00  1.65455912E+00 -6.31356769E-02
  4.66809294E-01 -1.70451744E-03  1.86171806E-03  1.28211215E-04  3.91241698E-03
  5.23056893E-04 -4.08803023E-03  3.10703354E-02 -2.80002922E-03  7.90865118E-02
 -1.00834000E-02 -1.49304507E-03 -3.19313946E-03  1.12601500E-01 -3.61509514E-02
  4.09466840E-02  3.62559904E-02  3.71232608E-01 -1.21037521E-01  1.29638828E-01
 -4.32995206E-01 -8.37712801E-01  2.04761014E-01 -4.91954749E-01 -1.02752612E+00
  9.08756678E-01 -4.44417039E-01 -1.13903100E-01  6.97599441E-04  1.48252465E-03
 -1.25892125E-03 -8.41195477E-04  1.24644164E-03  6.61401723E-02  2.02831707E-02
 -4.06905328E-02 -5.64045042E-02  1.31732645E-02  3.20431645E-04  6.84009881E-04
  1.12706495E-01 -3.61890442E-02  4.08470331E-02 -7.69847484E-03  3.67855503E-01
 -1.19439025E-01  1.33439097E-01  9.04075321E-02 -9.69625259E-01  2.64590092E-01
 -3.47034306E-01  2.13591080E-01  5.99016715E-01 -3.02723350E-01  2.27405660E-01
  2.43459276E-04 -3.00143290E-04 -3.70379135E-04 -1.12013803E-03 -8.29992250E-04
  5.06492992E-02 -3.05052261E-02 -1.77799075E-02 -6.45598777E-02 -4.99844138E-02
 -5.21836473E-06 -7.67378584E-06 -7.30353631E-03 -1.02295854E-03 -2.01158769E-03
  1.15783133E-04  2.88952932E-01  4.23402990E-02  7.84034053E-02 -4.26906637E-03
  1.84865379E+00  2.71064044E-01  5.01477338E-01  1.46857392E-04  5.92463381E-03
  9.21524899E-04  1.57624400E-03  3.38895551E-02 -2.81850853E-02 -5.90424724E-03
 -6.34944240E-02 -1.58527061E-02  2.14757416E-01 -1.78252387E-01 -3.74783463E-02
 -4.01546397E-01 -1.00486331E-01 -3.31569143E-02 -6.71227435E-02 -4.79559626E-03
  3.97041199E-04 -3.74790658E-03  5.54631124E-01  1.14833400E-02  1.62392314E-02
 -2.90137626E-02 -1.28406625E+00 -9.76480288E-02 -1.68459434E-01  3.13342316E-01
  5.91715424E-01 -4.10950871E-01 -4.28980877E-03 -2.35085725E-01  4.70883011E-03
 -1.14460384E-03 -3.07640377E-03 -3.36431838E-03 -7.24992151E-04  9.25571649E-02
 -3.94467323E-03 -5.83946611E-02 -5.71786488E-02 -1.89408448E-02  9.28390192E-02
  1.87947421E-01 -1.18618541E-02 -1.62722069E-03 -2.93529870E-03 -1.55310040E+00
 -8.22047563E-02 -1.06238690E-02 -1.85419208E-02  3.59626201E+00  8.94701378E-01
  1.15867958E-01  2.03038489E-01 -1.65599663E+00 -7.71831518E-01 -1.07930491E-01
 -1.94757420E-01  6.40650699E-03 -5.56929280E-03 -8.22627861E-04 -1.19799318E-02
 -3.15467947E-03  1.30279335E-01 -1.14121171E-01 -1.67753095E-02 -2.43579686E-01
 -6.46592127E-02 -2.77845730E-02 -5.62469393E-02 -5.62824267E-03  4.96658609E-04
  4.23074542E-04  4.64755668E-01  5.43616813E-04  1.76401502E-02  2.57765037E-02
 -1.07584931E+00  1.78039501E-02 -1.83351432E-01 -2.66119759E-01  4.96403304E-01
 -4.53202837E-01  1.24791075E-03 -2.40532978E-02  2.78816425E-03 -3.07482579E-03
  2.33310435E-03 -3.20350089E-03 -1.99505812E-03  4.33297295E-02 -6.65001071E-02
  4.15022692E-02 -4.69767772E-02 -4.44426550E-02 -3.18360299E-02 -6.44489173E-02
 -4.88645510E-03 -3.25367768E-03 -1.11098159E-03  5.32520619E-01  1.02761366E-02
 -3.21133485E-02  5.56742087E-03 -1.23253872E+00 -8.53208124E-02  3.43071426E-01
 -5.24410340E-02  5.69517096E-01 -4.15799771E-01 -1.91103956E-01 -1.02021550E-01
 -6.09607526E-04 -1.24921514E-03 -7.52488127E-04 -6.33375404E-03 -3.54978311E-04
 -1.77087729E-02 -2.15815225E-02 -9.68601322E-03 -1.17057265E-01  1.15466827E-02
 -2.51741775E-06 -5.39372681E-06 -1.20890348E-03 -3.61704341E-03  6.62425477E-03
  8.75735987E-05  4.89099370E-02  1.45736585E-01 -2.59885542E-01 -1.98606409E-04
  3.12724460E-01  9.32243903E-01 -1.66110779E+00  2.44759354E-04  1.05479616E-03
  3.07837944E-03 -5.34379525E-03 -5.19727334E-02 -3.34614285E-02  4.53532209E-02
 -1.85475012E-02  5.40444964E-03 -3.28734535E-01 -2.11424066E-01  2.87046856E-01
 -1.16901476E-01  3.39912312E-02  8.66886842E-02  1.75491725E-01  5.81310338E-04
 -4.86922669E-03  1.05985127E-02 -1.45003080E+00  2.05046343E-02 -2.64064184E-02
  7.24181274E-02  3.35582498E+00 -2.13322349E-01  2.90608646E-01 -7.86340800E-01
 -1.55027010E+00  1.86013577E-03 -3.32153890E-01  6.89616234E-01 -1.03716388E-02
 -4.95040520E-03  8.03018117E-03  3.97450185E-05  1.61636313E-03 -2.12117601E-01
 -9.37315421E-02  1.66062900E-01  5.84781286E-03  3.15077821E-02  2.23671484E-03
  4.52792304E-03 -9.00125349E-04 -2.19915245E-03  3.82977753E-03 -3.73987520E-02
  6.54543166E-04  8.80234912E-03 -1.68617257E-02  8.62723961E-02 -3.16431800E-03
 -8.15543603E-02  1.57294967E-01 -4.07190314E-02 -7.50415859E-02 -1.96179393E-01
  3.44767436E-01 -2.52064205E-03 -2.66805629E-03  1.85536864E-03 -8.80583431E-04
  8.67292868E-04 -3.93269356E-02 -3.51592654E-02  3.34415084E-02 -1.77268300E-02
  7.39771921E-03 -4.04047391E-02 -8.17946154E-02 -2.68354673E-03 -5.52211554E-04
  6.20469444E-03  6.75836590E-01 -2.25601327E-02  3.08885802E-02  1.40803590E-02
 -1.56407649E+00  2.42228703E-01 -3.15496756E-01 -1.69061503E-01  7.22636953E-01
 -1.64378621E-01 -1.10436177E-01  4.64119906E-01 -2.23528485E-03 -4.34030611E-03
  5.01004418E-03 -7.96274024E-04 -2.83852973E-03 -2.63671070E-02 -9.24734531E-02
  9.55608548E-02 -8.26094271E-03 -5.18947821E-02 -4.84947850E-02 -9.81733099E-02
 -1.64015758E-03 -6.16314437E-03  3.98415902E-03  8.11187762E-01 -8.91725698E-03
 -4.38114113E-02 -1.52461468E-02 -1.87750117E+00  9.81234646E-02  4.75158622E-01
  1.41082320E-01  8.67902729E-01 -1.11731406E-01 -3.99813477E-01  3.50717223E-01
 -5.25020576E-03 -1.13781437E-03  2.91247414E-03 -5.62235294E-03  2.45203385E-03
 -1.03107485E-01 -2.32445872E-02  3.80829223E-02 -1.15437685E-01  5.19347497E-02
 -4.86622905E-07 -1.70679945E-06  1.87579953E-03 -6.40321065E-03 -3.33004784E-03
  2.71783619E-05 -7.42883385E-02  2.60706193E-01  1.32403509E-01  6.46440554E-04
 -4.75030244E-01  1.66805132E+00  8.46485655E-01  1.32791793E-04 -1.53260043E-03
  5.56482610E-03  2.77140456E-03 -3.07396559E-02  3.40349308E-02 -3.08100893E-02
 -3.89816227E-02  4.11524179E-02 -1.94130282E-01  2.15096743E-01 -1.94817752E-01
 -2.45903362E-01  2.59808983E-01 -3.74079599E-03 -7.57248343E-03  1.05471260E-03
 -3.81691873E-03 -2.30037609E-03  6.25652983E-02 -5.40067797E-03  1.77805040E-02
  4.40061674E-03 -1.44761521E-01  5.12463297E-02 -1.68049094E-01 -3.65275937E-02
  6.67112539E-02  9.62956354E-02 -3.42844483E-01 -1.91731055E-01 -1.84744683E-03
  1.76919195E-03 -2.51253738E-03 -2.04974868E-03  1.26485026E-03 -2.16058860E-02
  2.93414517E-02 -3.52091146E-02 -3.20734862E-02  2.61009830E-02 -2.60246650E-03
 -5.26870631E-03  1.32831146E-03 -3.87791451E-03 -1.92731848E-03  4.35495157E-02
 -1.83365680E-03  1.66594434E-02  8.94579912E-03 -1.01027496E-01  1.33117240E-02
 -1.55829328E-01 -8.41208993E-02  4.59749175E-02  1.09923491E-01 -3.47523842E-01
 -1.74482003E-01 -1.14863563E-03  2.08575736E-03 -8.82224095E-04 -1.81453047E-03
  2.95509021E-03 -2.37261151E-02  3.15331864E-02 -1.99443108E-02 -2.63767394E-02
  3.98370865E-02  7.88839673E-02  1.59692563E-01  4.86272247E-03 -7.12363113E-03
 -6.43463947E-03 -1.31948589E+00  4.52629832E-02 -2.62834831E-02 -5.08260377E-02
  3.05363597E+00 -4.84970415E-01  2.98167664E-01  5.48059132E-01 -1.41192431E+00
  2.92396653E-01 -5.13593287E-01 -4.05777258E-01 -3.20433999E-03  8.29934832E-03
 -6.49608993E-03 -2.88035646E-03  6.19851594E-03 -6.02283888E-02  1.65937226E-01
 -1.37955850E-01 -4.79751147E-02  1.28270382E-01 -7.25344544E-02 -1.46839950E-01
 -2.17266039E-04 -9.84428316E-03 -1.88852628E-03  1.21331449E+00 -2.25035057E-02
 -6.28366649E-02  9.69661768E-03 -2.80817750E+00  2.32584999E-01  6.85600842E-01
 -9.24375652E-02  1.29864064E+00  2.99919464E-02 -6.55455038E-01 -1.71357441E-01
 -5.83794734E-03  1.17723736E-03 -2.19647858E-03 -8.50611559E-03  5.68799170E-03
 -1.19315737E-01  2.22610953E-02 -3.29401472E-02 -1.78312216E-01  1.06498732E-01
  1.76778780E-08  2.88304140E-08  5.63046308E-05 -7.08918582E-05  1.26814930E-05
 -9.47724578E-07 -9.87581377E-05  1.54045086E-04 -1.37388793E-05  8.23857423E-06
 -4.32535652E-04  2.26644583E-03  2.67397403E-04 -7.25913589E-07  1.85982476E-05
  4.87473346E-05  1.66087112E-05 -2.67115984E-04  1.74196849E-05 -2.74305488E-04
 -1.54976810E-05 -5.16872089E-04 -8.79970229E-05  1.44573109E-04  1.82577372E-04
 -3.35289694E-04  8.78580489E-04  1.17513526E-05  2.34361978E-05  2.55743668E-03
  5.80508775E-03  1.83963014E-03 -1.94017604E-04  1.51310236E-03  3.43054284E-03
  1.10788700E-03  5.55801476E-04 -1.74635962E-03 -4.15969734E-03 -1.62711249E-03
  3.73540001E-04 -6.69207138E-03 -1.53872815E-02 -4.96133669E-03  7.73578332E-04
  1.42204447E-03  1.71874512E-03 -1.29966465E-03  9.48058417E-04  8.29563235E-02
  1.66279248E-01  1.93332885E-01 -1.80449506E-01  1.20239910E-01 -2.11113400E-06
 -3.89912822E-06  1.74445428E-03 -1.14618765E-02 -9.26451585E-04  2.80170555E-05
  1.03082382E-03 -6.70546950E-03 -5.35898426E-04 -3.68042119E-05 -1.28916410E-03
  7.92033426E-03  6.21811474E-04 -2.16924986E-04 -4.61353435E-03  2.99649423E-02
  2.40546552E-03  3.23602032E-03 -9.10226292E-04  2.06500329E-03  1.26175290E-03
  2.86106031E-03  4.10945509E-01 -1.19019969E-01  2.48227188E-01  1.78611961E-01
  3.03832387E-01  2.57574522E-05  5.17706395E-05  6.19433076E-03  3.34846431E-03
  2.78412683E-03 -4.34117193E-04  3.68736057E-03  1.97691353E-03  1.61949278E-03
  1.28767231E-03 -4.57916904E-03 -2.21741275E-03 -1.43486105E-03  6.68892863E-04
 -1.62948485E-02 -8.84319020E-03 -7.14255793E-03 -8.09398268E-04 -1.92228419E-03
 -2.42508911E-03 -5.15921570E-04 -5.67427294E-04 -8.43107624E-02 -2.31317750E-01
 -2.89183337E-01 -9.49264305E-02 -6.66402235E-02 -3.55825951E-05 -7.16957415E-05
 -1.04739655E-02  2.26741052E-03 -3.69376700E-03  6.03630774E-04 -6.22438929E-03
  1.30529451E-03 -2.18393964E-03 -1.81627858E-03  7.45813779E-03 -8.71941125E-04
  2.49439423E-03 -8.26842261E-04  2.73759389E-02 -5.80935769E-03  9.58993857E-03
 -3.18005606E-03  1.41341492E-03 -1.33034067E-03  5.50499187E-04 -3.17625289E-03
 -4.06694512E-01  1.84086160E-01 -1.49037305E-01  9.68141722E-02 -3.50673210E-01
 -1.85015618E-09 -5.56666076E-09 -2.93591349E-05  1.67126211E-05 -6.99953510E-05
 -7.94296635E-08  4.31523007E-05 -3.27609041E-05  1.82436983E-04  8.35728502E-07
 -2.79104337E-04 -3.41364167E-04  3.07277657E-03 -3.33775070E-08 -2.62919058E-05
 -4.72399135E-06  6.26808094E-05 -1.19439805E-04 -3.64137217E-04 -2.96488063E-04
  1.24003046E-04  9.08879882E-05  5.77137261E-04  8.22561582E-04 -2.48728879E-04
 -2.04848905E-04 -2.23584000E-05 -4.79477473E-05 -9.66821213E-05 -1.11697020E-02
  3.51934321E-04  2.29908645E-03  8.15039741E-04 -6.62037191E-03  2.28686149E-04
  1.30880083E-03 -2.44134001E-03  7.92873406E-03 -7.09281014E-04 -7.36173656E-04
 -1.18313816E-03  2.93312913E-02 -1.07977186E-03 -5.88614249E-03  3.36738912E-04
 -1.89376347E-03 -1.56521263E-03  2.06444084E-03  3.75835629E-03  2.13976282E-02
 -1.86531195E-01 -1.96145716E-01  2.74784522E-01  4.56520119E-01  7.51171078E-06
  1.48979048E-05  2.36501047E-03  1.64542741E-03 -1.10963105E-02 -1.21999440E-04
  1.36798780E-03  9.63490203E-04 -6.49131078E-03  3.25290154E-04 -1.45435836E-03
 -1.10207385E-03  7.66149405E-03  2.64637019E-04 -6.11936788E-03 -4.28412173E-03
  2.89449208E-02 -2.93759106E-04  2.40115406E-03  3.89870356E-03 -1.14242401E-03
 -1.50840160E-03 -6.21200898E-02  2.49019906E-01  4.91718346E-01 -1.33873636E-01
 -1.81729316E-01  3.29111974E-05  6.66104467E-05  6.78579265E-03 -1.57625218E-03
  6.83791166E-03 -5.65101711E-04  4.04835810E-03 -9.55862543E-04  4.04091114E-03
  1.72853238E-03 -5.10884289E-03  1.57452409E-03 -4.44870171E-03  7.45839842E-04
 -1.78317436E-02  4.31508176E-03 -1.79107684E-02 -8.70141420E-04 -5.58939668E-04
 -2.78545714E-03 -7.00350966E-04 -2.93731049E-03 -6.61812363E-02 -6.80894084E-02
 -3.42507651E-01 -1.07224587E-01 -3.51825250E-01  7.48514733E-06  1.50899479E-05
  2.00836860E-03 -4.12158045E-04  1.92289537E-03 -1.27212788E-04  1.19007556E-03
 -2.35007237E-04  1.17609792E-03  3.85990423E-04 -1.39916504E-03  1.24331083E-04
 -1.66602341E-03  1.72616525E-04 -5.20626133E-03  1.03854428E-03 -5.25801659E-03
  8.52816113E-04  1.01337978E-04  4.69697082E-04 -2.38988984E-04  6.79016278E-04
  1.08929317E-01  1.03561730E-02  4.98290645E-02 -3.53658214E-02  7.60445950E-02
  1.05721116E-08  2.87210787E-09  1.93912176E-05 -5.10695843E-05 -7.78747346E-05
 -1.11075984E-06 -2.74132911E-05  8.11231198E-05  1.14552288E-04  1.46129762E-05
  3.25240562E-05  2.05865904E-04 -4.60490891E-06  7.42038367E-08  9.98897576E-06
 -1.21972759E-05 -3.16004726E-05 -1.32350203E-05 -8.22452569E-05 -2.73294154E-05
  3.70494233E-05  1.03650412E-06 -1.18070964E-05  9.63615178E-05  4.60483798E-05
 -8.53242918E-05  1.99022277E-05 -6.25254304E-07 -8.39189848E-07  2.78158280E-04
 -9.22879246E-03 -3.76457990E-03  1.13385711E-06  1.58379021E-04 -5.43194781E-03
 -2.22515375E-03  4.65451835E-05 -1.94990895E-04  6.36044497E-03  2.64764606E-03
 -1.20927667E-04 -7.59323907E-04  2.42115465E-02  9.90026202E-03 -1.35669057E-03
 -1.49943171E-03 -2.10936914E-03  1.24045616E-03 -2.93588336E-03 -1.39539198E-01
 -1.89073716E-01 -2.29225729E-01  1.77375862E-01 -3.64860931E-01  1.03478240E-06
  2.04904242E-06  8.10921990E-04 -1.41646282E-03 -2.67422638E-03 -1.67529665E-05
  4.76500593E-04 -8.33459820E-04 -1.57864137E-03  4.79148132E-05 -5.46561084E-04
  9.78178597E-04  1.89687781E-03  2.94456478E-05 -2.13333336E-03  3.71761272E-03
  7.04961114E-03  4.38771084E-04  4.05091935E-04  1.21036089E-03 -6.36135690E-05
  1.05334715E-04  5.00533834E-02  3.81402076E-02  1.50504233E-01 -2.62929192E-03
  6.27915080E-03  4.31885165E-06  7.97862186E-06  2.81882228E-03  9.55255007E-03
 -4.53143782E-03 -5.69070116E-05  1.67789233E-03  5.62701011E-03 -2.68391302E-03
  8.72305595E-05 -2.04028412E-03 -6.57261188E-03  3.25161690E-03  2.74993150E-04
 -7.38494538E-03 -2.50137392E-02  1.19158359E-02 -3.69124007E-04 -3.25713812E-03
 -9.13081075E-04 -2.18105726E-05  3.30857767E-03 -7.68309382E-02 -3.90880271E-01
 -9.25562880E-02 -3.80076604E-02  3.99430245E-01 -5.05262976E-06 -9.87060912E-06
 -3.89964643E-03  1.06750855E-03  1.09340426E-02  7.87656446E-05 -2.30448494E-03
  6.17752421E-04  6.45310441E-03 -1.98646126E-04  2.76096990E-03 -6.20847927E-04
 -7.66301418E-03 -1.88665823E-04  1.01962800E-02 -2.76843022E-03 -2.85789460E-02
  1.28773047E-03  4.36055133E-03  1.81426098E-03 -1.16005421E-03 -4.77503862E-04
  1.66385860E-01  5.42712253E-01  1.71409898E-01 -1.37195004E-01 -4.08474161E-02
  1.87312576E-07 -9.14469285E-07 -8.11544535E-06  1.87756404E-04  6.11574482E-06
 -8.73985115E-05  2.45793713E-05 -2.61359422E-04 -4.93259573E-06  1.03876392E-03
 -5.30998984E-05  2.00002154E-03  7.75132773E-05 -1.63331316E-04 -8.54421337E-06
  1.34857216E-04  3.84389548E-06 -6.08941754E-02  1.29379938E-02 -5.13127966E-02
 -7.97358439E-03 -1.02124497E-01  6.68939914E-02 -1.41902406E-02  5.65868404E-02
  8.47539418E-03  1.12983221E-01 -4.48813666E-06 -8.96658165E-06 -7.32207551E-03
  1.09397949E-02  5.81745913E-03  7.32975042E-05 -1.93680476E-03  2.90028944E-03
  1.52876797E-03  7.15675708E-06  1.53680119E-02 -2.31075674E-02 -1.22688142E-02
  2.42557053E-04  3.03198676E-02 -4.56116764E-02 -2.42606145E-02  5.38166253E-04
  1.08582211E-03  4.15096590E-04 -4.13704574E-04  4.46095841E-03  7.13111278E-02
  1.03884053E-01  5.63316863E-02 -3.85246017E-02  4.72965512E-01 -1.97011371E-06
 -4.14574442E-06  2.17927008E-03 -1.41182900E-02 -1.33622934E-03  4.02761355E-05
  5.69101063E-04 -3.68767533E-03 -3.49228327E-04 -1.06962683E-04 -4.64077621E-03
  2.96799599E-02  2.80921586E-03 -1.47108187E-04 -9.13434078E-03  5.83504064E-02
  5.52195846E-03  3.38246386E-03 -1.01971486E-03  1.88988400E-03  1.74715995E-03
  1.57530484E-03  3.53469315E-01 -1.04966537E-01  2.02544727E-01  1.75661967E-01
  1.86348124E-01 -9.70049285E-07 -1.58250506E-06 -7.60578155E-03  5.97658380E-03
 -1.07114859E-02  6.72341301E-06 -2.02460061E-03  1.59802165E-03 -2.83530672E-03
  2.63735932E-04  1.58831774E-02 -1.26169419E-02  2.25754800E-02  3.46051365E-04
  3.13546633E-02 -2.49416977E-02  4.45060919E-02 -5.01146137E-04 -4.27121720E-04
  2.64515513E-03  9.29527519E-04  3.69027867E-03 -3.18191202E-02 -4.59826785E-02
  2.77982504E-01  9.48370452E-02  3.96595151E-01 -3.06869212E-05 -6.39507653E-05
  1.27545908E-02 -2.73344436E-03  6.23347347E-03  5.67186886E-04  3.39037744E-03
 -7.21260408E-04  1.65878061E-03 -1.81384439E-03 -2.66679507E-02  6.22126964E-03
 -1.31141820E-02 -3.53745782E-04 -5.26950059E-02  1.15292631E-02 -2.58234933E-02
  3.64927275E-03 -1.14216889E-03  1.00925014E-03 -1.34805214E-03  2.14105002E-03
  3.80817044E-01 -1.17422580E-01  1.15388412E-01 -1.31387680E-01  2.42697924E-01
 -1.21083983E-07  6.27929276E-07 -8.16154468E-05 -4.55650839E-05  2.15254967E-04
  5.88115964E-05  1.02472787E-04  6.08128973E-05 -2.83734731E-04 -6.99508499E-04
 -9.07438322E-04 -5.16974687E-04  2.35291773E-03  1.10379048E-04 -5.67419279E-05
 -3.32678595E-05  1.54056989E-04 -1.61933289E-02 -9.21091139E-02 -7.80877708E-02
  3.08132163E-02  3.48168952E-02  1.81668987E-02  1.02045825E-01  8.57726567E-02
 -3.39141203E-02 -3.83555437E-02 -2.20493678E-05 -4.60529593E-05  1.21664344E-02
  7.71959956E-03  7.27548857E-04  4.06968708E-04  3.21209936E-03  2.03684779E-03
  2.00687447E-04 -1.42594465E-03 -2.53981269E-02 -1.63733574E-02 -1.22854150E-03
 -2.45545686E-04 -5.02101948E-02 -3.20854431E-02 -3.00925968E-03  5.90312003E-04
  1.73368058E-03  2.34519220E-03 -3.46212904E-03 -1.05435615E-03  6.32492639E-02
  1.99291129E-01  2.56209443E-01 -3.53051589E-01 -1.15184973E-01 -1.43114444E-06
 -2.99154908E-06  3.01690998E-03  1.78953337E-03 -1.39250369E-02  2.45870012E-05
  7.87263148E-04  4.67514603E-04 -3.63953269E-03 -1.11665541E-04 -6.34280491E-03
 -3.74592656E-03  2.92220051E-02  4.60411131E-05 -1.23940507E-02 -7.35032484E-03
  5.74611303E-02 -8.43087371E-04  1.19497238E-03  4.10920599E-03 -9.15841156E-04
 -1.34149020E-03 -7.88971588E-02  1.45599227E-01  4.30574157E-01 -9.99404980E-02
 -1.43322277E-01  3.20829165E-05  6.66431614E-05 -9.19711078E-03 -1.11120755E-02
  2.76697608E-04 -5.84968357E-04 -2.43759272E-03 -2.95107788E-03  7.61602178E-05
  1.76394544E-03  1.90508652E-02  2.36644869E-02 -3.56214021E-04  1.08121859E-04
  3.80264419E-02  4.63232504E-02 -1.25535674E-03  1.05817013E-03  3.35449448E-03
  2.18172710E-03  1.65930460E-03 -1.41234445E-03  1.09859465E-01  3.60054775E-01
  2.40139084E-01  1.55797116E-01 -1.50502375E-01  1.71105577E-05  3.54540948E-05
 -6.02361003E-03  1.58491732E-03  1.30051035E-02 -3.10275382E-04 -1.60274977E-03
  4.25084416E-04  3.46597909E-03  8.85940092E-04  1.26675916E-02 -3.57682665E-03
 -2.74934614E-02  3.12224875E-05  2.50552195E-02 -6.66050130E-03 -5.42209136E-02
  1.08515356E-03  4.43214620E-03  4.20618950E-04 -8.55570176E-04 -2.33099704E-04
  1.12288187E-01  4.66988803E-01  6.47158883E-02 -9.41280555E-02 -3.33554275E-02
 -1.48850728E-06 -1.65006856E-05  3.78804504E-01 -7.72099427E-02  1.77513909E-01
  6.20311736E-04 -5.83203239E-01  1.18783144E-01 -2.73253272E-01 -4.40566141E-03
  1.22741031E+00 -2.49826653E-01  5.75366885E-01  4.07224118E-04  1.57697172E-01
 -3.21308490E-02  7.39240689E-02  1.35051487E-01 -5.75850798E-02 -3.37480769E-02
 -1.16915292E-01 -6.18043092E-02  2.47953164E-03 -1.08789662E-03 -5.86805970E-04
 -2.09096611E-03 -9.42732484E-04 -6.81064118E-04 -3.48846718E-03  2.96765209E-02
 -2.14330301E-02  5.27200793E-02  5.66725951E-02  3.47046833E-02 -1.98508357E-02
  4.85169392E-02 -3.64585921E-01 -1.29251406E-01  6.13600636E-02 -1.49056963E-01
  1.50957265E-01 -2.95456097E-01  1.96369435E-02 -3.62721243E-02 -9.70208916E-04
  4.93952838E-03 -1.05167949E-03  2.76160352E-03 -1.96022551E-04 -4.69893828E-02
  3.17228883E-01 -1.36806394E-01  2.56210072E-01  7.13189529E-02  1.10248005E-03
  5.46989726E-03  9.05767380E-02  4.80516108E-03  2.62089119E-02 -8.79842089E-02
  8.52263862E-02  1.93008525E-03  2.64785943E-02  5.61533675E-01 -2.67147316E-01
  1.76407462E-03 -8.84453198E-02 -2.30135538E-01 -1.34482890E-01  8.90399931E-02
 -1.06122781E-01 -8.01567980E-04 -1.67598763E-03  5.97055883E-04 -2.09553599E-03
  1.24866945E-03 -7.26677130E-02 -1.11061288E-01  5.37036956E-02 -2.02434118E-01
  4.79257644E-02 -3.25189109E-04 -1.73925096E-03  3.47745409E-02 -1.58736013E-02
 -6.15791325E-03  2.86247733E-02  3.89436598E-02 -1.52423805E-02 -4.34826005E-04
 -1.85892008E-01 -1.41120183E-01  4.88657906E-02 -1.46298034E-02  7.72360466E-02
 -2.81843648E-01  3.42650985E-02 -1.91258486E-01 -5.35479831E-03 -4.84124597E-04
  6.53768840E-04  4.12312352E-03 -9.84829940E-04 -3.56884153E-01 -8.49920905E-03
  1.60812993E-01  3.29113318E-01  1.28170092E-02  1.18950172E-05 -1.49356864E-05
  2.13462323E-02 -3.45730746E-03  9.89710400E-03  6.13812463E-04  2.77637970E-02
 -4.91434501E-03  1.29251289E-02 -5.80276804E-03 -1.10487389E-01  2.00826457E-02
 -5.14954421E-02  2.59740907E-03 -3.17086024E-01  6.70750714E-02 -1.48955320E-01
 -2.92333966E-03  1.50948630E-03  2.30803949E-03  3.90985600E-03  4.53077822E-03
 -3.20494213E-01  1.42512655E-01  1.21248961E-01  3.07356435E-01  2.32631229E-01
 -2.41101078E-08  3.89117147E-06 -1.66365255E-01  6.98750430E-02  3.85288094E-01
  3.30097678E-05  2.56094536E-01 -1.07528157E-01 -5.93016850E-01 -8.57486798E-04
 -5.38544466E-01  2.25715100E-01  1.24753569E+00  1.94407876E-05 -6.92262264E-02
  2.90416642E-02  1.60362799E-01  4.12452333E-02  1.27817094E-01 -1.35833054E-01
 -8.20224970E-03  6.04996847E-02  7.27623719E-04  2.30705647E-03 -2.33270498E-03
 -1.51321344E-04  9.57315763E-04 -7.92639592E-04 -4.02511671E-03  3.96258663E-04
 -1.57550447E-02  7.06440732E-02  6.52321890E-02 -4.08015965E-03 -1.12530771E-02
  6.89238878E-02 -4.18724619E-01  2.62121640E-02  2.44602061E-02 -2.23431381E-01
  1.73274681E-01  1.64909956E-01 -1.10203993E-01 -1.93928725E-01  3.93274268E-03
 -3.15266293E-03  1.55322280E-03  4.77386637E-05 -7.20939068E-04  2.82555016E-01
 -2.15632465E-01  8.94006844E-02 -1.29768091E-02 -1.64586419E-01 -1.61631224E-04
 -8.55418038E-04 -2.06668118E-02  2.42281448E-03  1.90131349E-02  1.40387692E-02
 -2.16089202E-02  3.86624773E-03  2.60807713E-02 -9.08863248E-02  7.42921800E-02
 -1.68658934E-02 -1.06095281E-01  3.75877984E-02  1.09618590E-01 -6.24787737E-02
 -3.30200085E-01 -2.69830135E-03 -5.69499952E-03  2.28631851E-03  1.91341471E-03
 -1.65630667E-03 -1.75895191E-01 -3.51152756E-01  3.05878519E-01  1.23424652E-01
 -1.36109175E-01  1.02881729E-03  5.23260892E-03 -4.88960947E-02  3.76066399E-02
  6.83536573E-02 -8.48487805E-02 -4.50544248E-02  3.31114186E-02  6.70204280E-02
  5.44862122E-01  1.38277868E-01 -9.68133648E-02 -2.18265365E-01 -2.25137052E-01
  3.52834641E-02  3.01940074E-02 -1.99798423E-01 -3.15120269E-03  1.20655345E-03
 -2.45856835E-05 -4.91922236E-04  4.60535338E-04 -2.31937257E-01  9.01049225E-02
 -2.36847715E-03 -3.21766818E-02  1.09916118E-01 -4.78997625E-05 -2.97386227E-04
 -8.30733889E-03  8.25835861E-03  2.14430463E-02  5.09863361E-03 -1.13018774E-02
  8.74439597E-03  2.80294615E-02 -3.39667899E-02  4.59870100E-02 -3.04199557E-02
 -1.11655436E-01  1.44332685E-02  1.42005636E-01 -4.71059142E-02 -3.23236628E-01
 -1.14972082E-03 -1.88767909E-03  6.29361698E-03 -8.53504767E-04 -2.58985621E-03
 -1.17605947E-01 -2.77255802E-01  4.08262471E-01 -2.99045147E-02 -1.66204399E-01
  9.03677590E-07 -3.36211964E-06  9.91216744E-02  4.12615342E-01 -3.19858666E-02
 -3.17561620E-04 -1.52662316E-01 -6.35100954E-01  4.92223346E-02  3.81422969E-03
  3.21097172E-01  1.33444192E+00 -1.03751790E-01 -2.05004937E-04  4.12486336E-02
  1.71593293E-01 -1.33293841E-02 -1.04236571E-01 -8.11646098E-03  2.23262567E-03
 -1.55046182E-01  7.20418719E-02 -1.80305337E-03 -2.01337168E-04 -1.20589313E-05
 -2.64211955E-03  1.15163556E-03  3.96998170E-04  2.12756542E-03  2.49866433E-04
  3.38348927E-02 -2.86727186E-02 -3.50479708E-02  2.83315182E-03  3.90631242E-02
 -2.47317458E-02  2.27570970E-01 -1.66447154E-02 -1.44278981E-01  7.09632449E-02
 -9.49713620E-02 -9.69872192E-02 -3.17388238E-01 -4.37183582E-02  2.17255632E-03
  7.85912816E-04  3.84542628E-03  4.86924627E-03 -1.10752933E-03  1.05905916E-01
 -1.68561957E-02  2.04607248E-01  4.21203125E-01 -1.36567196E-01  3.39160433E-04
  1.83852140E-03  3.02614626E-02  2.64169089E-02  3.97726660E-03 -3.03819699E-02
  2.77987774E-02  3.29362039E-02  2.44716914E-03  1.97684742E-01 -8.55241897E-02
 -1.27401664E-01 -3.93407185E-03 -8.19569194E-02 -1.79043668E-02 -3.37158452E-01
  4.21258640E-02  3.27647088E-03  6.42174013E-05 -8.90776447E-04  2.49370367E-03
 -5.40887508E-03  3.39834684E-01 -4.41081004E-02 -3.55538422E-02  2.15700750E-01
 -3.06013458E-01  2.74395394E-04  1.54488042E-03 -6.91127321E-03  3.36591923E-02
  1.29555034E-02 -2.58120112E-02 -3.16330907E-03  3.89304404E-02  9.97712263E-03
  1.69207900E-01 -3.85124130E-05 -1.44085236E-01 -2.47607775E-02 -7.10243909E-02
 -1.15721494E-01 -3.17797121E-01  6.55081951E-02  3.11046892E-03 -3.29925676E-04
 -2.67107524E-03  5.57509762E-03  3.80169439E-04  2.44660675E-01  9.51193432E-02
 -1.51623671E-01  4.13688027E-01 -5.30850672E-02 -1.11796723E-03 -5.73338751E-03
  2.25469179E-02  9.82165610E-02 -3.16715814E-03  9.32213142E-02  2.13813919E-02
  9.25832968E-02 -3.47985379E-03 -5.99667228E-01 -6.74750136E-02 -2.90655861E-01
  1.24634368E-02  2.47311692E-01 -3.82389598E-02 -1.47602170E-01  2.32368759E-02
 -7.86386173E-04  8.47023132E-05 -4.45079163E-04 -1.37369201E-03  7.54636389E-04
 -7.50959154E-02  1.36454259E-02 -3.03525906E-02 -1.35016697E-01  7.04465106E-02
  1.46912026E-02  2.40415953E-02  1.25344415E-04 -2.10903602E-04  1.38766804E-04
 -8.87316999E-01 -2.22038090E-04  5.66277171E-04 -3.50312123E-04  8.34962679E+00
  3.45994231E-03  1.32206112E-03 -7.71427514E-05 -3.86159232E-01  2.23324154E-05
 -2.90086205E-05  2.15494076E-05  1.09075156E-04  1.19503092E-06 -3.35905064E-05
  4.25350264E-05 -4.37039592E-05 -1.35941130E-04 -1.70136475E-04  1.07994276E-04
 -5.90550453E-04 -1.49767038E-04 -5.21246537E-02 -1.07863665E-01  7.13643044E-04
 -1.46427399E-03  3.62554183E-03  9.67671976E-01 -1.19448171E-02  2.42915480E-02
 -6.06787923E-02 -2.54262339E+00  1.64257349E-01 -3.34052364E-01  8.34224359E-01
 -4.78242316E-01  5.05470842E-02 -1.03239376E-01  2.57840140E-01  7.53534524E-03
  2.85744041E-03 -5.80791649E-03 -8.83946683E-04 -1.14427472E-03  1.44602389E-01
  5.49809868E-02 -1.11642722E-01 -1.69497632E-02 -2.19241737E-02 -5.20955008E-02
 -1.07801707E-01 -3.74561388E-03 -5.17611222E-04 -8.65251791E-04  9.67117260E-01
  6.42436186E-02  8.45709028E-03  1.50456288E-02 -2.54087311E+00 -8.82175780E-01
 -1.16570102E-01 -2.06404736E-01 -4.79305577E-01 -2.73117173E-01 -3.60189134E-02
 -6.39150529E-02 -4.25395505E-03  3.79049603E-03  5.03268772E-04  7.95901391E-03
  2.14679139E-03 -8.18051827E-02  7.27349684E-02  9.69797225E-03  1.52576311E-01
  4.12170501E-02 -5.21389080E-02 -1.07892224E-01  2.23134785E-03 -1.91100832E-03
 -2.62625282E-03  9.67927555E-01 -3.75638800E-02  3.20214980E-02  4.45040225E-02
 -2.54358967E+00  5.16755720E-01 -4.40384162E-01 -6.11880851E-01 -4.78950536E-01
  1.59557804E-01 -1.36148168E-01 -1.89280145E-01  1.72269584E-03 -6.58195289E-03
  5.61055355E-03  7.60391450E-04 -4.73940936E-03  3.28325836E-02 -1.26248594E-01
  1.07839888E-01  1.46318445E-02 -9.09673374E-02 -5.21483824E-02 -1.07910385E-01
  8.69613594E-04  3.77893518E-03 -5.92936609E-05  9.68091679E-01 -1.46081435E-02
 -6.48631815E-02  1.20239520E-03 -2.54431389E+00  2.01404528E-01  8.91937842E-01
 -1.63953936E-02 -4.80040989E-01  6.20579267E-02  2.75973788E-01 -5.14382251E-03
 -5.01931748E-03 -6.68385785E-05 -3.00773368E-04 -7.84563511E-03  3.74007067E-03
 -9.64872393E-02 -1.14387358E-03 -5.70940882E-03 -1.50294494E-01  7.16867605E-02
 -2.19729956E-07 -3.70256713E-07  1.89125291E-04 -7.28434359E-05  7.48879472E-04
  1.23950112E-05 -2.30937470E-04  1.11215078E-04 -1.06173843E-03 -1.12523234E-04
  3.85744474E-04 -3.47592499E-04  3.02879429E-03  5.17697502E-06  2.09067223E-05
 -3.36355444E-05  2.71158338E-04  9.80507735E-05 -2.22168422E-05 -1.49713575E-04
 -4.68596867E-05  1.54035698E-05  2.20693864E-04  2.82422406E-04 -1.15228320E-04
 -9.52348803E-05 -2.61460269E-05  1.32253001E-05  2.23328868E-05 -5.95429494E-02
 -8.32340167E-03  8.53955775E-03 -1.22656092E-04 -8.02519694E-02 -1.11969678E-02
  1.14746494E-02 -6.63342701E-04  1.88073753E-01  2.61974455E-02 -2.69170839E-02
 -1.12318447E-03  4.72025774E-02  6.31611622E-03 -6.36650896E-03  3.22641169E-03
 -9.93448954E-03  2.52863258E-04 -6.79852350E-03  4.28283974E-04  1.55844300E-01
 -4.74536141E-01  1.64729164E-02 -3.33365872E-01  1.34896114E-02 -1.40852944E-05
 -2.61047479E-05  1.27461040E-02  1.07282578E-02 -6.02306039E-02  1.83324646E-04
  1.71634345E-02  1.44535631E-02 -8.11512948E-02 -2.11188713E-06 -4.02936416E-02
 -3.38858277E-02  1.90224605E-01  5.33376444E-04 -9.70901965E-03 -8.37056333E-03
  4.72531659E-02  6.42745931E-03  1.01356210E-02 -4.39473396E-03 -9.53228803E-04
 -6.16048152E-04  3.11099872E-01  4.83676867E-01 -2.20700995E-01 -4.34504393E-02
 -2.61892533E-02 -1.48928753E-07  1.70020414E-06  3.66047866E-02 -4.77895412E-04
  3.13501521E-02 -4.42801658E-05  4.93581702E-02 -6.64958818E-04  4.22489097E-02
  5.83266007E-04 -1.15732256E-01  1.66501261E-03 -9.90543569E-02  5.54984727E-04
 -2.92072038E-02  6.29365204E-04 -2.48973326E-02 -7.73911404E-03 -2.33581004E-04
  3.70030455E-04  6.06614292E-03 -1.08673041E-03 -3.71610040E-01 -8.91993770E-03
  2.41079911E-02  2.94261636E-01 -4.70419144E-02  3.74894857E-06  7.74350750E-06
  1.02982758E-02 -1.95145771E-03  2.06409570E-02 -6.74954064E-05  1.38856725E-02
 -2.62298997E-03  2.78432774E-02  2.17597755E-04 -3.25475149E-02  6.10855306E-03
 -6.54121469E-02  6.11432635E-05 -8.18154575E-03  1.54316797E-03 -1.66941651E-02
 -1.93820174E-03  1.96653188E-05  3.78946192E-03  1.70027812E-03  1.27681273E-03
 -9.63961571E-02 -8.32384301E-04  1.80996985E-01  8.31434809E-02  5.98073521E-02
  2.77466029E-07  4.64920419E-07 -3.99468716E-04  3.76700381E-04 -3.12368263E-05
 -1.58097508E-05  5.22281778E-04 -5.83173845E-04  2.37935912E-05  1.44457267E-04
 -1.18996930E-03  1.82740047E-03  8.05340193E-05 -7.08133538E-06 -9.25419155E-05
  1.81433017E-04  1.30635848E-05 -1.06668705E-04  5.67656344E-05 -1.90551285E-05
  3.18792741E-05  3.32591317E-05 -9.63925289E-05  7.77126793E-05 -3.75217362E-06
 -7.62496741E-05  2.00569432E-04 -7.55460399E-06 -1.38015318E-05  9.95035224E-03
  3.31071013E-02  1.12477408E-02  9.50181231E-05  1.34044053E-02  4.46355472E-02
  1.51775602E-02  5.63013226E-05 -3.13752115E-02 -1.04742185E-01 -3.55825555E-02
  3.23414543E-04 -7.76499308E-03 -2.62948722E-02 -9.12995582E-03  3.19192410E-03
  7.78791810E-04  3.99104504E-03  5.22914022E-03 -1.31690560E-03  1.52024918E-01
  3.45025336E-02  1.88812105E-01  2.55083198E-01 -6.65746708E-02  1.70911293E-05
  3.20546942E-05  9.70704850E-03 -5.99136431E-02 -7.96474807E-03 -2.30964279E-04
  1.30887756E-02 -8.07495754E-02 -1.07330004E-02  1.11630556E-04 -3.06126321E-02
  1.89335822E-01  2.51825352E-02 -5.39942884E-04 -7.90252294E-03  4.68894742E-02
  6.16575459E-03 -3.85446135E-03  2.48426672E-03  3.53717546E-04 -5.97225233E-03
  1.00642493E-02 -1.92976361E-01  1.21567583E-01  1.21159665E-02 -2.90616559E-01
  4.79387695E-01 -4.69691005E-06 -7.31701005E-06  3.47509960E-02  1.49574084E-02
  1.86867534E-02  3.04085839E-05  4.68522289E-02  2.01589678E-02  2.51628681E-02
  4.04396977E-04 -1.09820730E-01 -4.73141635E-02 -5.89429943E-02  5.45701517E-04
 -2.75322382E-02 -1.18512120E-02 -1.44870625E-02 -4.14578061E-03 -5.36659719E-04
 -9.81842127E-04  7.49275079E-03 -7.26718459E-04 -1.98181026E-01 -2.17139703E-02
 -4.17830931E-02  3.62796127E-01 -3.30060945E-02 -8.40941817E-06 -1.83202718E-05
 -5.46014128E-02  1.19706006E-02 -2.19976153E-02  1.72009072E-04 -7.36222805E-02
  1.61071198E-02 -2.96503099E-02 -7.47925471E-04  1.72652170E-01 -3.76901353E-02
  6.94963924E-02 -3.61624199E-04  4.32682943E-02 -9.41054668E-03  1.73369838E-02
  4.82333836E-03 -2.73715455E-03 -3.36426297E-03 -6.75616463E-03 -8.03717149E-03
  2.39823748E-01 -1.34840574E-01 -1.59182315E-01 -3.27400449E-01 -3.80616631E-01
 -4.21348897E-08 -7.75352489E-08 -1.16849907E-04  2.04822664E-04  1.32929596E-04
  1.80054956E-06  1.53460599E-04 -2.95961670E-04 -1.76918872E-04 -1.53976092E-05
 -2.86488809E-04  6.99865298E-04  2.06807866E-04  1.30494397E-06 -2.24725445E-05
  6.48561317E-05  1.74592038E-05 -3.53463685E-05  2.39111269E-05 -7.38083211E-05
 -1.38889067E-05  3.37194391E-05 -1.67293686E-05  3.11487162E-05  8.65355814E-05
 -2.71536036E-05  2.89881433E-05  4.74425989E-06  9.30119262E-06  1.19764385E-02
 -4.72442749E-02 -2.12669857E-02 -7.46522574E-05  1.61416718E-02 -6.36845689E-02
 -2.86657156E-02  1.79726348E-04 -3.78588231E-02  1.49296224E-01  6.71444639E-02
  7.27946306E-06 -9.41507815E-03  3.71670276E-02  1.67602145E-02 -6.40136921E-03
  3.35405389E-03 -6.27045846E-03 -4.94501285E-03  1.83272944E-03 -3.05823876E-01
  1.64262316E-01 -2.98639473E-01 -2.40356466E-01  9.60983648E-02  3.23249037E-06
  6.12828689E-06  2.70154894E-03 -1.22877925E-02 -4.65890257E-03 -4.53336309E-05
  3.64104140E-03 -1.65597208E-02 -6.27804669E-03  3.64868838E-05 -8.52285285E-03
  3.88236543E-02  1.47379263E-02 -8.54661868E-05 -2.15505626E-03  9.56877688E-03
  3.62445419E-03 -5.08884244E-04  1.02757232E-03 -1.38438203E-04 -1.32343414E-03
  2.12137543E-03 -2.59753259E-02  4.96926204E-02 -8.14851067E-03 -6.42485846E-02
  1.01208402E-01 -1.07551789E-05 -2.00044115E-05  1.07122930E-02  5.28295722E-02
 -2.88957189E-02  1.43963668E-04  1.44494400E-02  7.12167479E-02 -3.89620159E-02
 -8.53762079E-05 -3.38114041E-02 -1.67030719E-01  9.13067264E-02  2.91059967E-04
 -8.55349809E-03 -4.16362956E-02  2.29404936E-02  8.72614001E-03 -1.15103812E-03
 -4.47258113E-03  7.74092122E-03  7.30608800E-04  4.21584434E-01 -4.82356496E-02
 -2.14510801E-01  3.73267653E-01  2.69661851E-02  3.25325206E-06  5.54830540E-06
 -2.54493786E-02  6.78978145E-03  5.48932989E-02 -3.25580858E-05 -3.43150208E-02
  9.14299917E-03  7.40020087E-02 -1.09171040E-04  8.04682028E-02 -2.14687296E-02
 -1.73555902E-01 -2.11389143E-04  2.01319170E-02 -5.27222275E-03 -4.33127065E-02
 -1.81199925E-03 -3.23894258E-03  1.08877910E-02 -1.46879470E-03 -4.69227961E-03
 -8.95805621E-02 -1.66027269E-01  5.21578856E-01 -6.84968727E-02 -2.24596612E-01
  1.39167242E-05  2.06657871E-05 -1.41692826E-01  4.37450550E-01  2.89448386E-01
 -7.67478503E-06 -3.77503373E-03  1.03514473E-02  7.51239549E-03 -9.20868837E-04
 -4.94548757E-01  1.52096563E+00  1.00976191E+00 -5.41563446E-05 -4.05578786E-02
  1.24604328E-01  8.28127715E-02  6.26919249E-02 -9.56506640E-02  9.11210636E-02
  9.34653969E-02 -1.02415599E-01  7.65487504E-02 -1.12124137E-01  1.07232876E-01
  1.12880948E-01 -1.22101338E-01 -4.70867384E-03 -9.33965453E-03 -4.75608958E-03
  1.19516379E-02 -9.14588725E-03  7.77930803E-02 -1.91740677E-02  5.20117733E-02
 -1.00904944E-02 -1.35056726E-01  1.12152678E-01 -3.18603958E-01 -3.36302892E-02
 -1.82311132E-01  5.25337532E-02 -1.48508994E-01 -2.04656946E-02  2.16743121E-03
  1.66576223E-03  7.34997507E-03 -1.40750248E-03  1.13923738E-02  1.73524178E-01
  2.31168165E-02  2.82885811E-01 -1.09515455E-04  3.45285468E-01 -9.28897259E-04
 -1.84250625E-03  6.93843169E-04  6.94568104E-03  4.97071391E-03  1.53582941E-02
 -4.96221766E-03  3.89367347E-02  2.67702617E-02 -2.70760779E-02  5.55004326E-02
 -2.66641842E-01 -1.80020665E-01 -3.61829139E-02  2.73528037E-02 -1.25566033E-01
 -8.54395879E-02 -7.03068270E-03 -1.70060501E-03 -9.98129118E-03 -1.62007029E-03
 -5.64947821E-03 -2.24608988E-01 -1.15510155E-01 -3.08322746E-01  9.94274679E-03
 -2.67142633E-01  2.89055537E-02  5.73306357E-02  4.91663325E-02 -3.71182947E-02
 -5.63781754E-02 -4.77142845E-01  1.21960065E-01 -7.64028777E-02 -1.33822748E-01
  8.16714202E-01 -4.44147534E-01  1.88093933E-01  4.53030637E-01  1.11549575E+00
 -1.93999320E-01  7.57677538E-02  1.94886961E-01  2.65026948E-03 -1.80708922E-02
  8.49447325E-03  1.48558732E-03 -6.97170061E-03  5.77753161E-02 -4.22615008E-01
  1.13295180E-01  7.76425965E-02 -1.03812731E-01 -2.32521646E-02 -4.61158221E-02
 -1.81916799E-02 -6.46289038E-02  5.60773150E-03  3.83674805E-01 -5.43962012E-02
 -1.48559671E-01  2.84558101E-02 -6.53688611E-01  2.50376973E-01  4.70470391E-01
 -1.86699979E-01 -8.96507876E-01  1.13744161E-01  2.00853717E-01 -8.82681318E-02
  8.56611343E-03  8.40240271E-03  3.37735734E-03  1.10243795E-02 -9.16619881E-03
  1.69291430E-01  2.45990869E-01  1.68815430E-01  1.74975892E-01 -2.62350490E-01
 -1.77975887E-05 -3.09679543E-05 -7.07766333E-02 -3.12588400E-01  4.39425153E-01
  1.68372184E-04 -1.52316157E-03 -7.52763679E-03  1.17946732E-02  3.84885982E-04
 -2.45732793E-01 -1.08761714E+00  1.53484029E+00 -3.87364999E-06 -2.01341869E-02
 -8.91187132E-02  1.25909757E-01 -1.40946348E-01 -7.50314416E-02  1.06668923E-01
 -5.70513350E-02  2.52953457E-02 -1.65325879E-01 -8.66116352E-02  1.23923134E-01
 -7.02031336E-02  3.04904721E-02 -3.00058248E-02 -5.95144692E-02 -1.79951238E-02
  2.97074735E-02 -7.93646103E-02  4.95431536E-01 -5.04339368E-02  6.28793812E-02
 -1.86732357E-01 -8.50786662E-01  2.17206202E-01 -1.67819836E-01  6.24761126E-01
 -1.15883317E+00  9.75729223E-02 -6.87959796E-02  2.67754989E-01 -1.68118614E-02
 -9.09017845E-03  9.09259158E-03  4.38805073E-03  3.20038891E-03 -3.48767114E-01
 -2.44628851E-01  1.26067156E-01  8.40288873E-02  7.89116043E-02 -5.33193872E-04
 -1.05660070E-03  5.77595118E-04 -4.47313155E-03  6.91664750E-03  8.72870842E-03
 -1.77649328E-03 -2.65445965E-02  3.90427248E-02 -1.32127861E-02  2.63729013E-02
  1.85490445E-01 -2.66372882E-01 -1.98701990E-02  1.29141217E-02  8.76569430E-02
 -1.26973237E-01  4.27777343E-03 -7.54309173E-03 -6.49013696E-03  3.82635344E-03
  7.34584172E-03  6.61027421E-02 -3.18511632E-01 -1.71131597E-01  1.11501928E-01
  2.86309454E-01  1.09550295E-02  2.17291967E-02  1.83322084E-02 -2.12078903E-02
 -1.64476447E-02 -1.80935959E-01  4.45756444E-02 -7.03135454E-02 -2.20674994E-02
  3.12225581E-01 -1.58137719E-01  3.58814021E-01 -2.48779333E-02  4.23622347E-01
 -6.90222775E-02  1.64287353E-01 -1.98822615E-02  3.87066261E-04  1.51665714E-03
  3.32264186E-03 -5.17868352E-04 -1.45195992E-02 -1.02233206E-01  1.21987033E-01
  9.17451068E-02 -6.75711902E-02 -4.34643676E-01  1.95679222E-02  3.88099172E-02
  1.24661129E-02  5.51985347E-02  5.41341147E-03 -3.22941720E-01  2.92976916E-02
  1.29745522E-01  3.50956710E-02  5.51324078E-01 -9.67972201E-02 -4.29698445E-01
 -2.51401102E-01  7.54872272E-01 -4.18397713E-02 -1.84800159E-01 -1.20174081E-01
 -2.15151453E-03  7.49716633E-03  4.89949633E-03 -1.34869610E-02  6.54335645E-03
 -1.19203302E-02  2.30134287E-01  2.54322648E-01 -2.88224099E-01  1.40242438E-01
 -3.32044320E-05 -3.44325564E-05  5.19598288E-01  7.62935402E-02  1.38598301E-01
 -5.16339297E-04  1.23690118E-02  1.34649028E-03  3.56454358E-03  4.93793255E-03
  1.80788902E+00  2.63520583E-01  4.83354080E-01  3.79653334E-04  1.48071380E-01
  2.15459449E-02  3.96098529E-02 -8.60495714E-02  7.20961392E-02  1.45220884E-02
  1.61273668E-01  4.05230553E-02 -1.01945707E-01  8.70543308E-02  1.68438926E-02
  1.95741870E-01  4.84855469E-02 -1.14742154E-02 -2.27615870E-02  1.32750174E-03
  1.43031348E-02 -3.07377464E-02  1.89550598E-01  2.81686088E-02  4.10864772E-02
 -7.39512620E-02 -3.25448435E-01 -2.45376971E-01 -1.82223416E-01  2.56401520E-01
 -4.43467470E-01 -1.17340216E-01 -8.15117741E-02  1.10929329E-01 -5.70228565E-03
  4.60217471E-03  1.07885637E-02 -5.20427851E-03 -5.64479339E-03 -1.26657795E-01
  2.64369307E-01  2.99848370E-01 -1.06328639E-01 -2.01997172E-01  3.23496875E-02
  6.41622218E-02 -9.02170793E-02 -1.17891001E-02 -2.08652392E-02 -5.33907376E-01
 -2.11857023E-01 -2.73056310E-02 -4.81110212E-02  9.09879682E-01  6.98064517E-01
  8.74483717E-02  1.53217578E-01  1.24813031E+00  3.00432857E-01  3.77451158E-02
  6.53771119E-02 -9.84562365E-03  8.49819845E-03  7.51975804E-04  1.82225356E-02
  4.85644967E-03 -1.97691553E-01  1.62932859E-01  1.10268065E-02  3.62120529E-01
  9.39099841E-02 -9.80742046E-03 -1.94548169E-02 -9.58709595E-03  1.59680593E-02
  2.26270644E-02  1.61975133E-01 -4.63620244E-04  4.54776109E-02  6.59300116E-02
 -2.77017266E-01 -1.32777135E-01 -1.99291340E-01 -2.95581559E-01 -3.78667225E-01
 -6.75051393E-02 -8.90140636E-02 -1.33368547E-01 -4.81438052E-03 -1.84274609E-03
 -1.36431952E-02 -1.96126844E-03 -9.63556157E-04 -2.02822629E-01 -1.23994102E-01
 -4.04443952E-01  4.00330776E-02 -8.27628415E-02 -1.11197567E-02 -2.20567392E-02
  9.44581090E-05 -3.28442002E-02  2.68590228E-03  1.83551907E-01  2.49096323E-02
 -8.26103726E-02  1.36398725E-02 -3.11899073E-01 -2.33204428E-01  3.04354299E-01
 -8.95064276E-02 -4.28652501E-01 -1.11906970E-01  1.33717297E-01 -4.21881664E-02
  1.16225730E-02 -3.93215265E-03  3.57763011E-03  5.33492751E-03  5.87160491E-03
  2.84627161E-01 -1.00491012E-01  1.34559716E-01  1.58378666E-01  3.05466048E-01
  6.51402915E-06  7.19301758E-07 -5.50023782E-02  2.50821864E-01  8.37010124E-02
  2.27086441E-04 -1.37012180E-01  6.21286460E-01  2.07966123E-01 -7.37813424E-04
 -7.07000096E-01  3.20776987E+00  1.07340013E+00 -2.29784098E-05 -7.02945277E-02
  3.18816287E-01  1.06722097E-01  1.44880426E-01 -1.09129657E-01  9.20902037E-02
  1.62967455E-01 -1.59186749E-01 -1.08803984E+00  8.20589438E-01 -6.92633995E-01
 -1.22281809E+00  1.19508144E+00  2.96516812E-03  6.00558645E-03  5.25523906E-03
 -2.17099399E-02 -2.50341958E-03 -5.89648831E-02  5.11233311E-03 -2.20002217E-02
 -5.10275825E-03  3.10932777E-01 -8.64591581E-02  3.24546833E-01 -4.26207199E-02
  1.65593591E-01  7.00299698E-02 -3.45603357E-01 -1.79930102E-01 -2.34812794E-03
 -2.35713067E-03 -5.08571818E-03  1.92595626E-03 -8.09522958E-03 -1.53765152E-01
 -1.12215626E-01 -2.82448091E-01  7.95873036E-02 -4.09247981E-01 -2.66126934E-04
 -5.39690190E-04  4.79492410E-03 -1.99790935E-02 -6.62203036E-03  5.36244597E-03
  4.72842114E-03 -2.11374185E-02 -7.09842177E-03 -2.98660085E-02 -7.32869561E-02
  2.69781836E-01  8.80978473E-02 -1.55672810E-02  7.56117203E-02 -3.69370173E-01
 -1.24735444E-01  6.31024100E-03 -5.88782314E-04  6.06517798E-03  1.77058715E-03
  5.04444866E-03  3.16584795E-01 -1.48855979E-02  3.11271786E-01  7.05253941E-02
  2.95040661E-01  2.45796571E-02  4.97853898E-02  2.59333410E-02 -3.83402198E-02
 -3.21592490E-02 -4.89187961E-01  1.44494399E-02 -2.94790782E-02 -1.86395686E-02
  2.59034951E+00 -7.47958066E-01  8.56797432E-01  9.04887994E-01  1.37637362E+00
 -2.10539433E-01 -1.19842791E-01  2.21905323E-01  2.45048508E-03 -2.11531715E-03
  7.75443891E-03  8.95976097E-04 -8.93568124E-03  9.91066101E-02 -5.63606812E-02
  3.67752846E-01  1.88905208E-02 -4.26403185E-01 -2.72624753E-02 -5.52164991E-02
 -4.88940963E-03 -6.12082980E-02 -5.95796566E-03  5.42424488E-01  4.39912591E-04
 -4.00369510E-02 -6.78382311E-03 -2.87077581E+00  2.37173460E-01  1.58581911E+00
  6.69173519E-02 -1.52606100E+00  2.07346696E-01  1.89339853E-01 -1.33530544E-01
  6.39277993E-03 -4.57970638E-03 -5.95326685E-04  9.80793120E-03 -2.06962031E-03
  2.86322345E-01 -2.29463676E-01 -4.79376097E-02  4.47370588E-01 -6.10897734E-02
  2.92590969E-06  1.32346332E-05 -5.81232047E-02 -9.51483340E-02  2.44520582E-01
 -3.05057510E-04 -1.44145442E-01 -2.36091296E-01  6.09145305E-01  1.42608496E-03
 -7.43909563E-01 -1.21840850E+00  3.14238641E+00  6.82824125E-06 -7.39606171E-02
 -1.21116294E-01  3.12490005E-01 -1.78173705E-01 -1.48966866E-01  1.90195118E-01
 -5.33467249E-02 -4.05874156E-03  1.34079914E+00  1.12074358E+00 -1.43184100E+00
  3.99753422E-01  3.11838188E-02 -2.93146361E-02 -5.93786812E-02 -3.51460621E-03
  2.41544329E-02 -6.09919185E-02  5.83650751E-01  1.29390867E-03  1.53892470E-02
 -3.92357355E-02 -3.09468797E+00  1.98673727E-01 -6.33771339E-01  1.59252943E+00
 -1.64349827E+00  1.96417384E-01 -8.52522252E-02  2.01426973E-01 -9.52153608E-03
 -1.85625554E-03  8.57129367E-03 -6.33112785E-04 -1.43203553E-03 -4.29712828E-01
 -5.63446170E-02  3.89340033E-01 -3.22745485E-02 -8.41131105E-02 -1.53060818E-03
 -3.09922332E-03  6.95657977E-03  7.91090972E-03 -1.91010203E-02  3.03853563E-02
  6.08964514E-03  8.19267171E-03 -2.05663690E-02 -1.59539351E-01 -1.35765563E-01
 -1.12869816E-01  2.50452682E-01 -8.51262040E-02  5.47375177E-02  1.35965813E-01
 -3.68545453E-01 -1.61384281E-03  5.08769099E-03  6.87060916E-03 -3.34945356E-03
 -4.42517252E-03 -6.09320547E-02  2.97431017E-01  3.38993900E-01 -1.68102709E-01
 -2.35693161E-01  1.78407358E-02  3.61372240E-02  2.02283410E-02 -5.65945039E-03
 -3.80949400E-02 -3.55214781E-01  1.17963337E-02  2.21137233E-03 -2.90542842E-02
  1.88410057E+00 -5.62741312E-01  3.22530395E-01  8.58382774E-01  1.00036487E+00
 -1.26639691E-01  3.20453087E-01 -1.10041363E-01  1.72454727E-03 -8.97220988E-03
  5.51021858E-03  1.24599353E-03  3.79938540E-03  1.12159818E-01 -4.29993349E-01
  2.41923955E-01  7.14147675E-02  2.24652734E-01  1.29896650E-02  2.63094252E-02
  9.08208564E-03  2.72161469E-02 -2.00208330E-02 -2.58500293E-01  6.93378724E-03
  1.69456784E-02 -2.10819308E-02  1.36906508E+00 -2.04664664E-01 -7.29833926E-01
  2.78613177E-01  7.27620420E-01  2.52945141E-02 -1.25979621E-01 -3.56124617E-01
 -6.32855366E-03 -7.41656933E-03 -4.15325269E-03 -1.97888787E-03  1.69806746E-03
 -2.95641444E-01 -3.74552399E-01 -2.50606731E-01 -7.27543682E-02  7.96029157E-02
 -4.92562690E-05 -6.74581315E-05  2.57828394E-01  3.27055822E-02  7.32117844E-02
  2.35859263E-04  6.40750674E-01  8.05123076E-02  1.82441530E-01 -2.84943081E-03
  3.30222608E+00  4.15325768E-01  9.40021908E-01  8.33417695E-05  3.28277636E-01
  4.12656835E-02  9.34638641E-02 -1.36454118E-01  1.07562772E-01  2.50839505E-02
  2.41814606E-01  6.36625479E-02  1.02605143E+00 -8.07556430E-01 -1.88863016E-01
 -1.81499520E+00 -4.78279568E-01 -1.19817784E-02 -2.42710573E-02 -2.38957495E-02
  4.20172865E-03 -2.27860148E-02  2.38582007E-01 -2.32331605E-02  3.65386300E-04
 -1.38490805E-02 -1.26402191E+00  3.86125681E-01 -1.82084524E-01  6.21385642E-01
 -6.72089569E-01 -3.33686192E-01 -1.39707022E-01  1.22034677E-01 -4.14884696E-03
 -6.22982858E-03 -1.54387055E-03  5.17316320E-03  5.58137153E-03 -1.79484796E-01
 -3.42579889E-01 -1.03942141E-01  2.38049148E-01  2.86319173E-01  3.18509365E-02
  6.45112187E-02 -6.82199424E-02 -8.87580116E-03 -1.70114572E-02 -6.33863702E-01
 -4.34388229E-02 -5.57019947E-03 -1.12858668E-02  3.35804280E+00  1.80154640E+00
  2.35810188E-01  4.36053840E-01  1.78683669E+00  2.67367376E-01  3.77601957E-02
  4.33441246E-02 -5.77296684E-03  5.36838467E-03  1.06005969E-03  1.06209221E-02
  2.72789169E-03 -2.54308793E-01  2.41058715E-01  4.88635437E-02  4.68977245E-01
  1.19323972E-01 -9.57443325E-03 -1.93937744E-02 -2.89598837E-02  4.57097703E-03
  4.07043604E-03  1.90581251E-01 -2.56061528E-02  5.92169607E-04 -1.64923222E-03
 -1.00843990E+00  5.47135280E-01 -1.93378316E-01 -2.37306773E-01 -5.36469171E-01
 -2.65333500E-01 -1.44440434E-01 -2.42431721E-01  1.77900340E-03  7.31421174E-03
  5.09264050E-03  1.21266787E-03  5.33440949E-03  1.20613492E-01  3.60449198E-01
  2.82902336E-01  2.99971523E-02  2.64897739E-01 -1.03104721E-02 -2.08830161E-02
 -2.41130742E-02 -1.81955090E-02 -5.57805569E-03  2.05125520E-01 -2.34218310E-02
 -1.00411602E-02 -6.08481602E-03 -1.08393307E+00  3.91682596E-01  5.31720358E-01
  7.06164773E-02 -5.77037679E-01 -3.31381797E-01  1.63136073E-01 -1.11795992E-01
 -3.91862337E-03  3.05785795E-03 -2.39274776E-03  4.36726153E-03 -8.02247165E-03
 -2.02684534E-01  1.47637115E-01 -1.33008641E-01  1.76652730E-01 -4.30176365E-01
 -1.11731905E-01 -2.31332147E-01  2.67374761E-04  1.53592134E-05  3.79201598E-05
  1.24653870E+00 -1.91318181E-03  4.80940383E-04 -6.14260027E-04  8.43754307E+00
 -3.30269001E-03  7.77285878E-04 -1.04560087E-03  6.80388653E-01 -2.81144904E-04
  5.16850129E-05 -8.07435554E-05  3.57702613E-04 -3.33284347E-04 -1.62245408E-05
 -3.11844241E-04  3.67856498E-05 -1.41741570E-03  1.47399491E-03 -3.48844319E-07
  1.78009424E-03  9.70695216E-05 -2.87285455E-02 -6.19249779E-02 -1.94547921E-03
  3.93812463E-03 -9.84912227E-03  6.78086150E-01 -2.97106404E-02  6.01842792E-02
 -1.50328179E-01 -2.09398781E+00  2.61950892E-01 -5.32077024E-01  1.32898863E+00
 -1.27677396E+00  4.13408341E-02 -8.30536902E-02  2.07431195E-01 -1.40717757E-02
 -5.34746968E-03  1.08415759E-02  1.63365193E-03  2.13954836E-03 -4.65139071E-01
 -1.76489769E-01  3.58361642E-01  5.40947262E-02  7.05927647E-02 -2.87730747E-02
 -6.20212284E-02  1.03987818E-02  1.36604780E-03  2.43783749E-03  6.79291152E-01
  1.58921859E-01  2.10041523E-02  3.71948008E-02 -2.10086952E+00 -1.40906203E+00
 -1.86475565E-01 -3.29595389E-01 -1.28009495E+00 -2.19853995E-01 -2.90747162E-02
 -5.14833545E-02  7.93662909E-03 -7.09000832E-03 -9.35177590E-04 -1.48848706E-02
 -4.00375969E-03  2.62728477E-01 -2.34484787E-01 -3.09923104E-02 -4.92407233E-01
 -1.32635779E-01 -2.87274903E-02 -6.19234062E-02 -6.09885258E-03  5.18658841E-03
  7.21831244E-03  6.78082905E-01 -9.31683505E-02  7.92988086E-02  1.10168186E-01
 -2.09390422E+00  8.23145715E-01 -7.00969021E-01 -9.74127127E-01 -1.27693580E+00
  1.28861031E-01 -1.09455111E-01 -1.51902426E-01 -3.22147465E-03  1.22895335E-02
 -1.04688693E-02 -1.43703647E-03  8.85111435E-03 -1.06569089E-01  4.06183893E-01
 -3.46110813E-01 -4.73986707E-02  2.92450476E-01 -2.87369977E-02 -6.19448488E-02
 -2.37377666E-03 -1.05026071E-02  1.95620138E-04  6.78372596E-01 -3.63568451E-02
 -1.60536207E-01  2.93393776E-03 -2.09548807E+00  3.21359045E-01  1.42002337E+00
 -2.60245066E-02 -1.27791722E+00  5.04910671E-02  2.21740646E-01 -3.98063093E-03
  9.36889468E-03  1.22674879E-04  5.66448274E-04  1.46471386E-02 -6.98971845E-03
  3.09839250E-01  4.04481195E-03  1.87343965E-02  4.84271835E-01 -2.31084111E-01
  1.28110165E-05  2.67919895E-05 -5.45863523E-04 -1.88110031E-04  6.85832052E-04
 -2.32696018E-04  1.13698687E-03  4.22096620E-04 -1.59857000E-03 -2.87998733E-04
  8.50762793E-04  2.23169288E-04 -6.41516982E-04 -5.32395477E-05 -5.88702794E-05
 -3.90626119E-05  1.90732902E-04 -5.58045278E-02 -3.11642985E-01 -2.65529451E-01
  1.04421842E-01  1.16361152E-01  3.18551744E-01  1.77267679E+00  1.50514450E+00
 -5.91728927E-01 -6.60104296E-01  1.92541075E-05  3.76604667E-05 -7.54068212E-04
 -5.40156565E-04  2.12702381E-05 -3.69952113E-04  5.49701480E-02  3.52718142E-02
  3.34700123E-03  2.34537796E-04 -8.57188360E-01 -5.50953249E-01 -5.20368309E-02
  1.03946051E-03  1.37845310E-01  8.87924980E-02  7.86807341E-03  3.55452855E-04
  1.39090049E-02  5.13815751E-03  1.73133852E-02 -2.31682599E-03  2.77690314E-02
  4.91849656E-01  2.28992756E-01  4.57282998E-01 -1.02170650E-01  1.07242874E-05
  2.14299603E-05 -2.19589981E-04 -1.10296040E-04  8.65341593E-04 -2.33677719E-04
  1.38124744E-02  7.83830288E-03 -6.34491388E-02  7.84696074E-04 -2.15145406E-01
 -1.22238672E-01  9.90737997E-01  5.49439852E-04  3.48688727E-02  1.97257195E-02
 -1.59507900E-01  1.11864189E-02  1.80012061E-02 -8.51005391E-03 -2.09946887E-03
  1.09608072E-04  3.34109422E-01  6.07525677E-01 -1.57414982E-01 -9.21242264E-02
 -3.34276906E-02 -1.27019563E-05 -2.42551345E-05  5.70805402E-04  7.74616462E-04
  1.91874314E-05  2.51729086E-04 -4.16477400E-02 -5.02379653E-02  9.39273341E-04
 -4.41392190E-04  6.50869624E-01  7.84926364E-01 -1.55276191E-02 -9.22544926E-04
 -1.04461522E-01 -1.26415381E-01  2.10217844E-03 -3.15828271E-03  1.58693987E-03
  6.33605560E-03 -2.16890054E-02  6.37712528E-04 -7.19197231E-02  1.43306490E-01
  2.62926669E-01 -6.47008990E-01 -1.85425824E-02 -3.78842293E-06 -6.97166172E-06
  4.00453307E-04 -1.30744782E-04 -8.78815740E-04  7.71757653E-05 -2.69120565E-02
  7.19343490E-03  5.89447365E-02 -2.24317325E-04  4.21197326E-01 -1.11987222E-01
 -9.21874737E-01 -3.75586269E-04 -6.76985049E-02  1.81990957E-02  1.48167131E-01
 -3.54866166E-03 -6.66760911E-03  1.97337993E-02 -2.44026393E-03 -8.39140523E-03
 -8.28239404E-02 -9.05296707E-02  6.42441080E-01 -1.01916872E-01 -2.74350840E-01
 -1.94000520E-05 -4.05230022E-05  5.15456912E-04 -3.23106882E-05  6.73591568E-05
  3.50488317E-04 -9.39312099E-04 -2.25090166E-04 -1.32400291E-04  4.48134618E-04
 -1.11886162E-03  7.58932362E-04 -1.22892825E-04  8.19121746E-05 -3.03150909E-05
  1.90307565E-04  2.96895380E-06 -2.05813255E-01  4.51528661E-02 -1.72579268E-01
 -2.75914823E-02 -3.46744313E-01  1.16871879E+00 -2.56951901E-01  9.80074107E-01
  1.54739539E-01  1.96993148E+00 -4.72419785E-06 -9.50856313E-06  4.73717145E-04
 -7.24554175E-04 -4.05441952E-04  6.54315766E-05 -3.35149279E-02  4.95308601E-02
  2.63424556E-02  6.46414722E-04  5.22408847E-01 -7.73089953E-01 -4.12751567E-01
 -5.10010247E-05 -8.39956202E-02  1.24196702E-01  6.63825872E-02  1.37687929E-02
 -1.22103689E-02  1.18412324E-02  5.43633929E-03 -4.00577120E-03  4.54722738E-01
 -3.59774162E-01  3.89501847E-01  1.62582702E-01 -4.28758842E-03 -1.34496785E-05
 -2.70674228E-05 -1.11228320E-04  9.36786440E-04  9.18297391E-05  3.02852479E-04
  9.84024801E-03 -6.42996137E-02 -5.78837111E-03 -1.21047475E-03 -1.54747720E-01
  1.00511605E+00  9.03684460E-02 -6.66530753E-04  2.46781774E-02 -1.61952286E-01
 -1.46050985E-02 -8.06741161E-03  3.91167287E-03  6.33507280E-04 -1.10368398E-02
  1.79519516E-02 -1.63504997E-01  9.64424794E-02  7.22202536E-02 -3.03898653E-01
  6.17209032E-01 -4.45012666E-06 -8.79972216E-06  4.76805293E-04 -3.96735012E-04
  7.27008372E-04  4.25973447E-05 -3.42509800E-02  2.73703517E-02 -4.84657689E-02
  1.06976580E-03  5.33115802E-01 -4.26631872E-01  7.58078967E-01 -9.09405888E-06
 -8.57483391E-02  6.84856617E-02 -1.21926686E-01  2.17720382E-02 -4.78165617E-04
 -5.00847613E-03 -4.63910494E-03  1.94531814E-03  6.81201821E-01 -2.79569526E-02
 -8.73568574E-02 -1.22597915E-01  1.64138742E-01  2.31920183E-06  3.40884196E-06
 -8.58184399E-04  2.28194043E-04 -4.15109297E-04  3.64470424E-06  5.76666197E-02
 -1.24823572E-02  2.78810056E-02 -1.04998354E-03 -9.01241192E-01  1.96196571E-01
 -4.35702924E-01  2.79023719E-04  1.45047333E-01 -3.18198891E-02  7.01076136E-02
 -9.79895961E-03  4.87841217E-03  7.34577275E-03  1.25490776E-02  1.38757270E-02
 -2.12525596E-01  1.23860463E-01  2.62337396E-01  3.64031384E-01  5.02106599E-01
 -1.08014797E-05 -2.12200815E-05  2.33985952E-05  1.03054874E-04 -5.41876589E-04
  1.30923463E-04 -2.46362667E-05 -2.09231897E-04  1.11270176E-03  6.16256956E-04
 -1.25307844E-04 -3.78657568E-04  1.94385023E-03  5.93464241E-05 -3.30977129E-06
 -2.03187979E-05  1.06883164E-04  1.35998777E-01  7.77923324E-01  6.57959852E-01
 -2.59929617E-01 -2.95097278E-01 -4.86439676E-02 -2.81823667E-01 -2.39628160E-01
  9.43142627E-02  1.07227580E-01 -2.44930073E-06 -6.60225330E-06 -2.00104551E-02
 -1.27205607E-02 -1.12489203E-03  1.64382166E-04  4.04517367E-02  2.56641679E-02
  2.40005730E-03 -1.86748201E-03 -2.87877175E-03 -2.34410819E-03  7.28881054E-04
 -1.28767118E-03  3.13456901E-02  1.97388955E-02  2.06720239E-03  1.22216739E-03
  1.23543393E-02  7.50384518E-03  5.43555920E-03 -3.37378456E-03  1.75323861E-02
  1.64904577E-01  1.04614917E-01  5.87218413E-02 -4.69507623E-02  1.12400465E-06
  1.75163453E-06 -5.00789889E-03 -2.99842966E-03  2.30544495E-02 -1.61155006E-05
  1.01123250E-02  6.04494797E-03 -4.65174015E-02  1.96877749E-04 -7.34313321E-04
 -4.30819257E-04  3.60628051E-03 -6.45947891E-05  7.78211319E-03  4.69109736E-03
 -3.61086334E-02  5.98491791E-03  1.40776998E-02  1.58684301E-03 -2.97682043E-03
 -2.37465571E-03  7.44957384E-02  1.85823776E-01  3.41480262E-02 -4.15234863E-02
 -3.51327706E-02 -2.30342224E-06 -4.47689881E-06  1.50659793E-02  1.83507019E-02
 -4.67742410E-04 -1.72855802E-06 -3.04817936E-02 -3.70527906E-02  1.03991452E-03
  8.84277461E-04  2.04666349E-03  3.02870854E-03  1.82258981E-04  7.21814747E-04
 -2.37022794E-02 -2.85269999E-02  8.19385660E-04 -3.53893507E-04  6.96891771E-03
  8.07445821E-03 -1.15411299E-02 -2.10312292E-03 -1.09580702E-03  1.00833149E-01
  1.11330660E-01 -1.43366054E-01 -3.18324250E-02 -2.03218464E-06 -4.39957576E-06
  9.95047925E-03 -2.64129258E-03 -2.14128192E-02  3.38625553E-05 -2.01065832E-02
  5.29775351E-03  4.33105902E-02  2.16241085E-04  1.48169298E-03 -4.73997660E-04
 -3.38714657E-03  2.12448466E-04 -1.55664259E-02  4.05522877E-03  3.33682255E-02
 -4.24132762E-04  3.34546912E-03  1.38982127E-02 -3.18920981E-03 -6.08128614E-03
 -1.94745920E-03  5.77365898E-02  1.80741147E-01 -4.39484094E-02 -7.92371079E-02
  1.59418818E-05  3.13238355E-05  3.63051176E-04 -8.59473444E-04  1.60943782E-05
 -1.93115088E-04 -7.90313304E-04  1.81636266E-03 -3.73436613E-05 -9.10034013E-04
 -1.23510288E-03  3.00012906E-03 -5.32500008E-05 -8.74593407E-05 -7.44751875E-05
  1.72524635E-04 -3.35233826E-06  5.14376683E-01 -1.08121079E-01  4.34172857E-01
  6.66338145E-02  8.61420339E-01 -1.88126412E-01  3.98184657E-02 -1.57841774E-01
 -2.48623919E-02 -3.11756996E-01  5.82695358E-06  1.32713506E-05  1.20201577E-02
 -1.80722449E-02 -9.62080061E-03 -2.07908180E-04 -2.43292848E-02  3.66053153E-02
  1.94012356E-02  1.57310916E-03  1.72746389E-03 -2.52642883E-03 -2.29213224E-03
  8.51079772E-04 -1.87433821E-02  2.81555165E-02  1.47980404E-02  1.01498114E-02
 -6.15252966E-03  8.68021016E-03  2.96063887E-03  5.18278532E-03  1.32825782E-01
 -7.57044840E-02  1.13221401E-01  3.67916327E-02  8.14593105E-02 -2.14239790E-06
 -3.79273596E-06 -3.61221639E-03  2.34139769E-02  2.26054653E-03  5.48968142E-05
  7.24332526E-03 -4.71916119E-02 -4.56888600E-03 -6.84229215E-04 -8.07664063E-04
  3.44901464E-03  2.78295109E-04 -1.57032618E-04  5.68494574E-03 -3.67055333E-02
 -3.53020375E-03  6.56540857E-04  8.86185292E-04  3.74570133E-03 -4.26764766E-03
  1.47458238E-02  1.97617399E-02  8.04727878E-03  5.46978384E-02 -4.93158028E-02
  1.95683287E-01  7.80473335E-06  1.76231925E-05  1.24945855E-02 -9.81110619E-03
  1.76424638E-02 -2.83687298E-04 -2.53127152E-02  1.99316562E-02 -3.56047446E-02
  2.31080318E-03  1.20473633E-03 -9.81359965E-04  3.56563061E-03  1.22988539E-03
 -1.96451851E-02  1.53392179E-02 -2.73013739E-02  1.36267271E-02 -1.07488361E-03
  1.32415405E-03 -1.53711010E-03  7.78964664E-03  1.74147218E-01 -1.54358493E-02
  2.58942375E-02 -1.67129199E-02  1.12416163E-01 -3.08108694E-06 -6.73895649E-06
 -2.09366727E-02  4.54822386E-03 -1.02841914E-02  1.69524776E-04  4.22691457E-02
 -9.00655830E-03  2.07679751E-02 -2.35660326E-03 -2.82135208E-03  1.77924828E-03
 -1.57944049E-03 -1.30741292E-03  3.28561033E-02 -6.84595576E-03  1.60525215E-02
 -1.44471707E-04  1.23503840E-03  6.75340893E-03  5.98417385E-03  1.29661194E-02
  1.02560221E-02  1.21860671E-02  9.04521252E-02  7.29155560E-02  1.74197607E-01
 -6.30111275E-05 -1.15655608E-04 -9.30368882E-01 -4.70197354E-01 -5.01032091E-02
  3.49969055E-04  2.00597138E+00  1.01370411E+00  1.08100794E-01  3.94218513E-03
  2.80152362E+00  1.41478708E+00  1.51374114E-01  5.17820547E-04  1.26042416E-01
  6.35747912E-02  6.84560256E-03 -8.13723787E-02  2.77570689E-01 -2.91501615E-02
  6.59958966E-01  4.67058202E-02  2.07367209E-01 -7.08013708E-01  7.39741229E-02
 -1.68156179E+00 -1.18006261E-01 -3.57935198E-04 -7.79826975E-04  4.33096058E-03
  1.94826645E-03  6.85152028E-04  1.37312760E-02  7.68899175E-02  3.72459242E-02
  7.36871800E-03 -1.25668922E-01 -2.66974914E-01 -1.69388632E-01  5.24458124E-02
 -5.76241419E-02 -1.57725665E-01 -8.72485300E-02  6.78932100E-03 -2.06645493E-04
  1.51347425E-02  4.71972303E-03  1.37918778E-02 -2.66586745E-03 -1.70601621E-02
  2.40741190E-01  7.38414201E-02  2.53537975E-01 -3.45672971E-02  8.08677333E-03
  1.75431067E-02  1.44747746E-02  3.49180070E-03  2.61732059E-03 -3.12181584E-01
  1.60379228E-01  4.96308830E-02  2.38180920E-02  2.92462978E+00  1.38378412E+00
  7.84741448E-02  3.73883656E-01  1.32665759E+00  2.17337465E-01 -3.12969044E-02
  7.98950893E-02  8.98794665E-03 -2.22494031E-03 -2.24265324E-03 -7.35661790E-03
 -8.32053641E-03  2.25192399E-02  8.05472538E-02 -2.29895180E-02  1.35471186E-01
 -6.68585433E-02 -2.23545647E-03 -4.85476666E-03  5.91216488E-03  6.84023264E-04
 -1.76285524E-03  8.62189562E-02  8.97035964E-02  2.71753502E-02 -1.17640119E-02
 -8.03569924E-01 -1.33184572E-02 -3.71453893E-01 -3.31998489E-01 -3.64795758E-01
 -9.97514810E-02 -1.32667315E-01 -8.06920538E-02 -3.53074419E-03 -5.06556034E-03
 -3.66160671E-03  1.93389377E-02 -2.64991032E-03 -6.96471380E-02 -9.77636651E-03
 -9.43906864E-02  3.29632365E-01 -3.42754136E-03 -5.54527730E-03 -1.20381018E-02
  5.83416343E-03  9.33333630E-03  1.02231541E-04  2.14044094E-01  8.94145803E-02
  9.63186224E-02  3.03175798E-03 -1.99987999E+00 -2.21673387E-02  1.00840789E+00
 -3.58333955E-02 -9.06755067E-01 -1.01458938E-01  1.79460553E-01 -1.35350285E-02
 -8.68825000E-03  3.86501904E-03 -6.04450328E-05  2.17166216E-03  1.56619639E-02
 -4.99978105E-02  7.88071279E-02  1.90192824E-03  2.13206616E-01  1.72277520E-01
 -1.39044168E-06 -2.45976567E-06  1.49744385E-01 -1.88248742E-01 -1.01520268E+00
  1.34834563E-05 -3.22746014E-01  4.05821121E-01  2.18843704E+00 -2.77731304E-04
 -4.50303988E-01  5.66422851E-01  3.05602495E+00 -1.90962100E-05 -2.02071335E-02
  2.54403322E-02  1.37357208E-01 -2.37812258E-01 -3.93221891E-01  5.02237597E-01
  1.70522371E-01 -1.73838652E-01  6.05417744E-01  1.00197565E+00 -1.27918943E+00
 -4.34570461E-01  4.42509802E-01 -6.94469915E-03 -1.50727869E-02  9.56349591E-04
 -2.50619598E-03  1.29847150E-02  2.68112924E-01  1.16452247E-03 -1.17697970E-02
  1.51212368E-01 -2.50712438E+00  3.10924486E-01 -5.98206239E-01  1.04317552E+00
 -1.13671790E+00  8.63094748E-02 -1.54905144E-01  1.30990127E-01  1.59952018E-02
 -3.17439641E-03  8.87645116E-04  2.42634766E-03 -2.07178802E-03  5.98886959E-02
 -1.36034235E-01  1.72921306E-01  6.71929409E-02 -1.94114475E-02  9.08562094E-04
  1.97140459E-03  4.85528826E-04  9.95056003E-04  4.84785041E-03 -3.50723374E-02
 -2.85852732E-03  1.66906941E-02  8.54659082E-02  3.28321288E-01  2.31970165E-01
 -3.23559388E-02 -2.62276988E-01  1.49101158E-01  6.83660518E-02 -2.68444467E-02
 -1.65566285E-01 -7.35374847E-03 -1.81475847E-02  4.91944896E-03  3.94445109E-03
 -4.77060850E-03 -1.37879842E-01 -2.86641813E-01  1.11268035E-01  9.28336452E-02
 -7.75584750E-02  7.13928123E-03  1.54956338E-02 -6.01604486E-03  5.41647695E-03
  1.09341879E-02 -2.75682446E-01 -5.56039614E-02  5.22860730E-02  1.34511600E-01
  2.57841748E+00 -8.14301366E-01  6.76523102E-01  7.10666730E-01  1.16870538E+00
 -1.69225379E-01  1.33388633E-01  5.55585399E-02 -1.33793211E-02  7.45103214E-03
 -4.46411690E-03  1.99044297E-03  2.94418181E-03 -1.77858763E-01 -6.15784726E-02
  9.30175701E-02  5.82911923E-02 -7.21404706E-02 -1.10521838E-03 -2.39885323E-03
 -3.48137285E-04  2.28519431E-03  4.56986884E-03  4.26866957E-02 -9.68000396E-03
  2.70127162E-02  8.30819509E-02 -3.99416072E-01  9.77050229E-02  1.72652109E-01
 -3.12469724E-01 -1.80934883E-01  3.74779078E-02  1.95818221E-02 -1.75872527E-01
 -5.30439033E-03 -2.69352300E-03  1.99322043E-02 -1.17005585E-03 -3.46527382E-03
 -7.91661991E-02 -6.85991282E-02  3.33249071E-01  2.15937379E-02 -7.68134560E-02
  2.96271591E-05  5.41240171E-05  4.48377603E-01 -9.12372117E-01  2.35206093E-01
 -1.87418382E-04 -9.66688354E-01  1.96683128E+00 -5.07062811E-01 -6.67442535E-04
 -1.35068454E+00  2.74608085E+00 -7.08537424E-01 -1.44284130E-04 -6.07713739E-02
  1.23386830E-01 -3.18789753E-02  5.80696745E-01 -1.58905835E-01 -3.09410988E-02
  1.62736866E-01 -3.64290287E-01 -1.48042662E+00  4.05277810E-01  7.78959001E-02
 -4.15142776E-01  9.26317229E-01  5.26114424E-03  1.14200789E-02 -3.29441541E-03
  6.70001580E-03 -7.42440951E-03 -2.03082352E-01 -4.68853825E-02  9.53335595E-02
 -7.07038811E-02  1.89792673E+00 -6.60981372E-02  1.33538141E-01 -9.51056721E-01
  8.60633102E-01  3.17318744E-02 -6.46265259E-02 -1.91120393E-01  4.52623247E-03
 -9.49245537E-03  1.42525179E-02  6.01870080E-03 -4.00497016E-04  2.30280065E-01
 -1.06365086E-01  1.15596059E-01  8.69454688E-02 -5.11454022E-02 -3.08136382E-03
 -6.68488833E-03 -5.94044631E-03  3.55874595E-03 -1.97694185E-03  1.18989273E-01
 -6.88471162E-02  7.06496028E-02 -2.68015889E-02 -1.11500794E+00 -4.99013526E-01
 -3.59953847E-01 -7.75693283E-02 -5.06091927E-01 -6.68046669E-02 -1.76553825E-01
  6.92750977E-03  5.52886216E-03  3.04843124E-03 -2.57350069E-03  1.17091110E-02
 -1.52429786E-02  1.64431575E-01 -2.23753128E-03 -4.50358468E-02  1.10744661E-01
 -2.72422884E-01  4.47900930E-03  9.72290780E-03 -5.40845848E-03  7.01640900E-03
  2.90094483E-03 -1.72922120E-01 -6.38616719E-02  9.78679764E-02  1.28241640E-02
  1.61619627E+00 -4.03826944E-01  1.83164343E-01  7.09112758E-01  7.32588321E-01
 -4.46940589E-02 -5.33014165E-02  1.85166006E-01  1.51019721E-02  2.60089527E-03
 -9.18441433E-03  4.42179593E-03  6.22027137E-03  2.89658341E-01 -6.29389203E-02
 -6.17782155E-02  8.78960262E-02  5.30196035E-04 -6.63078318E-03 -1.43905881E-02
 -7.51943989E-05  1.27078436E-02 -1.21611185E-03  2.56143948E-01 -2.10978903E-02
  1.44379042E-01 -2.05960408E-02 -2.39796519E+00  4.47658280E-01  1.10295262E+00
  4.61320817E-02 -1.08662782E+00  1.48036728E-01  1.55144021E-01  3.48274937E-02
 -6.13684697E-04 -2.88348718E-03 -3.81150310E-03 -1.52758328E-02 -5.97076479E-03
  1.35001270E-01 -5.30328211E-02 -5.25482162E-02 -5.56293269E-02 -1.90509431E-01
 -1.22551748E-05 -4.98363245E-05  2.98644850E-01 -7.14307696E-01 -1.69331831E-02
  7.59606012E-04 -1.15657809E+00  2.76601913E+00  6.54941540E-02  1.07093464E-03
 -5.83616075E-01  1.39430667E+00  3.27471023E-02  1.36238882E-04 -1.10449191E-01
  2.63960163E-01  6.21537015E-03 -6.47785707E-01  2.97854920E-01 -1.17474897E-01
 -3.21284581E-01  5.07562804E-01 -5.27396698E-01  2.42510587E-01 -9.56055665E-02
 -2.61477584E-01  4.13248397E-01  7.40136480E-03  1.91510317E-02 -5.52839271E-03
  4.89074437E-03 -1.16949935E-01 -3.12287458E-01  9.92168871E-03 -1.64050718E-02
  1.03140867E-01  1.26558166E+00 -1.19249392E-01  2.18127019E-01 -9.44487491E-01
  1.99892745E-02  1.21216137E-01 -2.80021479E-01  1.32663208E-01  7.94919804E-03
  2.48092768E-03 -3.85294680E-03 -6.28342205E-04  5.39147352E-04  4.01823910E-01
  7.85824896E-02 -1.53450807E-01  3.21768106E-03 -2.32321008E-02 -4.76528145E-03
 -1.23398379E-02 -6.18748801E-02 -5.19850838E-02 -1.95300756E-02  2.01473672E-01
  5.95947264E-02  3.38512098E-02  1.69373757E-02 -8.17664984E-01 -5.76274157E-01
 -2.43503874E-01 -1.54116682E-01 -1.36722990E-02  1.88038175E-01 -2.12476214E-01
  1.66728739E-02  1.45357558E-03 -1.96225052E-03 -1.19835010E-03 -4.51901603E-03
 -3.32504323E-03  1.22288480E-01 -1.12172659E-01 -4.12294181E-02 -1.64956829E-01
 -1.91688447E-01  1.29616802E-02  3.35381722E-02 -1.08440040E-01  6.55922292E-02
  1.47855309E-01 -5.46874769E-01  1.00943566E-01 -7.00953647E-02 -1.31057407E-01
  2.21615767E+00 -9.54063892E-01  7.10503240E-01  1.20366920E+00  3.46392775E-02
  2.43736074E-01 -3.52315448E-01 -1.82502231E-01  3.39172589E-03 -1.11726166E-02
  8.47759484E-03  1.64653186E-03 -5.95289851E-03  2.06202687E-01 -5.07164589E-01
  3.74233590E-01  1.00891616E-01 -3.01647921E-01 -1.55773322E-02 -4.03134793E-02
  7.63406482E-02  2.19312532E-01 -5.77499630E-03  6.57526282E-01 -6.24466083E-02
 -2.05918125E-01  4.80900252E-03 -2.66529490E+00  5.44784573E-01  1.95705859E+00
 -4.25082690E-02 -4.17194179E-02  2.38242320E-02 -5.35268102E-01  3.76117963E-04
  8.91615737E-03  6.71293752E-04  5.16314655E-04  1.42750363E-02 -8.26350468E-03
  4.42849959E-01  1.32611712E-03  3.31637188E-02  6.42536748E-01 -4.02603639E-01
 -5.11433340E-06 -2.09726104E-05 -4.59983094E-02 -3.76212998E-02  7.72214831E-01
  3.15867698E-04  1.77828548E-01  1.45620653E-01 -2.98974234E+00  4.99444184E-04
  8.93497504E-02  7.35537183E-02 -1.50799664E+00  8.15019495E-05  1.69209099E-02
  1.39107617E-02 -2.85389756E-01 -4.79098861E-01 -4.54582807E-01  6.44593231E-01
  1.40327217E-01 -1.06744034E-01 -3.90142023E-01 -3.70198273E-01  5.24774645E-01
  1.14299702E-01 -8.68631822E-02  1.75659912E-02  4.54497418E-02 -5.69494538E-02
  1.07984755E-01 -2.30254021E-01 -7.41070793E-01  4.96040165E-02 -9.61557207E-02
  2.16722526E-01  3.00312327E+00 -4.50578019E-01  8.85487222E-01 -2.06085155E+00
  4.77569423E-02  5.00908252E-02 -1.42922345E-01  5.70293540E-01  1.53273753E-02
  6.24308728E-03 -1.26196923E-02 -1.95115084E-03 -3.16238861E-03  7.01198267E-01
  3.09827509E-01 -6.01093612E-01 -9.67351032E-02 -1.25922887E-01 -3.08598198E-03
 -7.99149630E-03 -5.39818952E-02 -8.95812381E-03  3.28225534E-02  1.30486079E-01
  4.68458530E-02  7.27853047E-03 -1.60254107E-02 -5.29595892E-01 -4.26417869E-01
 -6.33707217E-02  7.41233821E-02 -8.89596365E-03  4.64064493E-02 -3.80195809E-03
  2.57372264E-01  2.09459045E-03  5.53210947E-04  1.15237614E-03 -3.52933021E-03
 -1.30529328E-03  1.34828055E-01  6.68121233E-02 -9.17078797E-03 -1.65539024E-01
 -4.66703518E-02 -1.29723226E-02 -3.35646568E-02  1.23178104E-01 -1.09393956E-01
 -1.04056450E-01  5.47283794E-01 -1.09751720E-01  9.61302284E-02  1.05077798E-01
 -2.21781188E+00  1.01099207E+00 -8.78108707E-01 -1.03679192E+00 -3.50614431E-02
 -1.64196257E-01  1.15765049E-01  4.20211381E-01 -1.63012594E-03  9.87860110E-03
 -8.20969823E-03 -1.04988044E-03  8.83396146E-03 -2.48555767E-02  4.65527965E-01
 -4.11644232E-01 -5.78775488E-02  3.89307625E-01 -1.49732335E-03 -3.87512960E-03
  2.98362526E-03  2.28913372E-02  4.44362036E-02  6.32108107E-02 -3.42273882E-03
 -2.08637807E-02 -2.62511066E-02 -2.56288525E-01  3.58080317E-02  1.95068525E-01
  1.67837966E-01 -4.17075344E-03 -2.11671624E-02 -4.16458087E-02  2.43524239E-01
  2.87455530E-04 -1.41125347E-03 -1.97323071E-03  1.83626010E-03 -7.75369845E-04
  5.66335452E-02 -1.89381963E-02 -1.45738732E-01  6.60153672E-02 -2.33585186E-02
  2.19881736E-05  8.49113564E-05 -7.13010180E-01 -2.96527324E-01 -5.70066540E-02
 -1.31117766E-03  2.76265362E+00  1.14879009E+00  2.21127084E-01 -1.44008027E-03
  1.39406378E+00  5.79069093E-01  1.11825978E-01 -1.75594997E-05  2.63897986E-01
  1.09655154E-01  2.11647582E-02  1.66331068E-01 -3.71171188E-01  2.92290877E-02
 -8.41417456E-01 -9.55506575E-02  1.35460327E-01 -3.02140589E-01  2.37642767E-02
 -6.84738247E-01 -7.77525221E-02 -1.77007509E-03 -4.58366074E-03 -3.59080144E-02
 -2.83816228E-02  2.45187272E-02  7.48526357E-02  1.97653196E-02  2.00635116E-02
 -2.25826734E-02 -3.03819641E-01 -1.13877042E-01 -1.56266804E-01  2.13154572E-01
 -5.25783621E-03 -2.31094863E-01 -8.01523532E-02 -5.09644779E-02 -1.49428147E-03
  1.35998649E-03  2.56770189E-03 -1.48996083E-04 -6.97009919E-04 -7.96206178E-02
  9.37675862E-02  1.08449345E-01  7.15707991E-02 -2.15950492E-02  1.82445742E-02
  4.72358485E-02  2.61619107E-01  2.28096146E-02  6.76006543E-02 -7.70958881E-01
 -2.42944765E-01 -2.51380960E-02 -6.06361448E-02  3.12732098E+00  2.29963789E+00
  2.58999614E-01  5.62527778E-01  5.10051298E-02 -5.84588018E-01 -1.41000301E-01
 -1.02192085E-01 -9.42739989E-03  8.65127843E-03  1.08177037E-03  1.72606411E-02
  4.03281005E-03 -4.21565171E-01  4.07277467E-01  4.38822887E-02  8.21650002E-01
  1.82160776E-01 -5.48767225E-03 -1.42015032E-02  1.18664091E-02 -6.26362283E-02
 -6.63540221E-02  2.31642908E-01 -2.25004188E-02  5.03590547E-02  5.77098547E-02
 -9.39011244E-01  2.73928772E-01 -4.34112841E-01 -5.24306845E-01 -1.51738627E-02
 -2.87919851E-01 -3.93757520E-02  5.69759173E-02 -1.91634821E-03  2.88642218E-03
 -5.37926511E-03  2.62384147E-04  2.94208058E-03 -9.80098406E-02  1.57572947E-01
 -2.34512986E-01  9.00394791E-02  1.34980112E-01 -1.10032620E-02 -2.84767771E-02
  2.25959797E-04  1.67025681E-01 -6.68200794E-03  4.64496740E-01 -1.22284435E-02
 -1.52639326E-01  4.94986827E-03 -1.88284493E+00  1.79508133E-01  1.42882722E+00
 -4.00776662E-02 -2.97184480E-02 -2.74152347E-01 -3.12638628E-01 -1.39798625E-02
  7.29217523E-03 -4.85977847E-04  7.40082316E-04  1.07541220E-02 -3.08195351E-03
  2.97919313E-01  1.34466154E-02  2.92247726E-02  5.40359433E-01 -1.22345806E-01
  2.58482915E-06 -4.37806714E-07  5.56837236E-07 -2.40625857E-06  1.53578546E-05
 -8.37302232E-06 -2.47308336E-05 -3.81896665E-06  2.97436340E-06  3.95748019E-04
 -4.48319198E-04 -2.04491074E-04  9.08712739E-04  5.51984346E-05 -5.23325866E-06
  5.83373067E-07 -1.26933931E-05  7.80321290E-03  4.31363971E-02  3.67750809E-02
 -1.44269077E-02 -1.59826796E-02 -1.87751336E-02 -1.03890714E-01 -8.86058566E-02
  3.47485193E-02  3.85003298E-02 -1.99622664E-06 -4.31537062E-06  5.27099114E-01
  3.40686562E-01  3.26470938E-02  5.78613426E-05 -6.27982560E-01 -4.05884420E-01
 -3.89027591E-02 -3.22702829E-04  3.89750873E-01  2.51797177E-01  2.42911934E-02
 -8.16562100E-04 -1.45148178E-01 -9.40103018E-02 -8.70709858E-03 -5.10528424E-04
  1.01841525E-03 -1.30964553E-03  6.87453785E-03  5.41932713E-04 -8.16024336E-04
 -4.93386881E-03 -3.94324612E-03  8.31515518E-04  1.71475683E-03 -1.24651872E-06
 -2.63811417E-06  1.32952371E-01  7.38320639E-02 -6.10331241E-01  3.57680269E-05
 -1.58401081E-01 -8.79668548E-02  7.27184930E-01 -1.74078559E-04  9.82237544E-02
  5.45915903E-02 -4.51395383E-01 -2.81135965E-04 -3.67472124E-02 -2.03625773E-02
  1.68251673E-01  3.01285978E-03  2.34671661E-03 -5.80370235E-03  4.85924268E-04
  1.36147963E-03 -1.22597037E-03 -5.11209766E-03 -3.43414299E-03  1.54899263E-03
  1.62655901E-03  1.12799276E-06  2.34612678E-06 -4.01696631E-01 -4.83352382E-01
  8.58438853E-03 -2.97420298E-05  4.78570924E-01  5.75850669E-01 -1.02282895E-02
  2.04599825E-04 -2.97020049E-01 -3.57256176E-01  6.39579004E-03  5.86657273E-04
  1.10537731E-01  1.33351856E-01 -2.23042389E-03 -1.66709921E-03 -3.01479719E-03
 -9.26125211E-04 -5.96666354E-03  1.52492160E-03 -6.87569244E-04 -4.47661716E-03
 -3.98720811E-03  2.26263773E-03  1.61960558E-03  2.22459146E-07  4.26124772E-07
 -2.58364945E-01  6.88344699E-02  5.69048148E-01 -4.57039819E-06  3.07808298E-01
 -8.20084736E-02 -6.77952234E-01  5.28487758E-05 -1.90993597E-01  5.08638682E-02
  4.20662708E-01  1.93611577E-04  7.12058407E-02 -1.90651309E-02 -1.56891665E-01
 -1.81765464E-03 -5.73734438E-03  3.49085093E-03  3.87756314E-04 -1.44772380E-03
 -6.71341187E-04 -4.18774085E-03 -4.48510349E-03  1.56518090E-03  1.93520467E-03
 -3.90724815E-06  6.37428925E-07 -1.30605306E-05  2.75666481E-05 -6.95401776E-07
  1.27515517E-05  4.59852616E-05 -5.06347407E-05  3.98368941E-06 -5.93402100E-04
  1.69408988E-04  5.42666375E-04  4.41373971E-05 -8.31598597E-05  1.88473730E-05
 -3.00398650E-05  3.17465033E-07  2.84615500E-02 -6.35770978E-03  2.37914479E-02
  3.83532883E-03  4.80173955E-02 -6.85696561E-02  1.53257782E-02 -5.72868174E-02
 -9.25291026E-03 -1.15578170E-01  5.64721796E-07  1.35115731E-06 -3.23029582E-01
  4.75825231E-01  2.54167655E-01 -1.94005785E-05  3.84855223E-01 -5.66890697E-01
 -3.02805779E-01  8.74151568E-05 -2.38823248E-01  3.51747959E-01  1.87833065E-01
  2.67076192E-04  8.89867595E-02 -1.31126142E-01 -7.01505923E-02  2.19564212E-03
 -3.50237731E-03  1.93995583E-03  1.46869875E-03 -5.25771784E-03 -3.41280289E-03
  1.09704329E-03 -2.86809611E-03 -5.79340178E-04 -4.77282419E-03  1.65562240E-06
  3.48087468E-06  9.47266575E-02 -6.19450377E-01 -5.43483952E-02 -4.73520423E-05
 -1.12868607E-01  7.38033656E-01  6.47507979E-02  2.22568409E-04  7.01726841E-02
 -4.58010864E-01 -4.01525455E-02  2.92824747E-04 -2.60368955E-02  1.70804046E-01
  1.50096788E-02 -4.99689391E-03  1.79540661E-03 -1.73845029E-03 -3.93378415E-03
  1.95713929E-03 -2.61904986E-03  5.13692314E-04 -2.45669951E-03  2.53672789E-05
 -5.56482195E-03  4.73484407E-07  1.19975483E-06 -3.27472309E-01  2.64321138E-01
 -4.66897674E-01 -1.73644984E-05  3.90145965E-01 -3.14908215E-01  5.56247151E-01
  8.53356153E-05 -2.42122270E-01  1.95402112E-01 -3.45109310E-01  3.44480906E-04
  9.01269213E-02 -7.28031770E-02  1.28757097E-01  4.83520894E-03  3.65762746E-04
 -3.60257106E-03 -1.81974861E-03 -3.29989376E-03 -3.69827672E-03  6.75242072E-04
 -2.24919945E-03 -2.23262157E-04 -4.98668815E-03  1.14135130E-07  1.85366554E-07
  5.55827969E-01 -1.20784676E-01  2.67074943E-01 -4.28270542E-06 -6.62193775E-01
  1.43901006E-01 -3.18186117E-01 -3.76386914E-05  4.10877192E-01 -8.92846417E-02
  1.97430114E-01 -4.27353783E-04 -1.53105549E-01  3.34923847E-02 -7.36025246E-02
 -5.56239329E-03  2.13515032E-03  4.54858247E-04  3.82594658E-03  6.53990744E-04
 -2.56876429E-03  4.76681830E-04 -2.69450576E-03 -8.42121085E-04 -5.39143065E-03
  4.87055871E-02  4.59801676E-03  1.48539909E-04 -1.47059701E-04  1.08559354E-04
 -4.38893062E-02 -8.16971373E-05  3.96153829E-04 -2.33040065E-04  2.85416570E+00
  5.97230878E-04 -1.48886264E-03  9.25849596E-04  7.01877045E-01  9.81010753E-05
  4.66669179E-04 -2.37511687E-04 -6.12259015E-05 -1.27373592E-04  5.72039216E-05
 -2.44721024E-04  4.23288290E-05  1.23493528E-05  8.55108390E-05 -3.03770612E-05
  1.73544005E-04  7.30006751E-07 -9.00425957E-04 -3.10316899E-03  1.14221076E-01
 -2.31243870E-01  5.80016483E-01  5.37795343E-02 -1.41613376E-01  2.86663451E-01
 -7.19022114E-01 -3.47270496E-01  1.32424406E-01 -2.68219310E-01  6.72023330E-01
 -7.44999216E-01 -9.57189361E-03  1.91065076E-02 -4.85626872E-02 -3.44670353E-03
 -1.33400105E-03  2.64438530E-03  3.91670912E-04  5.14986339E-04 -1.93617807E-02
 -7.37523787E-03  1.49042247E-02  2.24367698E-03  2.92892769E-03 -8.99845487E-04
 -3.10158578E-03 -6.12622357E-01 -7.97020659E-02 -1.44021564E-01  5.37645343E-02
  7.59459862E-01  9.87995482E-02  1.78546321E-01 -3.47181348E-01 -7.10192672E-01
 -9.27209460E-02 -1.66787533E-01 -7.43736037E-01  5.18149480E-02  6.43424293E-03
  1.23507250E-02  1.94112101E-03 -1.75113344E-03 -2.26000672E-04 -3.63493752E-03
 -9.47638402E-04  1.09275324E-02 -9.78249804E-03 -1.28388045E-03 -2.04874358E-02
 -5.47050509E-03 -9.02102423E-04 -3.10662402E-03  3.58839235E-01 -3.04509269E-01
 -4.25702015E-01  5.38312498E-02 -4.44869869E-01  3.77505725E-01  5.27741904E-01
 -3.47197727E-01  4.15986557E-01 -3.53342591E-01 -4.93169943E-01 -7.43933102E-01
 -3.03662490E-02  2.54319167E-02  3.62105819E-02 -7.88121567E-04  3.04588996E-03
 -2.57917378E-03 -3.68587267E-04  2.16026442E-03 -4.44760916E-03  1.69901723E-02
 -1.44617709E-02 -1.98969678E-03  1.21943913E-02 -9.03907618E-04 -3.11025441E-03
  1.39461166E-01  6.18640801E-01 -1.20580854E-02  5.38880718E-02 -1.72908586E-01
 -7.66983068E-01  1.49470854E-02 -3.47085295E-01  1.61811221E-01  7.17413450E-01
 -1.37770897E-02 -7.42359484E-01 -1.19563452E-02 -5.31906915E-02  1.20213727E-03
  2.33549778E-03  3.57283445E-05  1.48279284E-04  3.63209462E-03 -1.73264703E-03
  1.30086391E-02  1.79805638E-04  7.97108063E-04  2.03280320E-02 -9.67911968E-03
  3.88188780E-06  4.89694187E-07 -3.38950708E-04  1.68132308E-03 -4.40107460E-04
 -5.05340176E-06  1.02338964E-03 -5.17492696E-03  1.34453715E-03  2.16831796E-04
 -4.25629172E-03  2.06535645E-02 -5.44767501E-03  5.41067603E-05  1.24453335E-03
 -6.39527734E-03  1.65062122E-03  1.57914340E-03 -2.10082011E-04 -1.67473944E-04
  8.66460117E-04 -9.31409169E-04 -6.26211210E-04  8.22946095E-05  7.82126946E-05
 -3.11221278E-04  3.96606616E-04 -2.77968243E-05 -5.54462800E-05  3.85151178E-01
  2.97390360E-01  4.24196441E-02  7.32666984E-04 -4.80691573E-01 -3.71026152E-01
 -5.33714729E-02  6.15830825E-04  3.18949765E-01  2.44534957E-01  3.66849225E-02
  1.25293989E-02 -1.89078018E-01 -1.43903330E-01 -2.85340692E-02 -2.72964130E-03
 -1.37205272E-02 -8.17829390E-03 -1.35822574E-02  3.31596421E-03 -3.22219376E-03
 -1.37129984E-02 -7.62113699E-03 -1.33136735E-02  3.37905446E-03  3.69286588E-06
  7.48434537E-06  6.68717468E-02 -7.72773475E-01  1.49495688E-01 -1.02812619E-04
 -8.35227911E-02  9.64270860E-01 -1.86554852E-01 -2.59561250E-04  5.56942182E-02
 -6.40046397E-01  1.23916280E-01 -2.52434489E-03 -3.39664792E-02  3.74753907E-01
 -7.27885443E-02  1.07375746E-02  4.11494514E-03 -5.50984335E-03  1.19579783E-02
 -2.87927812E-02  1.04718227E-02  4.12498891E-03 -5.43026513E-03  1.18657145E-02
 -2.83733724E-02 -1.84693203E-05 -3.68566180E-05  2.70572961E-01  2.72752657E-01
  3.29123124E-02  4.86816730E-04 -3.37810381E-01 -3.40305747E-01 -4.08195708E-02
  3.80306532E-04  2.24500970E-01  2.24230197E-01  2.67640102E-02  8.20498608E-03
 -1.34953303E-01 -1.32344871E-01 -1.14226022E-02  7.09640696E-05  3.79014855E-03
  6.16216324E-03 -1.53997279E-02  1.49675842E-04 -8.49111835E-06  4.02677357E-03
  5.80699379E-03 -1.51993225E-02  4.08976306E-04  4.23583822E-05  8.40010531E-05
 -7.13845435E-01  1.58470542E-01 -2.13352790E-01 -1.10235066E-03  8.90991311E-01
 -1.97127587E-01  2.66254481E-01 -8.36057600E-04 -5.90719815E-01  1.28023460E-01
 -1.76188383E-01 -1.84393373E-02  3.51710896E-01 -6.63467803E-02  1.04426886E-01
 -8.69135137E-03  5.89185127E-03  7.59451192E-03  1.66804687E-02  2.57092309E-02
 -9.09451656E-03  5.79297924E-03  7.44548110E-03  1.56034043E-02  2.57206533E-02
 -1.49193531E-06 -1.89420285E-07 -2.26176118E-04  3.01817313E-04  1.95582729E-03
  1.90169144E-06  6.99714079E-04 -9.29742235E-04 -6.00090464E-03 -8.26388186E-05
 -2.74873313E-03  3.70635736E-03  2.40868512E-02 -2.07132667E-05  8.68291406E-04
 -1.14981970E-03 -7.39283769E-03 -8.32216402E-04 -1.19358054E-03  1.62703414E-03
  5.49074599E-04 -5.07225526E-04  3.52004627E-04  5.01272552E-04 -6.27317891E-04
 -2.33653372E-04  1.97504617E-04  4.23536683E-05  8.43244873E-05 -6.22987500E-01
 -7.50790095E-02  9.39112409E-02 -1.11251312E-03  7.77566406E-01  9.33895809E-02
 -1.16606224E-01 -9.45964961E-04 -5.15496727E-01 -6.14091606E-02  7.45869744E-02
 -1.90644585E-02  3.06711769E-01  3.11101624E-02 -3.55931280E-02 -6.99688439E-03
  2.37091851E-02  5.00433318E-04  1.17310532E-02 -3.92796536E-03 -6.05241968E-03
  2.36716854E-02 -1.26782427E-04  1.14472926E-02 -3.97615384E-03 -6.25762889E-06
 -1.24881318E-05  1.94140089E-01 -1.28537146E-01 -7.56145093E-01  1.65844665E-04
 -2.42145537E-01  1.60407559E-01  9.43536024E-01  1.95398805E-04  1.60367552E-01
 -1.06527732E-01 -6.26497493E-01  3.08481696E-03 -9.22799818E-02  6.26418087E-02
  3.66982307E-01 -1.28650592E-02 -2.89055099E-02  4.77331979E-03  8.21149739E-03
 -6.44151518E-03 -1.26022269E-02 -2.85597032E-02  4.62337832E-03  7.95910153E-03
 -6.37212975E-03 -4.15696958E-05 -8.26143672E-05  5.68976536E-01  1.60751860E-01
  3.66582251E-01  1.08760771E-03 -7.10424955E-01 -2.00258692E-01 -4.57068908E-01
  8.93952129E-04  4.71919640E-01  1.31725186E-01  3.00681660E-01  1.84952378E-02
 -2.84938572E-01 -7.22843199E-02 -1.72310516E-01  1.89413970E-02  4.16156438E-03
  5.29751291E-03 -2.22874687E-02  5.09356333E-03  1.84677591E-02  4.80895365E-03
  4.61919651E-03 -2.20352458E-02  5.49923568E-03  5.55820436E-06  1.10935954E-05
 -1.34170158E-01  3.49284107E-02  2.44461060E-01 -1.46433829E-04  1.67466509E-01
 -4.35088031E-02 -3.05183068E-01 -1.05273877E-04 -1.10917745E-01  2.84385756E-02
  2.01192982E-01 -2.42811199E-03  6.61493454E-02 -1.56893543E-02 -1.21869340E-01
  1.25093962E-03  1.51766465E-03 -1.11937860E-02  2.12493394E-03  5.47512951E-03
  1.17984074E-03  1.53056960E-03 -1.10045424E-02  1.96982449E-03  5.44872789E-03
 -3.94506133E-08 -8.46763001E-09 -1.66703718E-05 -1.44327154E-04  2.17240548E-04
  5.78645582E-08  5.23675170E-05  4.41946101E-04 -6.69294066E-04 -1.36215090E-06
 -1.89967815E-04 -1.78963148E-03  2.63833208E-03 -3.17905281E-07  6.45253126E-05
  5.44507791E-04 -8.23636280E-04 -2.21117225E-04 -1.04403136E-04  1.46604516E-04
 -6.74390274E-05  4.40561651E-05  8.68211997E-05  3.33118341E-05 -5.80057723E-05
  2.90645885E-05 -1.95269893E-05  6.81181194E-06  1.34909558E-05 -1.86754565E-01
  6.45739400E-01  2.95541101E-01 -1.76808782E-04  2.33073825E-01 -8.05859768E-01
 -3.68714171E-01 -1.19236598E-04 -1.54508505E-01  5.34278263E-01  2.43994589E-01
 -2.89133123E-03  9.15191211E-02 -3.15663751E-01 -1.42551207E-01 -1.97975298E-02
  8.84270235E-03 -1.97474031E-02 -1.23179748E-02  5.13691261E-04 -1.93785974E-02
  8.74920117E-03 -1.95540223E-02 -1.21423786E-02  4.71832817E-04 -3.33955017E-07
 -6.70007137E-07  9.01375115E-03  8.90615217E-04 -3.89727228E-02  8.93639442E-06
 -1.12414952E-02 -1.10146830E-03  4.86253973E-02  1.21765908E-05  7.44753812E-03
  8.05920023E-04 -3.23540290E-02  1.72369694E-04 -4.25804569E-03 -2.27049723E-04
  1.87718466E-02 -6.96141699E-04 -1.45364480E-03  2.75024625E-04  3.18462285E-04
 -8.08125614E-05 -6.79288121E-04 -1.43986972E-03  2.65663616E-04  3.08491586E-04
 -7.76170245E-05 -2.78771541E-06 -5.44287135E-06  7.65065986E-03 -5.91455221E-01
  4.32216357E-01  7.00421112E-05 -9.56798514E-03  7.38111037E-01 -5.39349797E-01
  1.33694464E-05  6.40492757E-03 -4.89170615E-01  3.57263794E-01  9.89265594E-04
 -4.10972867E-03  2.89126145E-01 -2.10683420E-01  2.53867701E-02 -5.47687741E-03
 -1.01778717E-02  1.35989877E-02  7.08002410E-03  2.49920711E-02 -5.36429120E-03
 -1.00566931E-02  1.33915315E-02  7.00977495E-03 -3.67284200E-06 -7.34286958E-06
  1.70523187E-01 -5.13914085E-02 -6.94456162E-01  9.74442387E-05 -2.12814308E-01
  6.40737344E-02  8.66611619E-01  9.52694555E-05  1.41096866E-01 -4.22365289E-02
 -5.74493476E-01  1.73067626E-03 -8.34757332E-02  2.40276417E-02  3.38612586E-01
 -4.80628190E-03 -1.87445239E-03  2.95931981E-02 -1.57144030E-03 -7.53077146E-03
 -4.67474776E-03 -1.82580866E-03  2.91606249E-02 -1.47598499E-03 -7.45460200E-03
 -1.32758779E-05 -1.17959986E-06 -2.27005361E-02  2.32724610E-02  6.76345627E-02
  1.02741918E-05  7.04476588E-02 -7.22527271E-02 -2.09847590E-01 -7.03545293E-04
 -2.81111376E-01  2.87924217E-01  8.37519522E-01 -1.87688838E-04  8.78510746E-02
 -9.01156625E-02 -2.61642959E-01 -1.34908796E-02 -5.39549882E-02  5.99698092E-02
  1.73689368E-02 -3.02351938E-02  5.44904278E-03  2.16173148E-02 -2.41149938E-02
 -6.93217931E-03  1.21401237E-02  1.35243069E-03  2.68210243E-03  3.44355348E-01
 -4.34682195E-01 -2.11494608E-01 -3.51734556E-02 -4.24504871E-01  5.32886959E-01
  2.81784624E-01 -2.61993259E-02  2.84700007E-01 -3.46649436E-01 -2.75430451E-01
 -5.79298230E-01 -6.33359628E-02  2.82460298E-02  4.03643794E-01  1.99188218E-02
  2.75360488E-03 -7.09969154E-03 -9.55532599E-04  4.87854982E-03  4.53925664E-02
  1.23262743E-02 -2.60888162E-02 -3.86649002E-03  2.43419940E-03  1.01375092E-04
  2.01353921E-04  1.90000720E-01 -2.38785823E-01 -6.85573231E-01 -2.64455770E-03
 -2.37691543E-01  2.96658473E-01  8.51940913E-01 -1.85726640E-03  1.74621913E-01
 -2.09495398E-01 -6.02752721E-01 -4.31383344E-02 -9.44814081E-02  8.31390451E-02
  2.41959054E-01 -4.73221126E-03 -7.52844608E-03 -7.89558322E-03  3.75531303E-03
 -1.38327562E-03 -6.27124189E-03 -7.32359068E-03 -9.48210819E-03  5.93955950E-03
 -8.31915117E-04 -1.90830745E-03 -3.78372057E-03 -2.07330387E-01  1.19520297E-01
 -2.02105325E-01  4.96123044E-02  2.41410871E-01 -1.34560462E-01  2.70788479E-01
  3.69785940E-02 -1.03565430E-01  3.87565281E-02 -2.69823131E-01  8.17150568E-01
 -2.07149845E-01  1.99446649E-01  4.12081845E-01 -8.18123923E-03  1.80272359E-02
 -1.72764420E-02 -1.44454195E-03  9.18081806E-03 -1.64043127E-02  4.89117529E-02
 -4.39636033E-02 -5.13331815E-03  3.07997309E-02  4.55266653E-04  9.03073324E-04
  2.77973226E-01 -6.63422714E-02 -7.02858113E-01 -1.18467522E-02 -3.44097526E-01
  8.92347550E-02  8.73741073E-01 -8.53750093E-03  2.37070488E-01 -9.05025433E-02
 -6.17710448E-01 -1.93974287E-01 -7.57678410E-02  1.41095164E-01  2.55025773E-01
 -1.79908821E-03  7.55770133E-03  9.13162832E-03 -8.06032179E-03 -9.94586439E-04
 -6.95983963E-03  9.10847581E-03  9.48388724E-03 -1.72439557E-02  2.96097854E-03
  9.62674376E-05  1.31782899E-05  1.60049562E-03  7.10840258E-02 -2.39284809E-02
 -1.44424458E-04 -4.98583674E-03 -2.20667563E-01  7.42279395E-02  5.25942610E-03
  2.01167764E-02  8.80149396E-01 -2.96452486E-01  1.31131388E-03 -6.26072258E-03
 -2.75228372E-01  9.25368074E-02  6.35533682E-02  4.11328699E-03 -1.37147026E-02
  4.98774731E-02 -3.42635290E-02 -2.54916416E-02 -1.65870418E-03  5.55576089E-03
 -2.00064139E-02  1.37197361E-02 -1.31040851E-03 -2.60080730E-03 -1.21292025E-01
 -5.48182985E-01 -2.23862132E-01  3.41252244E-02  1.47280815E-01  6.88865382E-01
  2.60108167E-01  2.47381138E-02 -8.90582986E-02 -5.16930406E-01 -1.10172559E-01
  5.59183642E-01 -1.63529242E-02  3.27097523E-01 -2.33408448E-01 -9.32312805E-03
 -1.22021371E-03  1.83057492E-02  2.06475397E-03  5.57020434E-03 -3.31195150E-02
 -9.78676906E-03  3.78407286E-02  4.35931113E-03  1.00341629E-02 -1.45939534E-04
 -2.91695478E-04  3.63748705E-02 -7.07001613E-01  2.51664560E-01  3.84651052E-03
 -4.31014142E-02  8.79219074E-01 -3.12369285E-01  2.15193443E-03  2.16608764E-02
 -6.24519964E-01  2.19460728E-01  6.04586161E-02  2.32425652E-02  2.60938274E-01
 -8.24812888E-02 -2.72778733E-03  4.13341101E-03 -1.50205851E-03 -2.92771682E-03
 -1.11902209E-02 -2.32891493E-03  3.49431541E-03 -1.76272253E-03 -6.37376633E-03
 -1.32187797E-02 -4.80034860E-04 -9.54175035E-04 -1.25769549E-01 -6.48249319E-01
  3.73157373E-01  1.25338379E-02  1.52271297E-01  8.09490152E-01 -4.59078395E-01
  8.43453858E-03 -9.07228244E-02 -5.86941330E-01  3.04875479E-01  2.02700384E-01
 -2.46143037E-02  2.98112300E-01 -5.25238875E-02  2.79516786E-03 -2.87718656E-03
 -7.17344013E-03  3.58806061E-03  1.15998304E-02  7.01345450E-04  3.65935173E-03
 -1.39665182E-02  2.74044568E-03  1.85982151E-02  1.93051752E-03  3.82590869E-03
  1.67466615E-01  8.47046197E-03  2.36510841E-01 -5.01515280E-02 -2.01808695E-01
  1.81802732E-02 -2.94593107E-01 -3.78015944E-02  1.15774308E-01 -1.28541651E-01
  2.10409408E-01 -8.27865551E-01  4.91941906E-02  4.94448535E-01 -9.59573245E-02
 -1.52626280E-02 -1.61129487E-03 -4.32924806E-03 -2.19571807E-02  7.26559002E-03
 -3.94945676E-02 -2.15134088E-03 -6.07283683E-03 -5.89904010E-02  2.46914159E-02
 -2.47779945E-05 -7.78378038E-06  7.14057761E-02  5.75616980E-03  2.19868435E-02
  1.05292230E-04 -2.21734025E-01 -1.79023945E-02 -6.82527750E-02 -1.54050808E-03
  8.87251654E-01  7.17428021E-02  2.73087643E-01 -2.93883677E-04 -2.76660569E-01
 -2.23866826E-02 -8.51284118E-02 -4.28838914E-02  3.07917529E-02  8.35461631E-03
  6.81604961E-02  1.99495313E-02  1.73767375E-02 -1.24653480E-02 -3.39116395E-03
 -2.76600949E-02 -8.13027540E-03  8.46456465E-04  1.67945408E-03 -6.69997604E-01
 -1.80411821E-01  7.87369184E-02 -2.20225138E-02  8.35307282E-01  2.19567992E-01
 -8.60837457E-02 -1.67338991E-02 -6.01038281E-01 -1.36419045E-01  1.33075542E-02
 -3.63745889E-01  2.84276319E-01 -1.62838313E-02  1.75987710E-01  8.35399045E-03
  1.24217973E-02 -2.26376693E-03 -2.61883232E-03 -7.07431773E-03  2.41009956E-02
  1.92789278E-02 -1.35577554E-02 -5.30056431E-03 -1.04323947E-02 -2.05069612E-03
 -4.06701336E-03  4.76355748E-02  4.15427779E-02 -3.85948256E-02  5.33409709E-02
 -2.89741633E-02 -4.76280706E-02  5.50345675E-02  4.08118133E-02 -1.01532240E-01
  1.76687817E-02 -6.77394388E-02  8.83243859E-01  5.07812897E-01  5.46043253E-02
  1.36387866E-01  1.26039418E-02 -1.17502072E-02 -1.80167314E-03 -2.31362052E-02
 -5.69146583E-03  3.41468726E-02 -3.10133588E-02 -4.41677656E-03 -6.33484437E-02
 -1.64448593E-02  6.29349614E-04  1.24884057E-03 -5.96349776E-01 -1.78426250E-01
 -3.94475305E-01 -1.63758119E-02  7.46881775E-01  2.17199489E-01  4.84028235E-01
 -1.23830505E-02 -5.50611141E-01 -1.35085643E-01 -3.16595870E-01 -2.70193772E-01
  3.12060386E-01 -1.51956086E-02  3.27713411E-02 -4.60129137E-03 -1.07849089E-02
 -3.02895940E-03  3.73184439E-03 -8.81572939E-03 -2.40721158E-03 -2.18006609E-02
  4.27647480E-03  4.64221504E-03 -1.68699237E-02  5.77062464E-04  1.14512109E-03
 -6.87385254E-01  1.63046142E-01 -2.32205652E-01 -1.50157776E-02  8.56579269E-01
 -1.94126904E-01  2.88554807E-01 -1.13353504E-02 -6.14114018E-01  1.02706026E-01
 -2.03550865E-01 -2.47702690E-01  2.84867657E-01  8.92807630E-02  8.22653263E-02
  1.60969999E-04 -1.72999679E-03  3.87154560E-03 -4.21865851E-03  1.38717596E-02
 -5.79382868E-03 -2.37239383E-03  3.93889578E-03 -1.55367033E-02  2.04039956E-02
  7.37226873E-06  2.59663514E-06  8.31576769E-02 -5.20739838E-03 -3.15403992E-01
 -1.59703302E-06 -2.61835631E-01  1.63834633E-02  9.92910440E-01 -9.26893440E-05
 -3.34951688E-02  2.16104396E-03  1.27192122E-01  5.12046403E-05  6.39778794E-02
 -3.99184969E-03 -2.42637140E-01  1.51211653E-01  2.30973067E-01 -2.76883354E-01
 -2.03314401E-02  7.97969626E-02  1.26727544E-01  1.93795441E-01 -2.31670568E-01
 -1.71807747E-02  6.67228923E-02  1.37556266E-04 -1.60078538E-03 -1.40895369E-01
  3.08898926E-01 -8.17197483E-01  1.19475291E-01  1.78225468E-01 -4.02124325E-01
  1.08503352E+00 -7.98314365E-01  2.92148542E-02  1.93563761E-02 -2.06946708E-01
  1.64936090E-01 -1.65198367E-02 -3.25831884E-02  2.14140838E-01 -8.61208994E-03
 -3.32096074E-02  3.51939399E-02  2.88189463E-03 -6.79679599E-03 -1.35875669E-01
 -8.52610629E-02  1.37403663E-01  1.89107152E-02  1.79752359E-02  4.80624603E-06
 -4.87158983E-05  3.69451232E-02  2.64335043E-03 -3.82458935E-02  3.69040937E-03
 -5.34864027E-02 -3.10666931E-03  7.01098442E-02 -2.46953936E-02  4.18892552E-02
 -2.28924976E-03 -1.51651185E-01  5.11538973E-03 -3.64487585E-02  1.72418149E-03
  1.26895917E-01 -2.58228838E-02 -4.48165796E-02  3.21408290E-02  6.76599771E-03
 -9.71206549E-03 -2.64877218E-02 -5.59908576E-02  2.53677895E-02  5.28734149E-03
 -9.41531507E-03 -1.32195034E-04  1.53904652E-03  4.72055018E-01 -3.92959661E-01
 -5.88852042E-01 -1.14866163E-01 -6.20400966E-01  5.12317506E-01  7.87523423E-01
  7.67527149E-01  7.28356273E-02 -3.02210882E-02 -1.90779831E-01 -1.58575104E-01
 -8.52437475E-02  4.60415898E-02  1.88566881E-01 -2.89151818E-02 -2.31655120E-02
  3.21777352E-02  8.75855287E-04 -1.29648106E-02 -4.07209839E-03 -1.30669824E-01
  1.24387304E-01  1.26647854E-02 -9.74040968E-02 -9.67873467E-06  1.11406031E-04
  2.45770668E-02  5.68733967E-02 -4.49430584E-02 -8.32844398E-03 -3.73802421E-02
 -7.37669389E-02  7.88688947E-02  5.56370925E-02  4.10983537E-02  1.58868384E-03
 -1.52327933E-01 -1.15601274E-02 -3.50857132E-02 -4.34988944E-03  1.27627504E-01
 -1.91772889E-02 -2.47657441E-02  5.17254595E-02  5.56152005E-04 -1.41233634E-02
 -2.33393785E-02 -1.78317881E-02  6.04885628E-02 -1.13648181E-02 -1.13647740E-02
 -3.26427050E-05 -2.10556923E-05  4.34787937E-02 -3.22933398E-01  1.67951333E-02
  1.58972150E-04 -1.36828048E-01  1.01702427E+00 -5.28699387E-02  3.39695656E-04
 -1.77189567E-02  1.30773827E-01 -6.77539095E-03 -9.25504622E-05  3.34059611E-02
 -2.48264445E-01  1.29203751E-02 -2.66171709E-01  6.44482481E-02 -1.99224300E-02
 -2.16689995E-01  1.93520316E-01 -2.23000585E-01  5.39640644E-02 -1.66814134E-02
 -1.81488697E-01  1.62364596E-01 -7.11941835E-05  8.35114013E-04  8.54671037E-02
 -2.06158429E-01  4.04981969E-01 -6.22573755E-02 -1.14159349E-01  2.89402717E-01
 -5.28745466E-01  4.15993740E-01  2.65957035E-02 -1.67112843E-01  3.64154499E-02
 -8.58231823E-02 -2.64440386E-02  1.48481529E-01 -5.18800327E-02  4.09125344E-02
 -8.63969427E-03  1.57653502E-02  3.25846953E-02 -2.06314362E-02  1.14531755E-01
  1.92034256E-02 -2.93226850E-02  2.50797677E-02 -2.55788094E-02  1.54172243E-06
 -2.79327423E-05  1.97415307E-02 -4.32034462E-02  5.57255433E-03  2.01502353E-03
 -2.85229955E-02  7.70639797E-02 -8.33900507E-03 -1.34483823E-02  2.19134598E-02
 -1.55563170E-01  8.30516168E-03  2.70635954E-03 -1.91334503E-02  1.30242823E-01
 -7.16113706E-03  3.34390461E-02 -6.66155623E-03 -1.49230296E-03  3.14527479E-02
 -4.12598239E-02  3.05360753E-02 -5.64346177E-03 -5.15184868E-03  2.90069548E-02
 -5.24180801E-02 -8.51423539E-05  9.98941161E-04  3.04379780E-01 -2.98986773E-01
 -3.50675753E-01 -7.44685821E-02 -3.99385788E-01  4.10354304E-01  4.55825452E-01
  4.97622651E-01  4.19546254E-02 -1.73646888E-01 -1.67008133E-02 -1.02590002E-01
 -5.09698665E-02  1.58887489E-01  3.27649093E-02  4.09819167E-02 -1.18414844E-02
 -5.03336130E-03  3.48830957E-02 -1.61733665E-02  6.24970811E-02 -8.88615216E-02
  5.25812400E-02  4.63030388E-02 -6.06779974E-02  1.55291672E-04 -1.80584521E-03
 -2.04465052E-01 -9.75921364E-01  1.94096473E-02  1.34776415E-01  2.63617596E-01
  1.29238904E+00 -2.63705124E-02 -9.00743316E-01  6.08447660E-03 -2.21290404E-01
  9.30053009E-03  1.85797222E-01  6.06327054E-03  2.34764200E-01 -8.69908910E-03
  2.99978892E-02 -8.08349202E-03  1.64457268E-03  1.93269243E-02 -2.75014270E-02
  1.26583171E-01 -5.65339291E-03  6.90529387E-03  1.71566082E-01 -1.04178363E-01
  6.23628934E-05  5.50598471E-05 -3.12635422E-01 -4.62626511E-02 -8.17034437E-02
 -5.40828292E-04  9.85612826E-01  1.45948591E-01  2.57524730E-01 -5.37428122E-04
  1.27007735E-01  1.86978203E-02  3.32399842E-02 -3.39827640E-05 -2.40165929E-01
 -3.55559926E-02 -6.27562544E-02  1.69696885E-01 -1.44466022E-01 -2.74162189E-02
 -3.21262384E-01 -8.07407167E-02  1.42303347E-01 -1.21139732E-01 -2.30140833E-02
 -2.69098709E-01 -6.75380011E-02  5.60840438E-05 -6.76730862E-04 -1.07547163E-01
  1.23520878E-01 -3.35907970E-01  5.02772501E-02  1.60238528E-01 -1.57979256E-01
  4.42963694E-01 -3.35805180E-01 -1.55031883E-01 -1.32617434E-02 -6.19649089E-02
  6.93340906E-02  1.33239632E-01  4.14139712E-03  6.92426030E-02 -2.13499481E-02
  3.32787670E-02  7.03018779E-03  4.44750186E-02  4.70101235E-03 -7.66622611E-02
  2.11327552E-02  5.41069832E-02  4.94975481E-02  7.88197869E-03 -1.67659597E-04
  1.92800048E-03 -1.02707032E+00 -1.36397870E-01 -2.41543677E-01 -1.44025449E-01
  1.35856795E+00  1.80725359E-01  3.20030683E-01  9.62804617E-01 -2.18881265E-01
 -3.12632466E-02 -5.53683872E-02 -1.98477743E-01  2.36118428E-01  3.32002301E-02
  5.87017605E-02 -1.84788113E-02  1.50564525E-02  2.96934364E-03  3.48346593E-02
  8.39117582E-03 -1.07284742E-01  9.40181152E-02  1.32146774E-02  2.01109184E-01
  5.29927821E-02  4.95095800E-05 -5.92337522E-04 -2.19575920E-01  1.43630113E-01
  1.97079677E-01  4.40439725E-02  3.06226062E-01 -1.84179335E-01 -2.51555376E-01
 -2.94184238E-01 -1.62878535E-01 -1.18801218E-02 -2.47967589E-02  6.07851336E-02
  1.45755484E-01  1.90316926E-03  9.62888400E-03 -3.03768276E-02  1.17429579E-02
 -3.00738183E-03  5.07548770E-02  5.17569861E-03 -4.65878499E-02  4.87077497E-02
 -4.63706042E-02  4.88834314E-02  3.18612513E-02  5.69815946E-05 -6.66479229E-04
 -1.20794397E-01 -3.49111261E-01 -5.05060595E-03  4.96760034E-02  1.77515053E-01
  4.57898683E-01  1.18339504E-02 -3.31884509E-01 -1.56021419E-01 -4.61839616E-02
 -3.88923750E-02  6.86241948E-02  1.34703100E-01  5.69554455E-02  3.22269563E-02
 -2.23987101E-02  1.86975829E-02  7.97086182E-03  4.51903967E-02  2.58442517E-02
  1.75413701E-02  1.73900169E-02  1.34639427E-02  1.03681018E-01  8.68530587E-03
  2.48421484E-08  1.62480489E-08 -1.37232350E-06 -2.67537824E-05  3.82164081E-06
 -2.01030332E-07  7.38030720E-06  2.70201621E-05 -2.14029723E-06 -1.39019589E-06
 -7.17499153E-05  3.73345270E-04 -8.82228617E-05 -2.21059498E-07  1.67080642E-07
  2.30400898E-05 -3.57973353E-06  4.37695452E-05 -2.32194522E-05  3.59991696E-05
  5.66204360E-06  1.02160295E-04 -1.79265711E-04  4.14701877E-05 -4.21966827E-05
 -1.05785960E-04 -6.29056341E-05  3.58144641E-07  5.98552825E-07 -2.69155288E-03
 -2.68597449E-03 -5.42109640E-04 -1.07844726E-05  3.39017772E-03  3.39081407E-03
  6.84672813E-04  1.10345016E-04 -2.62153248E-03 -2.50380528E-03 -5.55750178E-04
  1.97088014E-04 -1.45829919E-03 -1.47077640E-03 -3.70967901E-04 -7.47538290E-02
 -2.10912051E-01 -2.47592277E-01  3.00484957E-01  4.90517533E-03  3.51352927E-02
  9.92189870E-02  1.16165609E-01 -1.39430871E-01 -2.47739564E-03 -1.86620260E-07
 -2.37818338E-07 -5.49893616E-04  5.79044185E-03 -9.49325085E-04  7.33645843E-07
  6.97293783E-04 -7.29717769E-03  1.19740286E-03  1.42040416E-05 -5.22372217E-04
  5.47209803E-03 -9.05131700E-04 -8.29823718E-05 -3.28947825E-04  3.15085829E-03
 -5.20565659E-04 -4.90776460E-01  1.97121745E-01 -1.23931693E-01 -2.57513256E-01
 -3.36281049E-01  2.28513391E-01 -9.22267473E-02  5.81825140E-02  1.19505974E-01
  1.58729664E-01  2.38111831E-07  4.07152310E-07 -2.17017421E-03 -1.93245563E-03
 -4.46064375E-04 -7.57473085E-06  2.73340108E-03  2.44128946E-03  5.58258386E-04
  8.01230314E-05 -2.12625685E-03 -1.79615390E-03 -4.36514833E-04  1.34904767E-04
 -1.19481793E-03 -1.05767005E-03 -1.84098743E-04  7.13882298E-02  2.37864283E-01
  2.11502665E-01  1.01600657E-01 -3.79031551E-02 -3.34669989E-02 -1.11252706E-01
 -9.90833831E-02 -4.65213508E-02  1.76621802E-02 -3.94022200E-07 -7.38089932E-07
  5.40794883E-03 -1.19853758E-03  1.94069344E-03  1.72754365E-05 -6.81466206E-03
  1.51720081E-03 -2.44683066E-03 -2.03586035E-04  5.26594022E-03 -1.05612920E-03
  1.87811847E-03 -2.47864719E-04  2.91276833E-03 -5.64322715E-04  1.03903470E-03
  4.92986826E-01 -2.23469234E-01  1.58681063E-01 -1.44912207E-01  3.65639213E-01
 -2.29622682E-01  1.03975099E-01 -7.46401821E-02  6.66252926E-02 -1.72224576E-01
 -1.86615124E-08 -8.97978027E-09 -6.41767499E-06  3.36875162E-06  3.26195180E-05
  1.25219182E-07  9.51775119E-06 -3.85107634E-06 -3.76421606E-05  8.58260548E-07
  5.67565185E-05 -4.50738145E-05 -4.84576621E-04  9.57563271E-08  4.92315386E-06
 -2.89763766E-06 -2.80522605E-05 -3.72939737E-05 -7.44434493E-05 -6.78276462E-05
  2.41950628E-05 -8.23672275E-06 -2.91832428E-05 -1.70058425E-05  2.37569311E-04
  5.23631036E-06 -3.18297006E-05  5.97655872E-07  1.03859580E-06 -5.06271306E-03
  3.09922571E-04  1.13208499E-03 -2.07399899E-05  6.38064052E-03 -3.92921872E-04
 -1.43305987E-03  2.21170591E-04 -4.89869185E-03  3.00607582E-04  9.57985936E-04
  3.26499064E-04 -2.75868899E-03  2.36905227E-04  5.28025333E-04  7.67686438E-03
 -1.38790058E-01 -1.96858476E-01  2.93103350E-01  4.75675290E-01 -4.22641084E-03
  6.63201808E-02  9.17556108E-02 -1.36231454E-01 -2.22303478E-01 -1.43002885E-07
 -2.21246580E-07  1.41484050E-03 -7.39704328E-04 -5.63537049E-03  2.75803021E-06
 -1.78207499E-03  9.32556714E-04  7.10249348E-03 -1.99176916E-05  1.32246262E-03
 -6.93822109E-04 -5.33639602E-03 -6.54963693E-05  7.48335019E-04 -4.09404941E-04
 -3.06739700E-03  3.30298449E-02  1.92433056E-01  6.39741615E-01 -8.19090298E-02
 -1.20557854E-01 -1.62107525E-02 -9.15639689E-02 -2.98387174E-01  3.87047060E-02
  5.59712231E-02 -4.96104076E-07 -8.93987443E-07  4.23869489E-03  2.76832904E-04
  3.39808325E-03  1.92341732E-05 -5.33928880E-03 -3.48752023E-04 -4.28947728E-03
 -2.12995228E-04  4.17057459E-03  2.36745381E-04  3.19411389E-03 -2.80735632E-04
  2.33055651E-03  8.61426743E-05  1.78079837E-03 -6.59727166E-02 -1.92564119E-01
 -4.65662692E-01 -1.84400601E-01 -3.37058335E-01  3.22044991E-02  9.00610127E-02
  2.17601071E-01  8.49377781E-02  1.57724802E-01  3.45560284E-08  5.82429771E-08
 -5.98449736E-04  1.56351460E-04  1.13684128E-03 -1.05837669E-06  7.55234717E-04
 -1.97573518E-04 -1.44247396E-03  1.10643459E-05 -5.72052045E-04  1.41879067E-04
  1.04261520E-03  1.91082972E-05 -3.31195382E-04  8.07803806E-05  6.62598839E-04
  2.67391870E-02  1.41431130E-01  2.46623420E-02 -2.77085444E-02 -1.76700449E-02
 -1.24444709E-02 -6.59764918E-02 -1.18795907E-02  1.30128326E-02  8.43575649E-03
  1.93713959E-08  1.30054368E-08  1.93147014E-06 -5.66908744E-07 -7.35323218E-06
 -1.81382440E-07 -4.81761229E-06  6.45568526E-06  1.81992561E-05 -1.05077094E-06
 -6.39927634E-06 -3.29931924E-05  3.46984494E-05 -1.95783086E-07 -1.36072947E-06
 -5.30516460E-07  4.87715972E-06  2.21019751E-06 -5.12084346E-06 -1.55670672E-06
  3.05674360E-06  3.90732074E-06  1.18026799E-05  2.01057668E-05 -1.93073419E-05
  3.27183183E-07 -4.01426582E-06 -1.61976045E-08 -6.64368623E-08  7.19070599E-04
 -4.78256737E-03 -2.06198479E-03  3.16466826E-06 -9.05934334E-04  6.02645697E-03
  2.60145311E-03 -4.04291312E-05  6.87604131E-04 -4.57785836E-03 -1.95459994E-03
 -8.64923796E-06  3.94028208E-04 -2.59986406E-03 -1.11970773E-03 -1.33270448E-01
 -2.08848733E-01 -2.11082366E-01  1.99490858E-01 -4.81968064E-01  6.33024538E-02
  9.71861026E-02  9.96909740E-02 -9.23267487E-02  2.24949374E-01 -2.93659121E-09
 -5.66822460E-09  2.23474242E-04 -5.07679719E-04 -6.68427753E-04  7.70057538E-08
 -2.81982524E-04  6.39744256E-04  8.43986855E-04 -9.81470299E-07  2.13492580E-04
 -4.88536060E-04 -6.39303605E-04 -2.07135742E-06  1.21956083E-04 -2.74693846E-04
 -3.68885484E-04  3.91730656E-02  1.10855295E-02  9.20048930E-02  7.59787867E-03
  8.28682701E-03 -1.83481919E-02 -5.38663074E-03 -4.29389783E-02 -3.43456782E-03
 -4.03556901E-03 -5.46092975E-08 -3.92194854E-08  8.53971169E-04  4.78445734E-03
 -2.73196853E-03 -2.33846857E-06 -1.07872681E-03 -6.02879253E-03  3.44641229E-03
  3.54947482E-05  8.10374466E-04  4.58576943E-03 -2.60894809E-03 -3.16467517E-05
  4.69296748E-04  2.58792434E-03 -1.48971453E-03 -1.12089286E-01 -4.08910696E-01
 -2.25158868E-02 -5.61849648E-02  4.91594288E-01  5.10323833E-02  1.91281933E-01
  1.11990259E-02  2.51301516E-02 -2.29872855E-01  8.37121528E-08  1.20616386E-07
 -1.79429453E-03  5.03504104E-04  5.45275807E-03 -1.10266345E-06  2.26242693E-03
 -6.33493183E-04 -6.87383617E-03  6.68050372E-06 -1.71653326E-03  4.73924302E-04
  5.22090367E-03  4.33136340E-05 -9.73895142E-04  2.58184832E-04  2.94410363E-03
  2.06025931E-01  6.06828789E-01  1.41360420E-01 -1.51036242E-01 -1.79855432E-02
 -9.59165592E-02 -2.83161222E-01 -6.78424254E-02  7.06942134E-02  8.99127273E-03
  8.87760744E-07  5.08862754E-07 -1.34115084E-05  3.98477630E-05  1.52092551E-07
 -1.41106964E-05  3.21018455E-05 -8.25654947E-05  1.71525869E-07  9.05805384E-05
  8.15873805E-05 -3.35423867E-04 -6.01452286E-06  1.71792404E-05  5.56256595E-06
 -2.26296486E-05 -4.40738419E-07 -2.31158844E-02  4.53712700E-03 -1.97393699E-02
 -2.87818746E-03 -3.85541826E-02  3.02239356E-02 -5.95431160E-03  2.57327035E-02
  3.81780612E-03  5.01413962E-02 -2.60910558E-07 -4.92708036E-07 -4.12215007E-03
  6.32156283E-03  3.33430956E-03  1.18199071E-05  5.69439765E-03 -8.73410303E-03
 -4.60281248E-03 -1.09153904E-04  9.36870707E-03 -1.43944782E-02 -7.55860056E-03
 -8.87300707E-05 -1.03174511E-02  1.58441219E-02  8.40145595E-03  6.24842988E-02
  1.35999458E-01  5.06762425E-02 -5.57264568E-02  5.37180531E-01 -2.72310039E-02
 -6.64012596E-02 -2.19492150E-02  2.73438468E-02 -2.54910839E-01 -4.08708905E-07
 -5.61869773E-07  1.25843318E-03 -8.08943215E-03 -8.52406785E-04  3.23976513E-06
 -1.73244379E-03  1.11728613E-02  1.17862187E-03  2.73614131E-05 -2.89934656E-03
  1.84644465E-02  1.94304500E-03 -1.95937660E-05  3.17421251E-03 -2.02670014E-02
 -2.13445104E-03  4.08926278E-01 -1.22427678E-01  2.33270516E-01  2.12093849E-01
  1.84691326E-01 -1.94898103E-01  5.86610884E-02 -1.10326188E-01 -1.02268460E-01
 -8.43655801E-02 -2.99292889E-07 -6.06095937E-07 -4.40888157E-03  3.36208084E-03
 -6.12256495E-03  1.66246714E-05  6.09336693E-03 -4.64802096E-03  8.45310796E-03
 -1.68337202E-04  1.00115761E-02 -7.66866620E-03  1.38742850E-02 -1.30434557E-04
 -1.09807051E-02  8.40823729E-03 -1.53785024E-02 -6.44397112E-02 -4.75632209E-02
  3.21620645E-01  1.15004914E-01  4.41830416E-01  3.41864244E-02  2.24340242E-02
 -1.53052973E-01 -5.52689186E-02 -2.08761511E-01  6.62976948E-08  2.69902193E-07
  7.25747607E-03 -1.55113564E-03  3.64074240E-03 -1.48623936E-05 -1.00270798E-02
  2.13190114E-03 -5.02894557E-03  2.01944572E-04 -1.64560397E-02  3.49127535E-03
 -8.26123689E-03  1.59443405E-04  1.81047271E-02 -3.97576888E-03  9.10965336E-03
  4.42529991E-01 -1.32789651E-01  1.19824095E-01 -1.65752806E-01  2.53117056E-01
 -2.11119794E-01  6.36596562E-02 -5.54107204E-02  8.05626399E-02 -1.17452556E-01
 -5.95280687E-07 -3.42156519E-07 -4.61232714E-06 -5.91985280E-06  2.99995004E-05
  9.63434077E-06  3.28501799E-06  9.18993563E-06 -5.46235052E-05 -6.37105247E-05
  7.39530616E-05  6.22111437E-05 -2.96747584E-04 -1.20439669E-05  4.87392467E-06
  3.97372496E-06 -2.01244539E-05 -5.91120934E-03 -3.49619467E-02 -2.93458180E-02
  1.16920881E-02  1.35817129E-02  7.63259558E-03  4.54746465E-02  3.83097061E-02
 -1.52332882E-02 -1.77013507E-02  6.24606522E-07  1.05944948E-06  7.00691822E-03
  4.36136865E-03  3.77216989E-04 -2.10169873E-05 -9.67827962E-03 -6.02276847E-03
 -5.25044597E-04  1.85848402E-04 -1.58988536E-02 -9.88301688E-03 -9.19643308E-04
  1.97521444E-04  1.75019540E-02  1.09508997E-02  8.73271342E-04  7.00748502E-02
  2.03656059E-01  2.80705658E-01 -4.19866077E-01 -1.31299055E-01 -3.31292137E-02
 -9.39916266E-02 -1.32012095E-01  2.01637558E-01  6.17588718E-02  3.22051461E-07
  4.57454509E-07  1.72359198E-03  1.10969820E-03 -7.97122104E-03 -4.22828330E-06
 -2.38343041E-03 -1.53285160E-03  1.10078335E-02  3.55671651E-06 -3.91160360E-03
 -2.52687445E-03  1.81993718E-02  3.76234139E-05  4.31916093E-03  2.77883765E-03
 -1.99841150E-02 -1.08291029E-01  1.41439991E-01  4.95140793E-01 -1.12251613E-01
 -1.63689611E-01  5.31769610E-02 -6.39030649E-02 -2.35810117E-01  5.28029787E-02
  7.74517945E-02 -2.89314125E-07 -4.89757138E-07 -5.21244604E-03 -6.40538665E-03
  2.18716490E-04  1.11062809E-05  7.20190583E-03  8.84664113E-03 -3.05391475E-04
 -1.18246614E-04  1.18346279E-02  1.45309949E-02 -5.38503031E-04 -1.32120716E-04
 -1.29924789E-02 -1.60731262E-02  5.27758400E-04  1.28764429E-01  4.03343236E-01
  2.57686656E-01  2.03574615E-01 -1.75599412E-01 -6.15386736E-02 -1.90610597E-01
 -1.20868505E-01 -1.00023572E-01  8.32069722E-02 -2.63005937E-08 -5.32140668E-08
 -3.52208420E-03  9.28384038E-04  7.40572754E-03  2.32057539E-06  4.86597393E-03
 -1.28074604E-03 -1.02311289E-02 -3.70992057E-05  8.00058760E-03 -2.10216204E-03
 -1.68393283E-02 -4.72931639E-05 -8.81098063E-03  2.35042687E-03  1.85679896E-02
  1.26809116E-01  5.36637222E-01  4.46913686E-02 -1.01013339E-01 -2.84748751E-02
 -6.05903105E-02 -2.55118230E-01 -1.78078347E-02  4.73592897E-02  1.20105989E-02
  3.48176219E-08  2.49653797E-09 -1.01930859E-04  3.78998186E-05 -3.85253342E-04
 -2.27460703E-07  2.66169647E-04 -1.26721079E-04  1.20659049E-03 -2.85226695E-07
  6.08983916E-04 -2.47610613E-04  2.45176099E-03 -3.27063721E-09  7.77684699E-05
 -2.75020744E-05  2.85062873E-04 -1.37671754E-04 -9.67607504E-05  1.08839715E-04
  6.94444993E-05  8.76751810E-06  1.03553965E-03  5.06218042E-04 -1.02523116E-03
 -4.91890009E-04 -3.77689387E-07 -3.26350467E-06 -7.19468761E-06 -4.65244491E-02
 -6.06364869E-03  6.41828115E-03  2.39791801E-04  7.78107371E-02  1.01164039E-02
 -1.06658113E-02 -2.65050966E-03 -7.37843859E-02 -1.01267945E-02  1.14082246E-02
 -1.30134562E-04 -2.35395809E-02 -3.13261557E-03  3.09451966E-03  1.75378286E-01
 -5.49947008E-01 -2.92896717E-04 -3.42680379E-01  4.87564202E-02 -8.94369664E-02
  2.80827865E-01  1.02735806E-03  1.73573731E-01 -2.60855226E-02  1.88428613E-06
  3.83981431E-06  9.78535706E-03  8.22831601E-03 -4.70503650E-02 -1.13381021E-04
 -1.63373945E-02 -1.37584517E-02  7.87007076E-02  1.19380392E-03  1.61399736E-02
  1.31716355E-02 -7.47603859E-02  4.89651259E-05  4.95626548E-03  4.21149841E-03
 -2.41432457E-02  3.41138232E-01  5.63882931E-01 -2.04183954E-01 -6.15122635E-02
 -4.45947483E-02 -1.73600654E-01 -2.88101960E-01  1.02439845E-01  3.18498321E-02
  2.33580488E-02  1.34853430E-06  3.15269178E-06  2.86744926E-02 -6.27878142E-04
  2.44623501E-02 -1.13369096E-04 -4.79626087E-02  1.06324988E-03 -4.08725972E-02
  1.28741819E-03  4.52526380E-02 -6.92169180E-04  3.93438918E-02  6.86594688E-05
  1.42691785E-02 -1.98502919E-04  1.20158942E-02 -4.22334639E-01 -2.03303803E-02
 -3.09892471E-03  3.17142573E-01 -7.85058032E-02  2.15369952E-01  1.06935352E-02
  2.74894385E-03 -1.61182905E-01  4.08851977E-02  1.29016880E-08  1.75924006E-07
  7.97068265E-03 -1.49220518E-03  1.57481840E-02 -1.27174276E-05 -1.33265164E-02
  2.48929728E-03 -2.63216172E-02  1.69356436E-04  1.26588663E-02 -2.45740658E-03
  2.50576099E-02  1.27120323E-05  3.90303231E-03 -7.32436725E-04  7.50737541E-03
 -9.03166932E-02  8.36828112E-03  2.03839977E-01  8.51820301E-02  7.43127189E-02
  4.54681389E-02 -4.56481834E-03 -1.04099727E-01 -4.31837594E-02 -3.81381902E-02
  3.34500391E-08  3.38572389E-08  2.12830426E-04 -2.02309159E-04  2.23352216E-05
 -2.91851795E-07 -6.05394845E-04  6.82226300E-04 -4.04417355E-05 -2.31000051E-06
 -1.30902370E-03  1.32719717E-03 -1.20940749E-04 -3.55090550E-07 -1.59933739E-04
  1.45300374E-04 -1.74750377E-05  1.01601662E-04 -6.04790067E-05  9.24240850E-06
  3.56207424E-06 -9.47481756E-05 -8.86965494E-04  4.91439956E-04 -1.25074953E-04
  2.03732106E-06  6.18963091E-04  1.17452077E-06  2.53941507E-06  7.91238532E-03
  2.60443666E-02  8.97899821E-03 -8.21101782E-05 -1.32421273E-02 -4.35412704E-02
 -1.50344675E-02  8.96945497E-04  1.25139558E-02  4.16213194E-02  1.38905210E-02
  4.42727882E-05  4.20895015E-03  1.29400676E-02  4.45189704E-03  1.78842732E-01
  5.48588983E-02  2.29345117E-01  2.72654180E-01 -5.92373192E-02 -9.13622586E-02
 -2.84820367E-02 -1.17492917E-01 -1.38342367E-01  2.96096540E-02 -2.04703628E-06
 -4.07475266E-06  7.70245901E-03 -4.66795356E-02 -5.96756032E-03  1.15935733E-04
 -1.29118450E-02  7.80744163E-02  9.97463803E-03 -1.20104504E-03  1.17004095E-02
 -7.44060059E-02 -9.63511410E-03 -4.40505145E-05  3.98827452E-03 -2.37637099E-02
 -3.01373059E-03 -1.81824728E-01  1.24225457E-01  3.78843779E-02 -3.09594498E-01
  5.60519754E-01  9.13705608E-02 -6.29795485E-02 -2.01745987E-02  1.57142548E-01
 -2.86552554E-01  1.55934922E-06  3.57955638E-06  2.70586834E-02  1.12484959E-02
  1.45274772E-02 -1.25578771E-04 -4.52758312E-02 -1.87887285E-02 -2.42734147E-02
  1.41438888E-03  4.26656904E-02  1.82445457E-02  2.35853331E-02  7.44332373E-05
  1.37844085E-02  5.52105146E-03  7.46826688E-03 -2.31678935E-01 -4.29622082E-02
 -7.11566354E-02  3.91841537E-01 -4.61356982E-02  1.18326505E-01  2.25322747E-02
  3.72849394E-02 -1.99288982E-01  2.38125517E-02 -6.44085022E-07 -1.96763512E-06
 -4.24601632E-02  9.14404986E-03 -1.75232485E-02  9.07624742E-05  7.10078888E-02
 -1.52576193E-02  2.93038474E-02 -1.10821666E-03 -6.74466836E-02  1.50942691E-02
 -2.78934110E-02 -7.28283947E-05 -2.11306194E-02  4.52103074E-03 -8.81570552E-03
  2.31381074E-01 -1.34306415E-01 -1.96564029E-01 -3.54846124E-01 -4.52910391E-01
 -1.16483409E-01  6.78989232E-02  1.00650813E-01  1.80481006E-01  2.31827150E-01
 -7.28698385E-09  6.63380991E-10  6.89894457E-05 -1.19774661E-04 -9.04419525E-05
  5.95049610E-08 -1.91763817E-04  3.63378569E-04  2.44211306E-04  2.70458759E-08
 -4.22679308E-04  7.56866317E-04  5.51758160E-04 -3.31830796E-08 -5.12637817E-05
  8.72379807E-05  6.60288044E-05  2.11949568E-05 -4.91629161E-05  1.77028095E-05
  2.79403135E-05 -4.30701939E-05 -2.16048584E-04  3.52952277E-04 -2.92636190E-04
 -2.12125073E-04  3.39531427E-04 -2.95006655E-07 -5.74582885E-07  9.14923250E-03
 -3.66891546E-02 -1.65136519E-02  1.53479656E-05 -1.53029764E-02  6.13629030E-02
  2.76230865E-02 -1.54343700E-04  1.45763301E-02 -5.84324117E-02 -2.62205478E-02
 -7.07671165E-06  4.69425749E-03 -1.86361004E-02 -8.40728334E-03 -3.51452754E-01
  1.68271377E-01 -3.48051628E-01 -2.57756807E-01  6.99353611E-02  1.79490845E-01
 -8.52566305E-02  1.77923129E-01  1.30926952E-01 -3.42538197E-02 -3.49581330E-07
 -6.90509063E-07  2.25153596E-03 -9.89284552E-03 -3.93754007E-03  1.93993637E-05
 -3.77175641E-03  1.65497428E-02  6.58770414E-03 -1.99882477E-04  3.49162957E-03
 -1.57670679E-02 -6.29195542E-03 -7.11708674E-06  1.18881305E-03 -5.11857726E-03
 -2.08709750E-03 -2.15235671E-02  5.90711473E-02 -3.23455002E-03 -7.22671933E-02
  1.21960543E-01  1.07004102E-02 -3.00772718E-02  1.37520008E-03  3.67216111E-02
 -6.23225566E-02  1.38978237E-06  2.99149996E-06  8.79581281E-03  4.11967870E-02
 -2.23954598E-02 -9.56189791E-05 -1.47250031E-02 -6.88835898E-02  3.74720790E-02
  1.04099497E-03  1.37147874E-02  6.58238167E-02 -3.53055278E-02  5.21241675E-05
  4.43513629E-03  2.06925243E-02 -1.13060728E-02  4.59973789E-01 -8.87085882E-02
 -2.44243515E-01  4.18573463E-01  6.89795103E-02 -2.34089942E-01  4.64288139E-02
  1.24645851E-01 -2.13148099E-01 -3.66281405E-02 -7.47695707E-07 -1.72617068E-06
 -2.01270003E-02  5.25364470E-03  4.27541301E-02  6.08502527E-05  3.36623824E-02
 -8.76724581E-03 -7.15007863E-02 -6.86916202E-04 -3.19632337E-02  8.69424518E-03
  6.80483096E-02 -3.78490156E-05 -1.00460891E-02  2.59673347E-03  2.14510815E-02
 -8.77530163E-02 -1.37306806E-01  5.94591161E-01 -8.93201511E-02 -2.59639817E-01
  4.43308240E-02  6.81568570E-02 -3.03410736E-01  4.59403096E-02  1.32501539E-01
  2.34374336E-05  4.49731874E-06 -1.14382689E-01  1.71492747E-02 -4.95860749E-02
 -1.12116103E-04  3.34831963E-01 -5.01453787E-02  1.45105987E-01 -1.20143963E-03
  7.37545033E-01 -1.10553927E-01  3.19775746E-01 -6.02649141E-05  7.86372538E-02
 -1.17834984E-02  3.40971048E-02 -3.21117353E-02  1.50863664E-02  7.67212344E-03
  3.09581465E-02  1.48023870E-02  3.42679350E-01 -1.61280352E-01 -8.17439760E-02
 -3.30770249E-01 -1.57883183E-01 -2.21836508E-04 -7.85746937E-04 -1.52880776E-02
  2.10639308E-02 -5.28068333E-02  3.89960687E-02  3.25283815E-02 -4.04202279E-02
  1.01559155E-01 -4.94236087E-01  2.02954631E-02 -5.50195604E-02  1.37214556E-01
 -3.68353686E-02 -1.18034634E-01  4.50417964E-03 -1.85751717E-02  7.55098601E-02
 -2.21828363E-01  2.04517873E-01 -4.08075560E-01 -2.42561270E-01 -6.35751464E-02
  1.08260328E-01 -9.32619274E-02  2.23270733E-01  1.36311436E-01  3.67645363E-04
  1.30120204E-03 -9.37916075E-02 -1.09792997E-02 -2.29454158E-02 -6.45823326E-02
  1.81234948E-01  2.02437966E-02  4.50262721E-02  8.19248009E-01  2.38763993E-01
  3.34922667E-02  5.45199340E-02  6.16142998E-02 -6.24906176E-02  2.70083932E-02
 -3.95675130E-02  1.31501180E-01  4.25234274E-02 -7.06982799E-02  1.80391957E-01
  6.46639202E-03 -9.29960993E-02 -2.70910339E-03  4.07867913E-02 -5.65406369E-02
  6.50715339E-03 -1.21530996E-04 -4.31963614E-04 -2.26864135E-02  1.55244558E-02
  1.79748833E-02  2.14780358E-02  4.65177757E-02 -2.99300678E-02 -3.25132133E-02
 -2.72290029E-01  4.02594517E-02 -3.96042813E-02 -6.01438726E-02 -2.02117164E-02
 -1.12961376E-01  8.42355527E-03 -6.86609388E-02  3.00870349E-01 -8.79796702E-02
 -3.52133128E-01 -4.18273548E-01 -1.80669743E-01 -1.63029165E-01  5.96617991E-02
  1.82586039E-01  2.23637255E-01  1.07598896E-01 -2.24050858E-05 -8.12705267E-05
 -6.84597807E-03 -4.83076944E-03 -2.31626653E-03  4.08635978E-03  1.64976823E-02
  8.62052284E-03  5.91709054E-03 -5.18894468E-02 -4.34630374E-03  1.69382502E-02
 -3.73280515E-03 -3.83624655E-03 -1.24277921E-01  2.27800951E-02 -5.43537741E-02
  5.37114110E-01 -2.24504721E-01 -3.09953626E-02 -3.62762420E-01 -6.48534504E-02
 -2.89504039E-01  1.21432038E-01  1.52059943E-02  1.97567760E-01  3.03093054E-02
  5.23508042E-07  9.12996416E-07  4.95198598E-02 -3.87787132E-03 -1.15536381E-01
 -2.36585411E-05 -1.44915286E-01  1.13435646E-02  3.38000448E-01  2.76884816E-04
 -3.19280854E-01  2.49547897E-02  7.45009728E-01  6.30217995E-06 -3.40424320E-02
  2.65633022E-03  7.94391081E-02 -1.45300261E-02 -3.14790669E-02  3.38882893E-02
 -2.22689020E-03 -1.21814698E-02  1.54725663E-01  3.35656598E-01 -3.61308626E-01
  2.39309800E-02  1.29928824E-01 -2.94221097E-04 -1.03896720E-03 -1.06291089E-02
  2.65192018E-02 -7.20782964E-02  5.14864371E-02  1.86236138E-02 -5.01049487E-02
  1.40123206E-01 -6.52672554E-01  4.01804742E-02 -7.45316595E-02  1.77882765E-01
 -4.85678049E-02  6.35395833E-02 -2.30495875E-02 -7.94051830E-02 -1.99402378E-01
  2.05152320E-01 -9.81930892E-02  1.00663590E-01  3.29871024E-01  7.55083946E-02
 -1.21059541E-01  7.62973127E-02 -5.10038940E-02 -1.75230979E-01 -6.54285893E-05
 -2.31274268E-04  1.80237953E-02  1.91202186E-03 -1.71917853E-03  1.14734877E-02
 -3.56931140E-02 -3.49809017E-03  6.87069121E-03 -1.45594547E-01 -4.05548665E-02
 -6.01638885E-03 -1.77050546E-02 -1.08916084E-02  4.30892969E-02 -5.70190427E-03
 -1.29070440E-01  2.08068683E-01  2.39590228E-01 -5.78455058E-01 -3.15281291E-02
  1.56479124E-01 -1.07306895E-01 -1.29633172E-01  3.13824413E-01  8.78712152E-03
 -8.67430722E-02  3.29971665E-04  1.16825194E-03  4.86880692E-02 -3.98068993E-02
 -6.05303173E-02 -5.79735258E-02 -9.37890938E-02  7.55144102E-02  1.18238096E-01
  7.35070263E-01 -1.26391290E-01  1.09953581E-01  1.45350118E-01  5.45892728E-02
  2.13163750E-02  2.36661341E-02 -8.76485580E-02  2.71134220E-01  2.83826878E-02
 -8.91051872E-02  6.21201503E-02 -2.29011174E-01 -1.37236555E-01 -4.65249969E-02
  7.39540502E-02 -2.95942179E-02  1.03311118E-01  2.79669549E-05  9.97183907E-05
  3.92847082E-03  6.68096915E-03 -5.69463966E-03 -4.96786283E-03 -8.97667159E-03
 -1.25358319E-02  1.43649619E-02  6.30317919E-02 -9.58246393E-04 -1.94147087E-02
 -7.56799879E-03  4.71445796E-03  5.30969005E-02 -9.10973016E-03 -1.26392146E-01
  1.91807512E-01  5.49681199E-01 -3.36018964E-01 -5.81735390E-02  1.38934486E-01
 -1.05873069E-01 -2.98983053E-01  1.78188440E-01  2.92141184E-02 -7.23416568E-02
  7.27010072E-06  2.84599998E-06  1.72878152E-02  1.24544333E-01  3.22937220E-03
 -7.35874096E-05 -5.06452323E-02 -3.64467875E-01 -9.46598798E-03  1.92059261E-04
 -1.11478730E-01 -8.02804017E-01 -2.07858694E-02 -3.25558645E-06 -1.18890393E-02
 -8.55778295E-02 -2.21350454E-03 -2.59600261E-02  2.88425531E-03 -3.52850921E-03
 -3.71706263E-02  2.05079723E-02  2.77060212E-01 -3.07094253E-02  3.77722473E-02
  3.97084032E-01 -2.18744609E-01 -1.22195042E-04 -4.31199135E-04 -4.58086501E-03
  1.69841546E-02 -2.74734324E-02  2.13602834E-02  8.14947330E-03 -3.60406285E-02
  5.19414754E-02 -2.70771731E-01  1.63993508E-02 -2.24835688E-02  7.72284657E-02
 -2.00789943E-02  2.27814821E-02  1.28468702E-01  2.30157797E-02  8.61940933E-02
 -1.80730847E-01  6.17252496E-02  5.36164583E-01 -3.14580099E-01 -5.74723771E-02
  9.41353401E-02 -2.05719954E-02 -2.87664917E-01  1.72903145E-01 -1.02620563E-04
 -3.62979377E-04  2.54810530E-02  9.10460558E-03  5.90640217E-03  1.80132976E-02
 -4.88114929E-02 -2.11363402E-02 -1.12931371E-02 -2.28592712E-01 -6.75833776E-02
 -9.33460293E-04 -1.58897524E-02 -1.70872314E-02  1.47944300E-03  1.34006976E-01
 -5.58557194E-04  5.12137152E-01 -1.50258307E-01  9.37493333E-02  3.47853856E-01
 -1.66001324E-01 -2.71544110E-01  7.62771251E-02 -5.24839369E-02 -1.99109695E-01
  8.29937729E-02 -1.61618712E-04 -5.71435928E-04 -2.18280708E-02  2.53164607E-02
  2.70264456E-02  2.83369686E-02  4.08232163E-02 -5.18148300E-02 -5.12955657E-02
 -3.59279906E-01  6.45400027E-02 -4.54419454E-02 -7.46845174E-02 -2.65677735E-02
  3.49477424E-02  1.22659982E-01 -1.54070249E-02  2.81380894E-01  2.92054099E-01
 -6.00397278E-02  4.28485427E-01 -2.10862373E-01 -1.55210646E-01 -1.45137790E-01
  1.80713022E-02 -2.31477020E-01  1.26233891E-01  3.83673586E-04  1.36184543E-03
  2.18795958E-02  9.95051758E-02 -1.54964852E-03 -6.76801312E-02 -4.20038052E-02
 -1.92364278E-01  2.83754897E-03  8.58560559E-01 -5.79779582E-02 -2.52340666E-01
  5.01397868E-03  6.36385336E-02  3.92331382E-03  7.02582039E-02  4.74593257E-03
 -3.49964924E-02 -5.48430686E-02  1.97142256E-02 -1.01971961E-01  2.48294960E-02
 -8.20010243E-03  2.94071030E-02 -1.21446584E-02  1.26033401E-02  6.45576182E-03
 -9.63955705E-06 -7.14261223E-07  1.39720925E-02 -8.30665174E-02 -1.47916364E-02
 -4.47915692E-06 -2.88185199E-02  1.71394590E-01  3.05302360E-02  4.86894291E-04
 -6.35890352E-02  3.78112287E-01  6.73319843E-02  4.52945630E-05 -3.59599248E-04
  2.18268461E-03  3.90197135E-04  2.31277733E-02 -1.16291794E-02  8.58846505E-03
  2.33726923E-02 -2.14381537E-02  1.55994900E-01 -7.83535374E-02  5.79926118E-02
  1.57369510E-01 -1.43995761E-01 -6.56480562E-05 -2.60347054E-05  5.29890988E-03
 -2.92991177E-02 -2.16805755E-03 -3.88243284E-03 -1.09249764E-02  6.37952963E-02
  9.79107516E-03  3.29830166E-03  3.14673438E-02 -2.10227724E-01 -7.01099819E-02
  3.42211301E-02 -5.97635695E-04 -9.58367924E-03 -1.98171471E-02 -3.51723123E-01
 -5.56371571E-02 -4.76818864E-01 -7.96194771E-02 -3.19660407E-01  2.29968980E-01
  3.38883212E-02  3.06083016E-01  5.49371450E-02  2.00764498E-01 -2.05145006E-06
 -1.48684161E-06  4.66421855E-03 -2.81653876E-02 -5.03089997E-03 -7.71671840E-05
 -1.05867610E-02  6.32107910E-02  1.12662982E-02  8.24127136E-05  3.81708030E-02
 -2.22407389E-01 -3.94526770E-02  7.18351291E-04  3.13849711E-03 -1.63054250E-02
 -2.82269554E-03  2.22207385E-01  2.17657296E-02  2.61101784E-01 -6.91764564E-02
  6.02598161E-01 -1.38227725E-01 -1.59488933E-02 -1.65647265E-01  4.83789727E-02
 -3.89480457E-01 -1.95206211E-04 -7.63836286E-05  9.99955906E-03 -3.26493216E-02
 -1.12459192E-02 -1.16121279E-02 -1.33467077E-02  6.55317673E-02  1.44702265E-02
  1.00619121E-02 -1.89179968E-02 -1.74384980E-01  2.71900388E-02  1.02205957E-01
 -2.85181351E-02  1.02658277E-02  3.40583099E-02 -1.16416198E-01  2.24558179E-01
  2.59223998E-01 -1.97719452E-01 -3.27533973E-01  7.91018352E-02 -1.47859902E-01
 -1.62632696E-01  1.30861823E-01  2.04414178E-01  2.61253907E-04  1.00780724E-04
  1.98367017E-03 -4.03692024E-02 -4.79260654E-03  1.56380935E-02 -9.21748353E-03
  6.95293568E-02  1.11443620E-02 -1.38097416E-02  6.69862114E-02 -9.16503281E-02
 -4.20291184E-02 -1.37458885E-01  1.91240134E-02  5.60554355E-02 -4.23767238E-03
  1.13415662E-01 -1.24203763E-01 -9.28454138E-02  2.12638094E-01  1.66755195E-01
 -6.64068277E-02  7.75076617E-02  6.10585908E-02 -1.28662073E-01 -1.12067673E-01
  2.36324359E-06 -9.72537666E-07  2.32100316E-02  1.81946552E-02 -8.02141380E-02
  6.13440060E-05 -4.78660084E-02 -3.75114633E-02  1.65404478E-01 -5.21409166E-04
 -1.05659076E-01 -8.28224229E-02  3.65127250E-01 -4.04404229E-05 -6.06268099E-04
 -4.71888146E-04  2.07400738E-03 -2.06555419E-02 -2.29013569E-02  2.76068020E-02
 -4.82235022E-03 -4.07952378E-03 -1.39158484E-01 -1.53966898E-01  1.86201311E-01
 -3.25895669E-02 -2.76250555E-02  2.54668996E-04  9.88737806E-05  5.70131560E-03
  1.06200704E-02 -3.83042977E-02  1.52044172E-02 -1.65855697E-02 -1.61279323E-02
  6.67350028E-02 -1.28038273E-02  8.56269582E-02  9.71844548E-04 -9.57371784E-02
 -1.33946419E-01  1.76164524E-02 -2.28904678E-02  5.03514532E-02 -2.32628045E-01
  1.73543997E-01  8.81449269E-02 -1.41196226E-02 -1.88886228E-01  1.42193664E-01
 -1.16240875E-01 -4.92062852E-02  8.57315997E-03  1.20672970E-01  2.26107516E-05
  9.27533635E-06  8.89464736E-03  6.30637237E-03 -2.69647906E-02  1.31714930E-03
 -1.81959445E-02 -1.39230514E-02  6.09513830E-02 -1.10224817E-03  5.12188986E-02
  4.73178386E-02 -2.17637069E-01 -1.16343815E-02 -1.52214678E-03  2.76966378E-03
 -1.71767136E-02  1.56560835E-01  5.65281245E-01  2.61802619E-01 -1.62578043E-01
 -2.09957197E-01 -1.03672162E-01 -3.66022591E-01 -1.62823778E-01  1.02954064E-01
  1.33627631E-01 -1.94694935E-04 -7.47270638E-05  1.31349406E-02  1.66804681E-03
 -3.34565334E-02 -1.16819682E-02 -2.03463223E-02 -1.15389870E-02  6.42816752E-02
  1.00395791E-02  5.52996367E-03  9.70927266E-02 -1.47938671E-01  1.02798069E-01
 -2.68463798E-02  3.03119972E-02  2.14109240E-02  3.00307202E-01 -2.71346830E-01
  4.38951247E-02  1.21100855E-01  3.08717011E-01 -1.95279751E-01  1.67624106E-01
 -2.14986715E-02 -7.81309403E-02 -1.99846451E-01 -8.12722341E-05 -3.08604221E-05
  8.72889468E-03  9.98463914E-03 -2.72770758E-02 -4.89930352E-03 -1.81053217E-02
 -1.58129214E-02  6.11162440E-02  4.29242486E-03  5.29674244E-02  7.81095720E-03
 -2.14360632E-01  4.30703649E-02 -5.68663633E-04 -1.90946069E-02 -1.53212717E-02
 -1.06345601E-01 -3.37120871E-01 -5.51882706E-01  8.34744262E-02  1.13693993E-01
  6.38121500E-02  2.11823630E-01  3.58062760E-01 -5.53324259E-02 -7.29964153E-02
 -2.74059984E-05 -7.39650963E-06  8.10363644E-02  9.12922106E-03  2.54852235E-02
  2.76192924E-04 -1.66831404E-01 -1.88076347E-02 -5.24649313E-02 -5.66491422E-04
 -3.68882413E-01 -4.15683148E-02 -1.16003690E-01 -1.36491711E-05 -2.06128487E-03
 -2.40748205E-04 -6.43870924E-04  1.94718057E-02 -1.41266757E-02 -4.19317970E-03
 -3.27830565E-02 -8.76827411E-03  1.31667156E-01 -9.54958367E-02 -2.83259226E-02
 -2.21511332E-01 -5.92274155E-02 -1.15228944E-04 -4.38259381E-05  2.84785708E-02
  1.06360965E-03  1.37001427E-02 -6.94558474E-03 -6.22077223E-02 -5.90919346E-03
 -2.19704468E-02  5.79647899E-03  2.06626291E-01  4.62301023E-02  1.39577770E-02
  6.12303571E-02  9.88845279E-03  1.38771688E-02 -2.51945309E-02  9.04920911E-03
  5.33746299E-01  2.12959527E-01 -2.42401795E-02 -2.83834866E-01 -9.78193239E-04
 -3.43636518E-01 -1.38162703E-01  9.63358250E-03  1.79970918E-01  2.84430922E-04
  1.08347210E-04  4.06437928E-02  4.85005152E-03  1.17137780E-02  1.71292330E-02
 -6.83428567E-02 -7.85362169E-03 -2.09439734E-02 -1.40284056E-02  7.54129805E-02
  5.67489098E-03  3.51849971E-02 -1.51002062E-01 -6.28609114E-02 -8.60555831E-03
 -1.34411113E-02  6.26422296E-02 -1.09246704E-01 -2.76680106E-02 -1.25363259E-01
 -1.77452247E-02 -3.47324404E-02  6.57318764E-02  1.67486031E-02  7.08626101E-02
  8.82939961E-03 -8.13993076E-05 -3.09645566E-05  2.97046575E-02  1.20018341E-03
  6.03016594E-03 -4.90727680E-03 -6.28476825E-02 -5.97078546E-03 -1.80853929E-02
  4.18940942E-03  1.93576450E-01  4.47242572E-02  9.65710277E-02  4.32415746E-02
  2.64207121E-03  1.30338578E-02  2.05889072E-02 -3.34850315E-01 -2.84542198E-01
 -3.80188958E-01  2.26363262E-01 -2.45166816E-01  2.17997333E-01  1.78821055E-01
  2.43418409E-01 -1.50534918E-01  1.54796436E-01 -8.80438485E-05 -3.36299402E-05
  2.84292776E-02  7.22450670E-03  8.57670266E-03 -5.29907077E-03 -6.22104569E-02
 -9.06916549E-03 -1.93856025E-02  4.62735836E-03  2.07429142E-01 -1.98877909E-02
  6.92228795E-02  4.66639085E-02  1.02802805E-02 -2.27555259E-02  5.42443746E-03
  1.51881181E-01 -5.90843408E-02  2.18805414E-01  1.11022515E-01  5.96897257E-01
 -9.45695001E-02  3.53520686E-02 -1.40856787E-01 -7.79342091E-02 -3.83131641E-01
 -8.63055003E-02 -3.10592160E-02 -1.60316788E-04  4.03891321E-05 -5.19480326E-05
  5.56045981E-01  1.90091492E-04  3.59167177E-05  1.51659995E-05  2.83785898E+00
  3.92940084E-04 -5.02288465E-05  1.00129631E-04  3.73720273E-01  1.96974481E-05
 -9.32903574E-06  8.81937875E-06 -1.61095895E-05  2.42409179E-05 -1.61152639E-06
  2.48827754E-05 -8.22618188E-06 -6.86290953E-06  1.34279244E-04 -3.38177799E-05
  1.52937887E-04 -9.04530548E-05 -5.53215762E-03 -9.40263420E-03  2.50817815E-03
 -5.09436414E-03  1.27320903E-02  1.47976623E-01 -1.11247279E-02  2.25978316E-02
 -5.64599144E-02 -5.44816343E-01  8.65265453E-02 -1.75907313E-01  4.39363621E-01
 -5.55944966E-01  1.99332527E-02 -4.04072584E-02  1.00966123E-01  4.39115728E-01
  1.66346332E-01 -3.38197519E-01 -5.12279532E-02 -6.65997480E-02 -3.17052643E-01
 -1.20100369E-01  2.44189319E-01  3.69939173E-02  4.80860699E-02 -5.53466137E-03
 -9.40680027E-03 -1.34714495E-02 -1.77120666E-03 -3.15658474E-03  1.48032906E-01
  5.97382072E-02  7.87430094E-03  1.39880600E-02 -5.45003543E-01 -4.64807188E-01
 -6.14212791E-02 -1.08756970E-01 -5.56042061E-01 -1.06775661E-01 -1.40732961E-02
 -2.50074554E-02 -2.47601815E-01  2.21094161E-01  2.91878179E-02  4.64247204E-01
  1.24857926E-01  1.78794589E-01 -1.59643419E-01 -2.10788684E-02 -3.35221453E-01
 -9.01664423E-02 -5.53146362E-03 -9.40162075E-03  7.88188554E-03 -6.71338229E-03
 -9.33703106E-03  1.47964231E-01 -3.49577045E-02  2.97762611E-02  4.13953855E-02
 -5.44734653E-01  2.72021021E-01 -2.31749630E-01 -3.22073321E-01 -5.55960355E-01
  6.25548525E-02 -5.32500692E-02 -7.40238846E-02  1.00797518E-01 -3.83369819E-01
  3.26669267E-01  4.44594436E-02 -2.75928638E-01 -7.27760546E-02  2.76799965E-01
 -2.35863428E-01 -3.20953031E-02  1.99226706E-01 -5.53124977E-03 -9.40141575E-03
  3.06597855E-03  1.36014743E-02 -2.53461534E-04  1.47962812E-01 -1.36121797E-02
 -6.03063551E-02  1.11601121E-03 -5.44682697E-01  1.05996844E-01  4.69173336E-01
 -8.63378771E-03 -5.55999423E-01  2.43794106E-02  1.07862999E-01 -1.99087815E-03
 -2.92149620E-01 -3.95977428E-03 -1.77474263E-02 -4.57146892E-01  2.17667658E-01
  2.10941033E-01  2.85910705E-03  1.28112523E-02  3.30070992E-01 -1.57164427E-01
  1.44464289E-05  3.91999335E-05 -1.49409659E-01 -5.95250727E-02 -3.21590251E-02
 -7.54022428E-04  1.22577809E+00  4.88240094E-01  2.63802556E-01 -1.21127067E-03
  1.30024348E+00  5.17758446E-01  2.79849829E-01 -5.05617805E-06  1.57491506E-01
  6.27167130E-02  3.38940196E-02  6.77747486E-02 -9.21857025E-02 -1.43915979E-02
 -2.47743768E-01 -2.56174518E-02  1.50977174E-01 -2.05377810E-01 -3.20640965E-02
 -5.52075795E-01 -5.71087323E-02 -2.38602075E-03 -4.22651481E-03  1.53717213E-02
  1.52143583E-02 -1.48357731E-02  7.75541997E-02 -2.19278286E-02 -1.84437806E-02
  1.46238230E-02 -3.58629313E-01 -5.72259038E-03 -1.22033464E-01  2.38300807E-01
 -1.85175703E-01 -1.17667557E-01 -6.69557707E-02  1.48301984E-02  1.62082646E-01
 -5.19703513E-02 -1.69325859E-01 -9.03275026E-02  2.61133974E-03 -1.49369404E-01
  4.63336801E-02  1.53468900E-01  8.61707293E-02 -1.00593056E-03  1.10256032E-02
  1.95301842E-02 -7.35002450E-02 -4.61239958E-03 -1.75586697E-02 -3.58363449E-01
  7.28932814E-02  2.70530448E-03  1.75439667E-02  1.65775554E+00  1.16738874E+00
  1.39627826E-01  2.74234619E-01  8.55508779E-01  7.88312831E-02 -2.31332683E-02
  2.08209929E-02  4.08201772E-01 -3.73235636E-01 -4.29052009E-02 -7.90345662E-01
 -1.77348425E-01 -3.74255196E-01  3.42651167E-01  3.96606541E-02  7.26628065E-01
  1.63334572E-01 -2.37420145E-03 -4.20528798E-03  7.45384813E-03  1.75724057E-02
  1.79212075E-02  7.71517072E-02 -1.35071393E-02 -2.09600764E-02 -2.02913313E-02
 -3.56722405E-01  9.90912397E-02 -1.53127905E-01 -1.94249304E-01 -1.84165702E-01
 -1.00104725E-01 -7.21590406E-02 -5.76567322E-02  9.19683835E-02 -1.04183158E-01
  1.69656242E-01 -1.00167447E-01 -8.48667066E-02 -8.38826837E-02  9.81926182E-02
 -1.52937009E-01  9.38829991E-02  7.84468294E-02 -6.26519877E-03 -1.10963755E-02
  7.14209779E-03 -4.54435603E-02  5.08917598E-03  2.03539874E-01 -1.31947265E-02
  4.62064152E-02 -6.62117062E-03 -9.41088728E-01  1.03503173E-01  6.79060125E-01
 -2.47086303E-02 -4.85513887E-01 -9.94080996E-02  6.71726477E-02 -2.92531728E-02
 -2.58413020E-01 -1.98801198E-02 -4.31810861E-02 -4.95267608E-01  1.06977315E-01
  2.34684545E-01  1.98530917E-02  3.89721435E-02  4.55911822E-01 -9.98477888E-02
  1.01653016E-05  2.29874707E-05 -6.10642413E-02  1.52309606E-01  1.61179064E-03
 -4.39136068E-04  5.00474270E-01 -1.24804975E+00 -1.31488445E-02 -6.83741930E-04
  5.30884081E-01 -1.32355681E+00 -1.38804268E-02 -1.99202205E-05  6.42983060E-02
 -1.60311784E-01 -1.68270859E-03  1.90293699E-01 -8.37326640E-02  3.17110569E-02
  9.66293177E-02 -1.47389945E-01  4.24034425E-01 -1.86595628E-01  7.05783986E-02
  2.15420607E-01 -3.28873144E-01 -4.51659702E-03 -7.99881383E-03  7.53009633E-04
 -5.18004908E-03 -3.60052965E-02  1.46698127E-01 -3.07876074E-03  1.12270198E-02
  3.84075006E-02 -6.78135490E-01  7.07715661E-02 -1.33356842E-01  4.73642320E-01
 -3.49883745E-01 -3.57857254E-02  9.65158779E-02  8.05317634E-02  3.88605058E-01
  7.35039312E-02 -1.48614274E-01  7.51097213E-03 -3.32616766E-02 -3.56445465E-01
 -6.62463766E-02  1.37191090E-01 -7.91524976E-03  3.41701643E-02  2.70839905E-03
  4.79819626E-03 -1.49802942E-02 -2.25266182E-02 -5.54562083E-03 -8.80723550E-02
  1.37455498E-02  2.97262822E-02  5.98983165E-03  4.07542926E-01  2.78021443E-01
  9.55016644E-02  7.08863796E-02  2.10343103E-01 -1.07534765E-03  1.35014632E-01
  1.31449384E-02  1.20989121E-01 -1.02735450E-01 -3.47874712E-02 -1.39663479E-01
 -1.80367698E-01 -1.14339496E-01  9.53882242E-02  3.03491286E-02  1.26647816E-01
  1.64377003E-01 -7.54995262E-03 -1.33707214E-02 -2.92468820E-02  1.20519399E-02
  4.36488600E-02  2.45211112E-01  2.88702702E-02 -7.12312580E-03 -4.64213042E-02
 -1.13353123E+00  4.67216470E-01 -3.61091321E-01 -5.79019084E-01 -5.84700872E-01
  3.05533039E-02  5.84206999E-02 -9.56140162E-02  1.98819974E-01 -4.66020788E-01
  3.41406264E-01  9.83477358E-02 -2.83242593E-01 -1.83443947E-01  4.26290891E-01
 -3.13095702E-01 -9.06427050E-02  2.62777621E-01  9.35372622E-03  1.65662553E-02
  2.57359648E-02  5.97262637E-02 -1.66398967E-03 -3.03860954E-01 -2.97159090E-02
 -5.79601445E-02  1.83739388E-03  1.40498299E+00 -2.58970771E-01 -9.90452867E-01
  1.97970573E-02  7.24584287E-01 -9.10411190E-02 -4.68652220E-02  4.55891889E-03
  4.25960033E-01 -3.87562383E-03  3.11663175E-02  6.09740551E-01 -3.81137523E-01
 -3.92746559E-01  5.24253122E-03 -2.90066110E-02 -5.59609545E-01  3.49111232E-01
 -2.78448516E-06 -4.83514237E-06 -2.92620566E-02 -1.34425280E-02  1.60968172E-01
  9.11980525E-05  2.39678759E-01  1.10145516E-01 -1.31840493E+00  1.33270220E-04
  2.54217902E-01  1.16871742E-01 -1.39863440E+00  1.07557206E-05  3.07961175E-02
  1.41569436E-02 -1.69413889E-01 -1.30032613E-01 -1.46359281E-01  1.88312079E-01
  1.17110839E-02 -3.65480374E-02 -2.89922712E-01 -3.26444335E-01  4.19753924E-01
  2.61503675E-02 -8.14399707E-02  1.01550397E-02  1.79839064E-02  1.96085553E-02
 -3.04987493E-02  5.98557331E-02 -3.29806448E-01 -2.19690139E-02  3.19738512E-02
 -5.77069742E-02  1.52456990E+00 -2.20512371E-01  4.20869319E-01 -1.00424641E+00
  7.86670281E-01 -5.97702992E-02  5.99594337E-02 -4.25564338E-02 -6.38887728E-01
 -3.01948257E-01  5.48607496E-01  8.13872077E-02  1.14957185E-01  5.86910203E-01
  2.77578422E-01 -5.04071650E-01 -7.44449217E-02 -1.03646785E-01 -4.40145817E-04
 -7.80151199E-04  7.47190569E-03  2.20898980E-03 -1.97109697E-02  1.43367574E-02
 -9.07939198E-03 -2.85506611E-03  2.69934056E-02 -6.64078885E-02 -5.96757202E-02
 -1.14089224E-02  4.76850956E-02 -3.43033651E-02 -3.28856779E-02 -1.24194504E-02
  1.33695447E-01 -8.01644024E-02 -1.14347726E-01  1.46582356E-02  5.57440170E-02
  1.67488878E-02  7.43816559E-02  1.04063696E-01 -1.74287339E-02 -5.04468911E-02
 -1.41866428E-02 -8.15876019E-03 -1.44488828E-02 -3.62950698E-02  3.58364878E-02
  2.67903848E-02  2.64986079E-01  3.75504448E-02 -3.86704687E-02 -2.25109837E-02
 -1.22498855E+00  5.18493268E-01 -4.55746375E-01 -5.67054524E-01 -6.32000436E-01
  6.39717677E-02 -8.67627549E-02  3.06471134E-02  3.15968887E-02 -4.62171053E-01
  4.21396169E-01  4.52667416E-02 -3.78045748E-01 -2.84160470E-02  4.25384903E-01
 -3.88338400E-01 -4.18460613E-02  3.44658102E-01 -1.55341003E-03 -2.75133380E-03
  7.76437029E-04 -1.14455775E-02 -2.03730451E-02  5.04710472E-02 -1.92552398E-03
  1.17018476E-02  2.77289803E-02 -2.33389929E-01  2.85391261E-02  1.68877678E-01
  5.60470490E-02 -1.20421907E-01 -1.80500828E-02  1.77875710E-02  1.34961808E-01
 -8.77448733E-02  6.14406591E-03  1.38216810E-01 -1.12648171E-01  2.83479451E-02
  8.25750344E-02 -1.94940936E-03 -1.26457061E-01  1.02350886E-01 -2.56548437E-02
  3.75299691E-06  2.01369411E-06  7.19249329E-05  2.09470412E-05 -7.45844651E-05
 -6.72310985E-05 -2.86254381E-04 -4.68577575E-05  1.09980441E-04  9.24469707E-05
 -6.23053202E-04 -2.13982154E-04  8.16774889E-04 -1.86789375E-05 -7.30231812E-05
 -2.90788056E-05  1.18216976E-04 -1.02524367E-03 -5.78661759E-03 -4.89092996E-03
  1.94672433E-03  2.19933413E-03  1.31494668E-01  7.48867588E-01  6.31624569E-01
 -2.49598562E-01 -2.83426876E-01  3.53974301E-06  4.74823162E-06  1.05060799E-03
  7.24968730E-04 -1.99160286E-05 -1.50153058E-05  1.79050363E-02  1.12449096E-02
  1.20946714E-03 -9.73977367E-04 -3.69605735E-01 -2.34857850E-01 -2.08524926E-02
  2.55906170E-05  5.79997956E-02  3.68004662E-02  3.18542980E-03 -2.32086743E-02
 -4.17420255E-01 -1.97948367E-01 -3.64651299E-01  8.91786912E-02  2.11666051E-02
  3.62848011E-01  1.75297861E-01  3.06626287E-01 -7.89405433E-02  5.22298130E-07
  1.28496797E-07  3.19460014E-04  1.66314317E-04 -1.21970256E-03  3.36537944E-05
  4.34668449E-03  2.65458134E-03 -2.05587709E-02 -5.35373262E-04 -9.24508325E-02
 -5.52873683E-02  4.25360819E-01 -1.23660458E-04  1.44875100E-02  8.68646144E-03
 -6.68148315E-02 -2.74825363E-01 -5.08932558E-01  1.13976729E-01  7.88604393E-02
  3.65965210E-02  2.34798878E-01  4.40574379E-01 -8.94845310E-02 -6.98378568E-02
 -3.43291345E-02 -1.56856642E-06 -1.59775411E-06 -7.76904398E-04 -1.05159521E-03
 -2.45318907E-05 -2.89618360E-05 -1.35140460E-02 -1.62194654E-02  5.28034849E-04
  9.83096567E-04  2.78008670E-01  3.38801947E-01 -8.39262751E-03  7.88637684E-05
 -4.35156957E-02 -5.29911782E-02  1.24257071E-03  5.90409091E-02 -1.33090592E-01
 -2.27990460E-01  5.30193315E-01  2.22198883E-02 -4.86000284E-02  1.21513798E-01
  2.00796633E-01 -4.52868979E-01 -2.21382652E-02 -2.94663084E-07 -9.91371034E-08
 -5.48869188E-04  1.79803514E-04  1.18639294E-03 -2.00561495E-05 -8.83672070E-03
  2.27368377E-03  1.90098809E-02  4.24841902E-04  1.83471322E-01 -4.89026676E-02
 -3.95095859E-01  4.97083373E-05 -2.86647677E-02  7.65060454E-03  6.17652719E-02
  6.32481521E-02  5.75408662E-02 -5.34373666E-01  9.02041104E-02  2.31690339E-01
 -5.21888990E-02 -4.02528731E-02  4.60824686E-01 -7.94519144E-02 -1.99904832E-01
 -5.55773857E-06 -2.96642263E-06 -8.02496413E-05  2.95029192E-05 -1.07669622E-05
  9.89664831E-05  4.68004047E-04 -4.28189455E-04  5.21368775E-05 -1.33894493E-04
  5.65219614E-04  3.27896391E-05  8.59064823E-05  2.77716415E-05  4.96761631E-05
  4.13289030E-05  9.35713917E-06 -3.78720099E-03  7.82012236E-04 -3.23158223E-03
 -4.92204479E-04 -6.45933857E-03  4.94029752E-01 -1.03925563E-01  4.17346899E-01
  6.33326132E-02  8.28908910E-01 -2.51660483E-06 -4.22682100E-06 -6.46013315E-04
  9.91990528E-04  5.25470419E-04  6.77782663E-05 -1.07292080E-02  1.60855648E-02
  8.53297706E-03 -8.42457243E-05  2.22149587E-01 -3.33791488E-01 -1.77298623E-01
 -1.86529599E-04 -3.48547907E-02  5.22242448E-02  2.78336066E-02 -3.79995311E-01
  2.91633026E-01 -3.26566844E-01 -1.35776435E-01 -1.43772721E-02  3.28200689E-01
 -2.48725778E-01  2.81982465E-01  1.15984134E-01  2.17172145E-02 -1.06715661E-08
  9.35896536E-07  1.34568612E-04 -1.30009921E-03 -1.40328379E-04 -5.97837957E-05
  3.33848241E-03 -2.07518385E-02 -1.97008825E-03  6.63868654E-04 -6.65071028E-02
  4.31794315E-01  4.16601770E-02  2.09334867E-04  1.04896516E-02 -6.76819610E-02
 -6.50836001E-03  1.20087067E-01 -7.91546336E-02 -6.71152708E-02  2.45523482E-01
 -5.19270844E-01 -9.62906145E-02  6.60212127E-02  6.17688206E-02 -2.07658549E-01
  4.50341704E-01 -3.41875044E-06 -5.82709637E-06 -6.79819589E-04  5.44162032E-04
 -9.60606879E-04  9.67241228E-05 -1.11503352E-02  8.73756822E-03 -1.56794710E-02
 -1.35013542E-04  2.31010386E-01 -1.81399208E-01  3.25455881E-01 -2.76958306E-04
 -3.61913513E-02  2.83248206E-02 -5.10785514E-02 -5.63283473E-01  2.41592559E-02
  6.03977732E-02  1.01270044E-01 -1.51550640E-01  4.83777774E-01 -2.16877482E-02
 -4.64809443E-02 -8.52219619E-02  1.38156230E-01  2.70368834E-06  4.42653825E-06
  1.16731097E-03 -2.72306040E-04  5.70700442E-04 -5.97971445E-05  1.85828916E-02
 -3.96617511E-03  9.12671549E-03 -2.96837658E-04 -3.86325871E-01  8.38706751E-02
 -1.89747620E-01  2.07618658E-04  6.04469256E-02 -1.32476721E-02  2.97202918E-02
  1.62079583E-01 -9.77903498E-02 -2.25463801E-01 -2.96279652E-01 -4.24756157E-01
 -1.31904955E-01  8.18172936E-02  1.96171618E-01  2.52230390E-01  3.70066165E-01
 -2.04100355E+00  2.26813714E+00 -2.80344515E-05  2.15752205E-05 -1.70571738E-05
 -8.49894152E-01  3.74152017E-04 -1.64371870E-04  1.59945018E-04 -2.55996311E-01
  4.72313797E-04 -1.27297197E-04  1.58178945E-04 -3.66898157E-02  3.56967097E-05
 -2.61285263E-05  2.09838079E-05  7.34088139E-05 -5.38032578E-05 -5.42759091E-06
 -7.71936964E-05 -3.14582626E-05  1.88850532E-04 -1.41836761E-04 -1.27004843E-05
 -2.08800827E-04 -8.44633170E-05  5.80658790E-03  2.67252074E-03  3.87591163E-03
 -7.87434743E-03  1.96621494E-02 -9.94772204E-02 -2.29168738E-03  4.67450992E-03
 -1.16653968E-02  3.09317158E-01 -4.42358243E-02  8.97725979E-02 -2.24201004E-01
  1.60422799E-02  1.10744644E-02 -2.25633576E-02  5.63795665E-02 -4.02390100E-02
 -1.52721560E-02  3.10004859E-02  4.69170734E-03  6.10991688E-03  1.08373829E-01
  4.11302004E-02 -8.34921430E-02 -1.26388401E-02 -1.64562911E-02  5.81020969E-03
  2.67503973E-03 -2.08808467E-02 -2.76224733E-03 -4.88458923E-03 -9.96594769E-02
  1.25164321E-02  1.66032685E-03  2.92474855E-03  3.10489830E-01  2.37769413E-01
  3.14291463E-02  5.56375334E-02  1.63384868E-02 -5.96493840E-02 -7.85867633E-03
 -1.39657642E-02  2.27130967E-02 -2.02778682E-02 -2.67916596E-03 -4.25733222E-02
 -1.14553448E-02 -6.12315301E-02  5.46635749E-02  7.22342996E-03  1.14767444E-01
  3.08834238E-02  5.80620924E-03  2.67240972E-03  1.21814161E-02 -1.03781406E-02
 -1.44158027E-02 -9.94827473E-02 -7.22856292E-03  6.16631374E-03  8.56185570E-03
  3.09370808E-01 -1.38901252E-01  1.18295613E-01  1.64342370E-01  1.60507501E-02
  3.48864679E-02 -2.97360452E-02 -4.13599366E-02 -9.21382879E-03  3.51439645E-02
 -2.99406618E-02 -4.08420833E-03  2.52979299E-02  2.48160791E-02 -9.46573879E-02
  8.06422203E-02  1.09980883E-02 -6.81384223E-02  5.80663318E-03  2.67288733E-03
  4.75583744E-03  2.10336493E-02 -3.84777675E-04 -9.95335164E-02 -2.83096720E-03
 -1.25357895E-02  2.28681662E-04  3.09719006E-01 -5.42071667E-02 -2.39657989E-01
  4.38846501E-03  1.61325631E-02  1.35699792E-02  6.02448781E-02 -1.12352586E-03
  2.67885527E-02  3.61254830E-04  1.61852693E-03  4.18979471E-02 -1.99728943E-02
 -7.21736865E-02 -9.73856026E-04 -4.35966173E-03 -1.12882328E-01  5.38120682E-02
 -2.12907003E-05  4.00060844E-05 -1.32891010E-02 -1.36735576E-03 -3.80436293E-03
 -1.06080300E-04  1.33791707E-01  1.38021111E-02  3.82807098E-02 -1.22119579E-03
  2.99323301E-01  3.08328899E-02  8.56717831E-02  1.51636947E-06  1.76867270E-02
  1.82472884E-03  5.06059819E-03  6.83528268E-03 -5.25768837E-03 -1.21109137E-03
 -1.15496430E-02 -3.23546030E-03  5.07288079E-02 -3.90089082E-02 -8.99148796E-03
 -8.56678192E-02 -2.40000430E-02  7.76573678E-01 -8.01815831E-01  4.56543687E-04
  1.99394813E-05  1.92177065E-04  9.23025275E-02 -2.01212365E-04  1.55545576E-03
 -3.59459706E-03 -1.91180178E-01 -2.80481996E-03 -3.13957841E-02  6.89589185E-02
  1.87088728E-02 -4.81279862E-02 -4.43469255E-03 -1.49508712E-02  4.15548713E-03
 -3.10112229E-04 -3.03022857E-03 -1.80672726E-03 -4.25525328E-04 -1.56295188E-02
  9.31597052E-04  1.12133025E-02  6.95399144E-03  1.81371215E-03 -2.01259735E+00
  2.07802172E+00  6.24624373E-04  7.04974376E-05  1.68708581E-04 -2.39271670E-01
 -9.74795284E-03 -1.30677614E-03 -2.25097872E-03  4.95717953E-01  1.85380989E-01
  2.50099403E-02  4.24698339E-02 -4.80188578E-02 -5.11890394E-02 -5.38476049E-03
 -1.44688801E-02  5.55854080E-03 -4.79858803E-03 -6.91432965E-04 -1.02546925E-02
 -2.80898546E-03 -2.09082251E-02  1.80611409E-02  2.61188871E-03  3.85588324E-02
  1.05501277E-02  6.23879870E-01 -6.44158627E-01  4.77448687E-04  1.88887154E-05
  8.89123587E-05  7.41510587E-02 -1.33109421E-03  1.64159466E-03  2.36006743E-03
 -1.53573443E-01  1.93976168E-02 -3.31241774E-02 -4.85090158E-02  1.50832076E-02
 -4.85176869E-02 -4.39527479E-03 -1.29549206E-02  2.01780936E-03 -2.49523787E-03
  2.43257381E-03 -1.57218487E-03 -1.66883168E-03 -7.45685727E-03  9.57292959E-03
 -8.84364864E-03  5.93354724E-03  6.42671199E-03  6.07730757E-01 -6.27484836E-01
  4.59123668E-04  1.00406960E-04  1.26520689E-04  7.22324479E-02 -1.79808904E-04
 -3.07764047E-03  2.09763094E-04 -1.49592027E-01 -3.42021099E-03  5.99938632E-02
 -6.11050857E-03  1.47253305E-02 -4.81370751E-02 -6.01585628E-03 -1.36866568E-02
 -1.09497828E-03 -5.75624827E-04 -5.96092835E-04 -4.33329476E-03 -1.30899903E-04
  3.88361843E-03  2.27899296E-03  2.12726164E-03  1.63085363E-02  1.95806292E-04
 -9.06999864E-08  4.01264681E-07  1.57414824E-04  1.28891666E-02 -5.21137349E-03
 -1.38004951E-05 -1.61554525E-03 -1.29594098E-01  5.23623685E-02 -8.58732680E-05
 -3.57425141E-03 -2.89668189E-01  1.17105456E-01 -2.39240822E-05 -2.13866795E-04
 -1.71191140E-02  6.91808279E-03  1.08969997E-02  1.02830926E-03 -2.86020825E-03
  7.83664958E-03 -5.53180056E-03  8.07959072E-02  7.62832292E-03 -2.11987996E-02
  5.80785207E-02 -4.10351549E-02  1.36817657E+00 -1.41265176E+00  1.74883652E-05
 -4.82208998E-04  2.91630721E-04  1.62642246E-01 -1.31034703E-03  2.14486200E-03
 -6.40678411E-03 -3.36808392E-01  2.58998006E-02 -3.53376627E-02  1.23452077E-01
  3.30014068E-02  1.47785758E-04  4.72937373E-02 -2.09767702E-02  7.44581318E-03
  2.56279955E-03 -4.08571142E-03  4.12671118E-04 -1.31165837E-03 -2.78829265E-02
 -9.50110897E-03  1.55551967E-02 -1.64110812E-03  5.08412050E-03  9.05586048E-02
 -9.35026879E-02 -1.48381545E-05 -4.35917988E-04  1.71736195E-04  1.07645080E-02
  4.60597134E-04 -4.44440925E-04  3.19414478E-04 -2.22605333E-02 -8.89850157E-03
  1.56118536E-02 -8.93403712E-03  2.23740875E-03  7.51203626E-04  4.64462291E-02
 -1.87157248E-02  1.00282667E-03  8.10702310E-04 -4.59013166E-04  1.34675576E-03
 -1.61404559E-03 -3.98531685E-03 -2.87170100E-03  1.71914560E-03 -5.17723961E-03
  5.76479760E-03  3.81680778E-01 -3.94087946E-01  1.39969583E-05 -4.53064169E-04
  1.52095507E-04  4.53702464E-02 -1.14621729E-03  4.70872622E-04  1.55558974E-03
 -9.39437963E-02  2.27050684E-02 -2.34082107E-03 -3.34264155E-02  9.26973813E-03
  1.80891979E-04  4.67336781E-02 -1.82771273E-02  2.18719002E-03 -1.83869018E-03
  5.22832973E-04  1.53851860E-03 -9.80897651E-04 -8.19869305E-03  6.65092830E-03
 -2.01178307E-03 -5.74494790E-03  4.01157888E-03 -1.84021440E+00  1.90003421E+00
 -4.25178929E-05 -5.99229138E-04  1.78526662E-04 -2.18760946E-01  2.13934794E-03
  8.98370340E-03  3.13375907E-05  4.53084275E-01 -4.21029821E-02 -1.70296286E-01
 -3.37711068E-03 -4.44285695E-02  1.29717375E-03  4.96302998E-02 -1.88054579E-02
  6.31009242E-03  6.45704972E-05 -4.26889555E-04  8.88435032E-03 -4.69527175E-03
 -2.38294759E-02 -3.06013284E-04  1.51093009E-03 -3.33738819E-02  1.75762712E-02
  2.71830151E-06 -5.08409243E-06  4.04351532E-03 -5.02714891E-03 -1.23214043E-02
  1.22616370E-05 -4.06403272E-02  5.05401018E-02  1.23814535E-01  1.46546538E-04
 -9.08489995E-02  1.12946661E-01  2.76824848E-01 -2.89884754E-06 -5.36853269E-03
  6.67533039E-03  1.63563967E-02  1.75483761E-03  8.89738123E-03 -9.87901000E-03
 -3.46304264E-03  5.31084730E-03  1.30132179E-02  6.59789217E-02 -7.32154694E-02
 -2.56831370E-02  3.93677140E-02  1.25815309E+00 -1.29905208E+00 -1.15099253E-04
  1.27275418E-04  5.22649288E-04  1.49567016E-01 -1.35872530E-03  2.63060127E-03
 -5.59897525E-03 -3.09740891E-01  2.89056241E-02 -5.45254018E-02  1.03715614E-01
  3.03022811E-02  1.41588283E-02 -1.72723259E-02 -4.63688421E-02  4.90604755E-03
  3.31430948E-03 -5.67829638E-03 -1.15186740E-03 -6.77168833E-04 -1.85653269E-02
 -1.24644588E-02  2.12505092E-02  4.32728672E-03  2.24839026E-03  6.96388000E-02
 -7.19027655E-02 -1.42289331E-04  1.69291776E-04  4.11388263E-04  8.28024760E-03
  1.96375251E-04  2.42501969E-04  5.75182798E-04 -1.71493536E-02 -1.73895578E-03
 -7.48215692E-03 -1.77196217E-02  1.66837866E-03  1.46743446E-02 -1.80894198E-02
 -4.43241241E-02  4.73084948E-04  2.08176007E-03 -6.34999927E-04 -4.08815676E-04
  1.01879281E-03 -1.64925374E-03 -7.63950531E-03  2.74484845E-03  1.48723786E-03
 -3.80270299E-03 -1.87678950E+00  1.93779809E+00 -2.34551723E-04  2.53748087E-04
  5.31482545E-04 -2.23104669E-01  5.45797170E-03 -4.58849852E-03 -6.16214425E-03
  4.62032028E-01 -1.05400899E-01  8.77128130E-02  1.14883338E-01 -4.53134838E-02
  1.64466685E-02 -1.97296755E-02 -4.65879590E-02 -1.27299441E-03  7.91075862E-03
 -6.84713692E-03 -1.26775536E-03  5.80606233E-03  4.83491796E-03 -2.97337608E-02
  2.58358732E-02  4.78301447E-03 -2.17140759E-02  5.49581334E-01 -5.67446711E-01
 -1.25935104E-04  2.19106665E-04  4.15372527E-04  6.53337092E-02 -7.97368720E-04
 -2.63814046E-03  5.32979513E-04 -1.35308780E-01  1.79122456E-02  4.93181257E-02
 -1.71084085E-02  1.32878458E-02  1.43337005E-02 -1.90664699E-02 -4.43136331E-02
 -1.37547430E-03  5.29604799E-04 -2.20179234E-03 -2.55628896E-03  2.10983736E-03
  5.08677273E-03 -2.32986395E-03  8.09097681E-03  9.70643277E-03 -7.86864309E-03
 -1.58138311E-02  2.89452800E-02  2.65882579E-05  1.07780376E-07  4.96027177E-06
 -1.05667508E-02 -1.33595069E-04 -2.58529484E-05 -1.13947456E-05 -9.53858469E-01
 -4.58394974E-04 -1.50464280E-04 -4.63973144E-06  1.33926324E-02 -1.05638949E-05
 -5.17477405E-06  7.81198227E-07 -9.33295278E-06  6.03150509E-06  8.94050061E-07
  9.47076045E-06  5.03534410E-06 -2.83979600E-05  2.39855583E-05 -2.65149960E-07
  6.01255992E-05  3.45075819E-05 -1.16384923E+00  1.20297934E+00 -3.43242955E-04
  6.95193700E-04 -1.73626137E-03 -1.49486227E-01  2.34296544E-03 -4.75748261E-03
  1.18806224E-02  3.02565002E-01 -2.30846889E-02  4.69578888E-02 -1.17251890E-01
  7.68663870E-02 -5.80966352E-03  1.18974270E-02 -2.96849080E-02 -5.04334645E-03
 -1.90966582E-03  3.88523352E-03  5.88846126E-04  7.64923367E-04  1.70764129E-02
  6.46411134E-03 -1.31545967E-02 -1.99609509E-03 -2.58998958E-03 -1.16140872E+00
  1.20046013E+00  1.83462448E-03  2.41638493E-04  4.29769646E-04 -1.49203933E-01
 -1.25511178E-02 -1.65606064E-03 -2.93816533E-03  3.02030209E-01  1.23806905E-01
  1.63658720E-02  2.89642866E-02  7.69952926E-02  3.14695071E-02  4.15938771E-03
  7.35814247E-03  2.83622891E-03 -2.53296977E-03 -3.34229964E-04 -5.31991804E-03
 -1.43074878E-03 -9.60260009E-03  8.57361099E-03  1.13215140E-03  1.80073742E-02
  4.84449477E-03 -1.16414045E+00  1.20328002E+00 -1.07533659E-03  9.15799083E-04
  1.27196157E-03 -1.49522474E-01  7.35666258E-03 -6.26836591E-03 -8.70755435E-03
  3.02663915E-01 -7.26100030E-02  6.18878253E-02  8.59748228E-02  7.69159876E-02
 -1.83551134E-02  1.56848749E-02  2.17802339E-02 -1.15788356E-03  4.40311283E-03
 -3.75316414E-03 -5.09144668E-04  3.17020436E-03  3.92095906E-03 -1.49097436E-02
  1.27084758E-02  1.72210722E-03 -1.07343463E-02 -1.16391712E+00  1.20304957E+00
 -4.18417537E-04 -1.85249963E-03  3.40049570E-05 -1.49499749E-01  2.86342848E-03
  1.26826480E-02 -2.33024774E-04  3.02657341E-01 -2.82806385E-02 -1.25246202E-01
  2.29937100E-03  7.70058195E-02 -7.13149268E-03 -3.17538983E-02  5.86416587E-04
  3.35376104E-03  4.58648360E-05  2.03499640E-04  5.25043637E-03 -2.49781321E-03
 -1.13563698E-02 -1.55820208E-04 -6.88735555E-04 -1.77793027E-02  8.45811566E-03
Total SCF Density                          R   N=        9180
  6.57622904E-01  5.57095014E-01  4.84033455E-01  1.59591629E-06  2.07903148E-06
  7.21571662E-02 -1.03161751E-06 -1.27152401E-06  3.62004895E-06  7.21456930E-02
  8.52101293E-07  1.06549283E-06  3.91061953E-06  8.15219956E-07  7.21393647E-02
 -8.66708428E-02 -1.51195580E-01 -5.93861479E-06  2.23094218E-06 -2.23061855E-06
  5.11840895E-01 -4.82363053E-06 -6.46163506E-06  1.02152736E-01  5.78328452E-07
  2.46416244E-06  1.35953711E-05  1.46481191E-01  1.73158979E-06  1.40683801E-06
  7.02156963E-07  1.02148036E-01  4.58377517E-07 -3.78941348E-07 -4.54585548E-06
  1.46488588E-01 -1.83685952E-06 -1.96621657E-06  2.47936064E-06  4.84662433E-07
  1.02143804E-01  2.81616534E-06 -5.41055059E-08 -5.58297891E-08  1.46487661E-01
 -4.61720557E-03 -1.72500870E-03  3.72488530E-05 -2.80419733E-06  8.32583293E-06
 -6.98110701E-03  4.71423017E-05 -3.11353320E-06  1.01378906E-05  9.07234032E-02
 -2.58913146E-06  1.74592241E-07  1.95551266E-02 -5.11185587E-06 -8.73046993E-06
 -1.56715460E-05  3.00077139E-02 -7.63165169E-06 -1.32489172E-05  1.66840169E-05
  1.00906770E-02  6.57694232E-06  9.39650539E-06 -4.81651511E-06  1.95943480E-02
  2.36478781E-06 -2.48254160E-05 -7.38902579E-06  3.00664138E-02  3.46480537E-06
  7.22462847E-06 -2.55720977E-06  1.01085737E-02 -3.83009307E-06 -4.71724882E-06
 -8.57672704E-06  2.47344803E-06  1.95791593E-02  9.49659726E-06 -1.29175819E-05
  3.63321155E-06  3.00443864E-02 -1.04834610E-06 -3.70695745E-06  1.11298096E-06
  1.01014410E-02  4.87865222E-03  8.17179265E-03 -6.64198930E-07 -5.39418536E-07
  2.65762474E-07 -2.71645039E-02 -1.36435877E-06 -5.85518836E-07  2.38744736E-07
 -7.04148238E-03  1.29669946E-07  7.45146371E-07 -2.72233010E-07  2.04872439E-03
  7.89136392E-07  1.70491049E-06 -2.41860935E-03 -6.33237019E-07 -1.49635329E-06
 -6.80251449E-06 -1.90169282E-03 -4.60292421E-07 -1.93830968E-06 -9.97894012E-07
 -2.23722793E-04  7.45111156E-08 -1.61852711E-06  8.66208803E-07  2.45921742E-03
  1.09617058E-06  1.38052992E-06 -5.32972682E-07 -2.41286219E-03  2.50727782E-07
 -3.18235383E-06 -3.21766108E-07 -1.89381117E-03  5.57400193E-07 -8.24017749E-07
  2.23215260E-07 -2.18348247E-04  4.29303251E-07  2.34493090E-07 -1.83449052E-07
  2.46113789E-03 -4.48794445E-07 -4.32475439E-07 -1.47086908E-06  2.31695029E-07
 -2.41432692E-03  4.86897265E-07 -1.89743054E-06  5.20681699E-07 -1.89718602E-03
  1.31130546E-08 -1.71883354E-06  4.28672499E-07 -2.20497857E-04  8.71525718E-08
 -4.20714322E-07  9.27355119E-08  2.46039030E-03  5.28828858E-07  1.37520438E-06
  3.60683730E-03 -5.36469231E-03  4.58011101E-03 -5.87142317E-06  4.42946005E-03
 -6.58915365E-03  5.62532658E-03  2.19321900E-06  3.84607570E-04 -5.71725413E-04
  4.88845537E-04  1.05777454E-07 -8.68031956E-04  1.29203607E-03 -1.10343077E-03
  2.51389384E-03 -6.96941719E-07 -1.51068444E-06 -4.65770192E-03  1.06409714E-03
  4.16185658E-03  5.81297501E-06 -5.72014986E-03  1.30711159E-03  5.11203538E-03
 -1.97106792E-06 -4.97838345E-04  1.12736032E-04  4.46802946E-04 -2.55539278E-08
  1.12123023E-03 -2.56373924E-04 -1.00310604E-03 -6.87444243E-05  2.05800868E-03
  5.54041331E-08  5.08346483E-08  1.06426905E-03 -6.34855838E-04 -6.19233461E-03
 -2.40325653E-08  1.30718896E-03 -7.79890570E-04 -7.60540199E-03 -6.85676668E-08
  1.12357584E-04 -6.75749703E-05 -6.57868610E-04 -1.21200587E-08 -2.56426373E-04
  1.52672299E-04  1.49199811E-03 -4.26956788E-04 -6.34704857E-04  2.05198780E-03
 -9.98815998E-07 -2.15940268E-06 -6.19015993E-03 -5.89265629E-03 -2.01133631E-03
  8.46002727E-06 -7.60078815E-03 -7.23663378E-03 -2.47009658E-03 -4.65631336E-06
 -6.58588682E-04 -6.28147864E-04 -2.15455964E-04  4.42664070E-08  1.48965825E-03
  1.41889491E-03  4.84244760E-04  1.49883448E-06  2.86203414E-04  1.93989333E-04
  2.80268042E-03 -8.84036715E-08 -3.56796704E-07 -2.79267363E-03  4.10421816E-03
  1.06424414E-03  1.92147936E-06 -3.42917513E-03  5.04055628E-03  1.30718040E-03
 -2.22469795E-06 -2.97045567E-04  4.40667684E-04  1.12454841E-04 -4.94400087E-08
  6.72866519E-04 -9.89118191E-04 -2.56409342E-04 -5.49987037E-04  4.40540783E-04
 -2.45601838E-04 -1.82960089E-04  1.76806817E-03 -2.16826838E-06 -1.98446715E-06
  2.11154859E-03 -3.14022424E-03  2.67949064E-03  1.16368120E-06  2.12028584E-03
 -3.15453579E-03  2.69081447E-03 -2.08476090E-06  2.47787411E-04 -3.63220321E-04
  3.14699091E-04 -2.83344744E-07 -1.36803353E-03  2.03511520E-03 -1.73819242E-03
  3.28379532E-03 -1.10252498E-06 -1.15742139E-05 -1.19202093E-06 -1.54240248E-05
  5.70765233E-03  2.15527743E-06  2.35685153E-06 -2.72641333E-03  6.23022188E-04
  2.43587244E-03 -3.85274196E-06 -2.73850218E-03  6.25845799E-04  2.44796882E-03
  2.46022436E-06 -3.22598045E-04  6.95294520E-05  2.91925812E-04  3.91533963E-07
  1.76641434E-03 -4.03812789E-04 -1.57936016E-03 -1.31727096E-06  3.27320347E-03
 -1.69036116E-05  8.14922523E-06  1.18131760E-05  1.51984171E-04  6.70797936E-03
 -8.88325581E-08 -2.48901337E-07  6.21976654E-04 -3.72303051E-04 -3.62120834E-03
  1.18266158E-06  6.24277529E-04 -3.74400504E-04 -3.63534645E-03 -1.25339271E-07
  6.88508234E-05 -4.22348703E-05 -4.15462986E-04 -2.95536935E-08 -4.03811701E-04
  2.40636400E-04  2.35016905E-03 -1.17269287E-05 -1.75082607E-05  3.27014714E-03
  5.47243929E-06 -5.88712161E-06  9.31066530E-04  1.38403631E-03  6.71048333E-03
  3.09788675E-06  3.40803639E-06 -3.62131784E-03 -3.44864525E-03 -1.17754425E-03
 -5.29124958E-06 -3.63435646E-03 -3.46353547E-03 -1.18279575E-03 -3.87995710E-07
 -4.22438918E-04 -4.00464978E-04 -1.40836841E-04  6.41554692E-07  2.34718855E-03
  2.23461253E-03  7.62869976E-04 -1.19053737E-06  8.48508970E-06  5.37290166E-06
  3.29230307E-03 -5.43877868E-06 -7.69615104E-06 -6.21604385E-04 -4.22314388E-04
  5.08060845E-03  7.19322880E-07  5.31345787E-07 -1.63287611E-03  2.40293543E-03
  6.22117803E-04  8.36260211E-07 -1.63829771E-03  2.41467260E-03  6.24520977E-04
 -2.80301154E-06 -1.89379633E-04  2.87632216E-04  6.90301274E-05  2.30265068E-09
  1.05975524E-03 -1.55694000E-03 -4.03771438E-04 -1.50224075E-05  1.19457813E-05
 -5.83020952E-06 -5.13240780E-06  3.26478782E-03  1.19869562E-03 -9.61098900E-04
  5.38503242E-04  3.97866586E-04  7.33739316E-03  1.40629064E-03  1.63450305E-03
 -1.16476846E-03  2.36610578E-03 -5.90882050E-03 -2.13761755E-03 -3.53044253E-04
  7.16145863E-04 -1.78873138E-03  3.65076827E-02  2.60224169E-03 -5.26487834E-03
  1.31580942E-02 -2.53349009E-03  8.86982041E-05 -1.82424129E-04  4.55112462E-04
 -2.52794700E-03 -9.59163877E-04  1.94713341E-03  2.95370977E-04  3.84142823E-04
  5.21389443E-04  1.98140410E-04 -4.02015452E-04 -6.04825987E-05 -7.92783284E-05
  6.33154826E-01  2.03999055E-03  2.45748298E-03 -1.82315409E-03  3.70366525E-03
 -9.24906207E-03 -2.70528904E-03 -8.18280425E-04  1.66057942E-03 -4.14746758E-03
  5.18303110E-02  3.48905909E-03 -7.06037327E-03  1.76452544E-02 -3.80841611E-03
  1.21899688E-04 -2.51279205E-04  6.26742729E-04 -4.18143269E-03 -1.58653575E-03
  3.22074232E-03  4.88529559E-04  6.35380485E-04 -2.37098347E-04 -8.95613930E-05
  1.81811918E-04  2.84907494E-05  3.60451856E-05  5.70726267E-01  5.32577205E-01
  3.94759941E-03  6.26515708E-03  1.22964733E-02  6.38239750E-03 -1.59421431E-02
 -1.95081213E-02  2.59365234E-02  9.44673478E-03 -2.35941227E-02 -2.36057143E-03
  7.31109981E-03  2.25932398E-03 -5.67449917E-03  1.25370344E-03  1.16991356E-02
  1.03389903E-04 -2.61488042E-04 -5.20374381E-03  8.92540169E-03  2.08141303E-03
  3.95404319E-03 -2.16321517E-03 -8.98999363E-03  2.12132375E-02  4.32984622E-03
  6.13620841E-03 -7.75923118E-03 -1.70226576E-03 -2.67698200E-03  2.00100085E-01
 -8.01008425E-03 -1.27123706E-02  6.37726316E-03  2.48724308E-03  3.23530563E-02
  3.95785047E-02  9.43968367E-03  1.14206891E-02  4.78837609E-02  4.83344482E-03
  2.24592191E-03  3.88463855E-03  1.14961375E-02 -2.54112740E-03  1.01835300E-04
  1.15485128E-02  5.22687586E-04  9.97166446E-03  2.08093033E-03  4.01234083E-03
  4.52855073E-03 -4.90552115E-04  1.79405275E-02  4.33474261E-03  1.36545758E-02
  8.62338760E-03  2.02934828E-03  3.45059739E-03  5.42621965E-03  3.65500228E-03
  1.94491420E-01  2.00074813E-02  3.17525936E-02 -1.59314037E-02  3.23575587E-02
 -6.53592069E-02 -9.88573007E-02 -2.35798039E-02  4.78892981E-02 -8.89946126E-02
 -1.20854290E-02 -5.64818768E-03  1.15039335E-02 -2.02130720E-02  6.34577931E-03
 -2.59083336E-04  5.24355730E-04  1.04492758E-02 -7.16358506E-03 -5.54874564E-03
  1.05794965E-02  2.45713177E-03  2.08115776E-03 -4.12969636E-03 -7.41281847E-03
  1.46884097E-02  3.77584158E-03  4.33317115E-03 -8.61936932E-03 -1.35544155E-02
 -9.12989129E-03  1.85131756E-02  1.55658360E-01 -2.95067236E-03 -3.46112688E-03
  4.80107954E-03 -9.75407801E-03  2.43586713E-02 -2.86884465E-03  2.67102239E-03
 -5.42188832E-03  1.35419048E-02 -1.29215085E-01 -8.05575301E-03  1.63097195E-02
 -4.07584934E-02  1.07690293E-02 -2.92603458E-04  6.05925318E-04 -1.51057264E-03
  1.26239735E-02  4.78996330E-03 -9.72364172E-03 -1.47481901E-03 -1.91822707E-03
  4.38330479E-03  1.66266001E-03 -3.37338525E-03 -5.14692116E-04 -6.66521644E-04
 -1.46398134E-01 -2.47949964E-01  8.45746282E-03 -1.71414332E-02  4.28190544E-02
  7.76334570E-01  5.84110542E-03  9.23169091E-03  1.81077815E-02  9.36451066E-03
 -2.33910218E-02 -2.85884917E-02  3.79065188E-02  1.38141960E-02 -3.45025481E-02
 -3.09735095E-03  1.06529332E-02  3.25120505E-03 -8.16578474E-03  1.80760529E-03
  1.68037025E-02  1.18398191E-04 -3.00424821E-04 -7.56843086E-03  1.27909140E-02
  3.10353607E-03  5.63228697E-03 -3.15417913E-03 -1.30226789E-02  3.05327179E-02
  6.35604225E-03  8.75897536E-03 -1.12555185E-02 -1.77604953E-03 -2.96890222E-03
  2.88217775E-01  5.06030329E-03 -1.26410825E-02  1.02637281E-02  4.15153543E-01
 -1.18524677E-02 -1.87318127E-02  9.35660954E-03  3.71574808E-03  4.74692811E-02
  5.80006972E-02  1.38033911E-02  1.66802284E-02  7.00213837E-02  6.34806364E-03
  3.23171104E-03  5.72220865E-03  1.65436418E-02 -3.66383090E-03  1.16248103E-04
  1.66336770E-02  5.98233205E-04  1.45382072E-02  3.10278990E-03  5.63024369E-03
  6.43106120E-03 -6.77438859E-04  2.60278970E-02  6.36305399E-03  1.95688217E-02
  1.23246153E-02  2.98375930E-03  3.59995367E-03  6.01729332E-03  5.06068684E-03
  2.80452911E-01  2.56331660E-02 -2.07992176E-02  6.97884653E-03  4.04445983E-01
  2.96048166E-02  4.67877184E-02 -2.33744537E-02  4.74761513E-02 -9.58305483E-02
 -1.44871584E-01 -3.44805100E-02  7.00298370E-02 -1.30159240E-01 -1.58742274E-02
 -8.12758256E-03  1.65552009E-02 -2.89556569E-02  9.14943857E-03 -2.97168781E-04
  6.00585784E-04  1.53746527E-02 -1.08016044E-02 -8.15265428E-03  1.55955259E-02
  3.58115346E-03  3.10313417E-03 -6.38289382E-03 -1.08235138E-02  2.14972831E-02
  5.47704288E-03  6.36089652E-03 -8.99256112E-03 -1.50311806E-02 -1.26419291E-02
  2.56329685E-02  2.26685112E-01  5.19574767E-02 -1.74349194E-02  3.53514340E-02
  3.30292796E-01 -4.54996364E-03 -3.16427913E-03  3.94631329E-04 -8.13937683E-04
  2.03400386E-03 -1.22108406E-02 -2.95167447E-03  5.98503222E-03 -1.49425567E-02
 -1.15425127E-01 -7.80857449E-03  1.58192670E-02 -3.95255151E-02  1.01276580E-02
 -1.58652484E-04  3.34124955E-04 -8.30997132E-04  8.81997124E-03  3.34609445E-03
 -6.79537976E-03 -1.02881432E-03 -1.33917386E-03  2.70712145E-03  1.02238447E-03
 -2.08689411E-03 -3.16037187E-04 -4.08541896E-04 -1.48487267E-01 -2.30576925E-01
  1.16894241E-02 -2.37007387E-02  5.91976598E-02  6.54347477E-01  1.53025772E-02
 -3.10253946E-02  7.74927401E-02  5.58943642E-01  4.97513768E-03  7.48165415E-03
  1.25209257E-02  6.63377938E-03 -1.65690333E-02 -2.18013089E-02  2.81756300E-02
  9.83504139E-03 -2.45618897E-02 -1.34158895E-03  8.12193979E-03  2.29481904E-03
 -5.76887748E-03  1.29539533E-03  1.45334459E-02  1.77632095E-04 -4.48186848E-04
 -6.22344220E-03  1.08769891E-02  2.13477077E-03  5.24032628E-03 -2.19678631E-03
 -1.07726844E-02  2.52919889E-02  4.65334239E-03  8.10103154E-03 -8.48306692E-03
  4.88403202E-07 -6.49068597E-04  2.45606376E-01  6.08483687E-03 -1.51968666E-02
  4.95292869E-03  3.53710557E-01  8.51359327E-03 -2.12634550E-02  8.82579460E-03
  3.02314988E-01 -1.00958370E-02 -1.51816712E-02  6.62716892E-03  2.32163620E-03
  3.36243265E-02  4.42326245E-02  9.82587654E-03  1.30592750E-02  4.98454214E-02
  2.76970408E-03  2.27754778E-03  4.65209606E-03  1.16746415E-02 -2.62501340E-03
  1.75694344E-04  1.42715667E-02  8.98563650E-04  1.17275465E-02  2.13349913E-03
  4.97408238E-03  5.93311665E-03 -9.80653019E-04  2.11754165E-02  4.65668701E-03
  1.61307966E-02  1.09834972E-02  1.69223538E-03 -8.07366494E-06  1.30650099E-03
  6.08362920E-03  2.36266417E-01  3.08205676E-02 -1.00186237E-02  8.51129678E-03
  3.40643597E-01  4.31217407E-02 -1.78742064E-02  9.12917292E-03  2.88299646E-01
  2.52169297E-02  3.79201115E-02 -1.65549306E-02  3.36294414E-02 -6.81913540E-02
 -1.10482447E-01 -2.45429272E-02  4.98517700E-02 -9.14712216E-02 -6.93456206E-03
 -5.73444722E-03  1.16838791E-02 -1.98199671E-02  6.55511823E-03 -4.45106349E-04
  9.00468707E-04  1.23828817E-02 -7.85495688E-03 -6.51763308E-03  1.21840069E-02
  2.95134534E-03  2.13339062E-03 -4.55125982E-03 -8.87044942E-03  1.72106934E-02
  4.57454652E-03  4.65376777E-03  1.76009297E-05 -3.26688827E-03 -1.51942805E-02
  3.08212826E-02  1.71620361E-01  2.50335899E-02 -2.12585018E-02  4.31230817E-02
  2.50195388E-01  4.46500534E-02 -2.27990886E-02  4.62472531E-02  1.91299274E-01
  1.31656498E-04 -1.10689947E-03 -3.75085867E-03  7.62716801E-03 -1.90355018E-02
  7.13312478E-03 -4.89906233E-03  9.96598982E-03 -2.48723980E-02 -9.67141138E-03
 -7.27718710E-04  1.47674578E-03 -3.68624166E-03  4.05175982E-04  6.31569131E-04
 -1.28326908E-03  3.20461238E-03 -3.82982825E-03 -1.45474557E-03  2.94779919E-03
  4.48934280E-04  5.84087077E-04 -4.07552017E-03 -1.55256830E-03  3.13390187E-03
  4.80187360E-04  6.24946459E-04  2.72196110E-03  3.52318571E-03  5.61193608E-03
 -1.14052002E-02  2.84793665E-02 -7.08788438E-03  8.25489857E-03 -1.67760392E-02
  4.18908665E-02  1.55343603E-04  6.04568294E-03 -1.22838990E-02  3.06734339E-02
  1.07185638E-02 -1.50485776E-04 -1.47156854E-05  1.52134710E-03  7.43805554E-05
 -1.84488636E-04 -6.72437976E-04  2.31101376E-03  2.32648845E-04 -5.79403691E-04
  4.82567410E-04 -2.71575712E-04  1.36592093E-04 -3.45045811E-04 -2.62981647E-06
  7.57718986E-04  1.33758100E-04 -3.34242581E-04 -3.52233081E-05  1.04458919E-03
  1.46415612E-04 -1.02999265E-04 -7.09046133E-04 -4.59354711E-04  2.75438132E-03
  5.57435358E-04 -6.34865997E-05 -1.73024104E-03 -8.99863972E-04 -1.37122206E-03
  2.17254397E-02  1.57724676E-03 -3.93788637E-03  3.82056559E-03  3.12856697E-02
  2.30042887E-03 -5.74356253E-03  3.19375800E-03  2.66417253E-02  1.98176201E-03
 -4.94763391E-03 -4.29498012E-04  2.89855878E-03  3.06480665E-04  3.08367537E-05
  7.41486135E-05  1.40386938E-03  3.75894280E-04  1.36406444E-03  2.32620599E-04
  1.94892121E-03  1.17867961E-03 -9.74061930E-04  1.35513840E-04 -4.78502254E-04
  7.01854149E-04  5.42233906E-06  1.33725570E-04  5.52295286E-04  6.77904666E-04
  1.93478817E-04  1.46067432E-04  1.17213090E-03  1.58503074E-04  4.95462036E-04
  1.19639757E-03  5.57195492E-04  2.65624568E-03  5.14413025E-04  1.09452098E-03
  1.83069202E-03  2.78914309E-03  1.57552518E-03  1.92997640E-02  7.98739576E-03
 -7.76916690E-03  2.29797384E-03  2.77477606E-02  1.16502447E-02 -6.49622169E-03
  1.98039130E-03  2.35933344E-02  1.00378210E-02  8.68908733E-04  7.92196335E-05
  2.77625659E-03 -7.66498877E-04 -7.83018510E-05 -1.83414838E-04  3.74688929E-04
  6.15569981E-04 -3.40410986E-03 -5.78666322E-04  1.17691316E-03 -5.22132969E-04
  2.43071181E-03 -3.42811900E-04  7.01682561E-04 -1.94775351E-03 -1.39368074E-05
 -3.34268570E-04  6.78002084E-04 -8.69316824E-04  1.34688757E-03  3.31691236E-04
 -5.30996255E-04 -6.48459956E-05  1.45350388E-04  2.03006182E-03  2.35321133E-04
 -1.69250345E-04  4.55325330E-05  5.55404795E-04 -4.57073544E-03 -6.96393010E-03
 -3.93492945E-03  7.98875661E-03  2.54749389E-03  1.93988651E-02 -5.73935130E-03
  1.16521602E-02  3.31342011E-03  1.62192021E-02 -4.94566781E-03  1.00390807E-02
  2.54147127E-03 -2.17070713E-03 -1.97824854E-04  4.01445998E-04  1.93419901E-03
 -3.02195307E-04 -6.53139432E-04  5.01512315E-04 -9.95005227E-04  1.32460887E-03
  2.59803451E-03  7.23041632E-04 -1.43920623E-03  1.81355870E-03  1.20707897E-05
  1.43891249E-04 -2.90027551E-04  3.34218071E-04 -1.41660025E-04 -1.32480656E-08
 -5.82802868E-06 -1.35558030E-04  1.62007476E-04  7.75449987E-05 -1.83825551E-04
 -2.99784870E-05 -8.08816875E-05  4.32541961E-05  9.97841409E-05 -2.31039921E-04
 -5.35321896E-05 -1.24588188E-04  6.48541226E-05 -5.40005981E-05 -3.91295294E-06
  9.31156748E-06 -2.88353664E-03  6.12151035E-04 -1.69280162E-05  3.67149610E-05
 -4.21959699E-03 -9.25173564E-06  5.26219823E-05 -1.08692839E-04 -3.14467438E-03
 -5.27729253E-04  5.93258483E-05 -1.17441700E-04 -2.92617007E-05  6.37038305E-05
 -1.14678832E-04 -2.47850165E-04 -5.16646731E-04 -2.87404737E-04  6.78415232E-04
  9.85905950E-04 -8.08070360E-04 -4.17103436E-04  9.53627344E-04  4.10439338E-06
 -1.80145065E-04 -8.57538715E-05  1.82867371E-04 -5.37709684E-05 -8.82640972E-05
 -2.48254170E-06 -3.41644426E-05  8.44343120E-05 -3.33551611E-05 -8.90334854E-05
  1.20673949E-06  5.14612950E-05  1.11206809E-04 -1.86229147E-04 -1.07968645E-04
 -2.84597676E-05  1.26618739E-04  2.45791952E-05 -2.05376475E-05 -1.72480686E-03
  1.49618827E-04 -6.96018303E-04  2.32399506E-04 -2.49361772E-03  2.25327757E-04
 -1.02630581E-03 -3.31916672E-06 -2.03706633E-03  1.28353449E-04 -7.19990402E-04
 -2.00145319E-04 -1.72907168E-04 -2.43629275E-05  3.54737574E-05  1.52416707E-05
  2.62098765E-05  2.32724327E-04  5.03038045E-04 -2.87285454E-04 -8.20210735E-06
 -1.34992293E-03 -2.00108649E-03 -4.16994374E-04 -8.45730394E-05 -1.90219543E-03
 -9.17240016E-06 -8.54438550E-05 -3.94905037E-05 -3.67679907E-04  1.09115704E-04
 -2.47017265E-06 -1.01236307E-04  6.25680966E-05 -1.85234954E-04 -8.61787454E-05
  6.64523961E-05  9.88137891E-06 -1.07244095E-05 -2.33483818E-04 -1.03365721E-04
 -5.51708277E-05 -4.29190730E-05 -4.12415477E-05 -4.99736676E-05  4.15658739E-05
  1.49500979E-04 -1.95211162E-03  1.41331237E-03 -4.71443780E-04  2.25160034E-04
 -2.83490845E-03  2.08440149E-03  7.17837733E-06  1.28182094E-04 -2.24146099E-03
  1.45780438E-03  4.06429017E-04 -2.44056409E-05 -1.27193105E-04 -6.87873337E-05
 -3.18503434E-05 -1.26785747E-05  4.41025610E-05  3.53221822E-05  7.63027266E-05
 -2.38893079E-04 -2.21532243E-04 -2.54331496E-04 -3.03407514E-04 -3.44082665E-04
 -3.34856591E-04 -3.61943437E-04 -1.46477917E-06 -6.57276919E-05 -6.92220254E-05
 -7.07277374E-05  1.65435316E-05 -1.60858106E-06 -2.34537943E-05  6.47914389E-06
 -3.97431856E-05 -3.74670599E-05 -2.21968427E-05  3.48996905E-05 -1.41873443E-06
 -6.98694633E-05 -9.30714104E-05 -9.65441491E-05  1.84129484E-05  1.79900380E-06
 -7.57020434E-06  6.31047936E-06 -3.05766566E-04 -7.08869986E-04  1.13707102E-04
 -7.14996186E-05 -4.40965942E-04 -1.02665042E-03  1.70716964E-04  1.14157007E-06
 -3.63073310E-04 -8.24660103E-04  1.02272912E-04  6.16873530E-05 -4.82531204E-05
 -7.21985841E-05 -2.28606071E-05 -2.57374166E-06  2.97103297E-06  1.15805803E-05
  5.79516266E-06  4.59384433E-05  9.92559589E-05  1.51748777E-04  4.84772553E-05
 -2.87448585E-04 -3.94749802E-04  2.55444256E-04  4.52250269E-05 -4.17184384E-04
 -1.65791947E-06  6.46024849E-05 -9.53454116E-07 -8.59066294E-05  2.15308179E-05
  4.91677420E-05 -3.25377362E-05 -2.47544402E-06 -4.91202402E-05  2.18815891E-05
  1.61675344E-05 -2.81030535E-06  4.38919155E-07 -7.14065230E-05  7.72025301E-05
  3.68064410E-06 -4.86284521E-07 -1.13088260E-05 -9.84436577E-06  8.21862061E-06
  6.88430305E-04 -3.83273571E-04  1.49640549E-04 -9.30389467E-05  9.94318512E-04
 -5.55731609E-04  2.25354422E-04  1.36696062E-06  8.21567386E-04 -4.47771000E-04
  1.28390031E-04  8.01664256E-05  6.24505781E-05 -1.89521114E-05 -2.43739979E-05
 -4.24617963E-06 -9.44239630E-06  7.64798328E-06  3.13338162E-07  4.43946120E-06
 -3.32004608E-03 -4.42738137E-03  1.73816157E-03 -3.60595761E-03  4.70728414E-03
  1.07670375E-02  2.53670999E-03 -5.26558231E-03  5.92852911E-03 -9.93157611E-04
  4.69433253E-04 -9.86163164E-04  6.20478126E-04 -5.01696941E-04  7.75879920E-05
 -1.60723881E-04 -9.64342436E-04  7.29103242E-04  5.42440807E-04 -1.03046567E-03
 -2.34224901E-04 -2.14785964E-04  2.76645456E-04  7.45427705E-04 -1.37927702E-03
 -3.94976107E-04 -3.50401163E-04 -2.65359591E-03 -3.74084841E-03  1.90479388E-03
 -4.00262314E-03 -1.31667800E-02  8.91365591E-03  2.67099834E-03 -5.61749082E-03
 -1.93328792E-02  5.77664687E-03  2.55360209E-03 -5.36400375E-03 -1.50754724E-02
 -2.31029670E-03  4.86500778E-04 -9.96951576E-04  1.72712232E-05  2.66850917E-04
  5.20173767E-05 -1.05035871E-04 -3.46555329E-06 -4.74411203E-06  1.39002736E-03
 -1.25996129E-03 -1.68022640E-03 -1.90091812E-03 -1.25526679E-03  2.33797147E-03
  4.08645701E-03 -3.34426210E-03 -1.78962523E-03  3.18459784E-03 -3.79197573E-04
 -9.14203324E-04 -3.19880804E-04  4.74875086E-04 -1.90509748E-04 -7.91261180E-04
  3.91337646E-06 -1.77885719E-04  5.34116189E-04 -3.53225626E-04 -3.41732819E-04
 -2.47192669E-04  8.62233557E-05  7.32515998E-04 -1.09973398E-03 -4.31870091E-04
 -5.08896326E-04  3.54763406E-04 -1.00708692E-03 -1.41976925E-03 -1.31786493E-02
 -5.34378177E-04 -1.86135788E-03  3.38311331E-03 -1.90090759E-02 -7.12928527E-04
 -2.82051890E-03  2.19202870E-03 -1.61136587E-02 -8.44168711E-04 -1.87545018E-03
 -8.77119072E-04 -1.30149552E-03 -2.66526057E-04  3.44551526E-04  5.23199427E-05
  1.37878225E-04 -3.82779724E-05  1.91157661E-05 -5.28179628E-05  1.60162936E-04
  9.75518526E-04  2.55722443E-03  3.41001906E-03 -1.25417408E-03 -1.93916992E-04
 -4.83211354E-03 -8.29241698E-03 -1.78820323E-03 -9.28344634E-04 -6.59459754E-03
  7.65540101E-04 -3.17757792E-04 -5.09976805E-04 -9.94524885E-04  3.86430537E-04
  4.05051679E-06 -8.07130238E-04  3.57625081E-04 -1.02864573E-03 -3.44845562E-04
  2.83714374E-04 -1.44778428E-04  1.08782579E-04 -1.37666211E-03 -4.37140172E-04
 -2.19941110E-04 -4.75739818E-04  5.36831783E-05  2.04398378E-03  2.88145638E-03
 -5.34095152E-04 -1.27592613E-02  3.61422100E-03 -6.86593071E-03 -7.12482666E-04
 -1.84906724E-02  5.48945046E-03 -4.44980215E-03 -8.43950436E-04 -1.53503801E-02
  3.58967807E-03  1.77928300E-03 -2.66384735E-04 -9.20062712E-04 -7.10495687E-04
 -1.05101888E-04 -3.81592740E-05  1.97904526E-04  5.66019632E-05  3.48362804E-05
 -2.88648092E-04 -7.15468850E-05  1.14806149E-03  3.87431737E-04  5.16679028E-04
 -4.69849203E-04 -4.68934778E-04 -8.52766570E-04 -1.25660983E-03 -7.78065068E-04
 -9.10548253E-04 -1.20726329E-03  1.15617503E-04 -1.77286173E-04 -2.74076696E-04
 -2.04060237E-04  5.85538529E-05 -1.46187798E-04 -3.11126059E-04  7.52783472E-06
 -2.21639618E-04 -1.98275341E-04 -1.04346956E-04 -1.28304027E-04  4.75621980E-05
 -3.75104442E-04 -4.31691207E-04 -4.12391239E-04 -2.77465993E-04  7.99745950E-05
  3.09703956E-04  4.36557396E-04 -2.34183088E-03 -4.93968781E-03 -2.10130694E-04
 -1.04008901E-03 -3.36579880E-03 -7.13308668E-03 -2.59868419E-04 -6.73893591E-04
 -2.86936239E-03 -5.98937007E-03 -3.82255344E-04  2.69809912E-04 -2.95569611E-04
 -4.71980959E-04 -1.90531442E-04 -3.89073119E-06  1.74066658E-05  5.51777696E-05
  2.50055029E-05  2.08392162E-06  4.57556939E-05  1.51458501E-04  3.57390142E-04
  1.60462320E-04  5.04358261E-04  6.72634408E-04  9.43970196E-04 -2.04489041E-04
 -1.25508237E-03 -1.63608532E-03  1.61404087E-03 -4.33199843E-04 -1.78947557E-03
  1.51859574E-04  4.35328587E-04 -1.63556665E-04 -3.20772802E-04  7.62861075E-05
  3.24393699E-04 -1.66179380E-04  3.77470109E-06 -2.55157261E-04  1.23636873E-04
  7.47521236E-05  4.92265587E-05  2.02033137E-06 -4.13576785E-04  4.13723055E-04
  3.15018670E-07  8.29102658E-05 -3.21337630E-05  4.03166243E-04  5.68355836E-04
  5.60686586E-03 -2.81921791E-03 -5.34539430E-04 -1.35423949E-03  8.08547801E-03
 -4.08178457E-03 -7.13188439E-04 -8.77328505E-04  6.89054664E-03 -3.42944172E-03
 -8.44371313E-04  3.51263570E-04  5.44354532E-04 -2.02836646E-04 -2.66504472E-04
 -3.33008612E-06 -5.41256199E-05  3.60274477E-05  2.02564050E-06  2.73794034E-05
  9.49378500E-05 -3.93382120E-04  2.08465699E-04  1.41732516E-05  2.28052772E-04
  1.40948779E-03  1.63879750E-03  6.25851952E-03  8.27446995E-04  1.46427344E-03
 -2.14334072E-03  1.89638639E-03  2.50216129E-04  4.43975262E-04  3.65287922E-02
 -1.39212520E-02 -1.83611889E-03 -3.26050338E-03 -2.53300054E-03 -4.81472151E-04
 -6.39319199E-05 -1.12404182E-04  1.42639255E-03 -1.27342406E-03 -1.68326071E-04
 -2.67353273E-03 -7.19311490E-04 -2.94472443E-04  2.62834061E-04  3.47173496E-05
  5.51537939E-04  1.48345552E-04 -3.63146538E-04 -6.07185110E-04 -3.98172749E-03
 -9.50876087E-05 -1.89626613E-03  2.04054703E-03 -5.73081682E-03 -7.41227732E-05
 -2.86940903E-03 -1.06283944E-03 -4.04984961E-03 -5.43669666E-04 -9.29601795E-04
 -5.44616323E-03  3.07703308E-03 -4.76780468E-04  2.69597258E-03  4.93100278E-05
  3.85073665E-05 -2.80790292E-05 -1.00088131E-05 -2.01128619E-05  2.62641347E-04
  3.30219718E-04 -1.08466527E-04 -4.61553791E-05 -1.67405314E-04  6.33154336E-01
  2.04502532E-03  2.46438511E-03  9.79735515E-03  1.29532556E-03  2.29222819E-03
 -2.71578680E-03  4.39493271E-03  5.80184172E-04  1.02875109E-03  5.18580231E-02
 -1.86675305E-02 -2.46236497E-03 -4.37197970E-03 -3.80804659E-03 -6.62811997E-04
 -8.81013553E-05 -1.54668248E-04  2.35924958E-03 -2.10627107E-03 -2.78401290E-04
 -4.42211827E-03 -1.18976260E-03  1.33286506E-04 -1.19018017E-04 -1.58096160E-05
 -2.49991439E-04 -6.72427699E-05 -6.07200646E-04 -9.97519805E-04 -6.60723749E-03
 -1.53489379E-04 -3.15622834E-03  3.24876106E-03 -9.49358538E-03 -1.34140764E-04
 -4.72805194E-03 -1.54262489E-03 -6.99411395E-03 -8.91208816E-04 -1.71198406E-03
 -7.97291956E-03  4.26782104E-03 -7.49054741E-04  3.93571427E-03  8.92850651E-05
  5.25093164E-05 -5.02024289E-05 -2.90072343E-05 -3.37956094E-05  3.92323602E-04
  6.12925233E-04 -1.58661487E-04 -5.57254912E-06 -2.75324306E-04  5.70725668E-01
  5.32576476E-01 -2.11701837E-02 -3.35965573E-02 -7.49469686E-02 -1.19552744E-02
 -2.11540424E-02  1.04598002E-01 -1.03165032E-01 -1.76869131E-02 -3.13020251E-02
  1.27395699E-02 -2.36104209E-02 -4.23953077E-03 -7.48962678E-03 -6.71276336E-03
  1.02885359E-02 -1.92869648E-04 -3.41931198E-04 -5.21568982E-03  7.68533923E-03
  7.91244802E-04  1.03609968E-02  4.38978011E-03 -4.36970910E-03  1.08823273E-02
  1.91445227E-03  1.00701930E-02  6.17013514E-03  1.77344973E-03  2.95300955E-03
  1.59688102E-02  1.41652633E-03  1.04313206E-02 -9.82002146E-03  2.25081271E-02
  1.82479485E-03  1.54114751E-02 -3.34768850E-03  2.15050208E-02  3.16398985E-03
  9.66880182E-03  8.47371380E-03  1.17132131E-03  1.61738358E-03  4.95307876E-04
 -1.97787295E-04  2.63304284E-04  1.54723474E-04  1.88761137E-04  4.58370918E-08
 -1.59718409E-04  3.94179896E-04  5.79978493E-04 -1.43710875E-04 -2.28095418E-04
  9.11943168E-03  1.43404278E-02  1.50192453E-01 -2.79605812E-03 -4.43743706E-03
 -1.19469418E-02  1.38854955E-02 -2.79549869E-03  1.38146963E-02 -1.76779519E-02
  2.82811552E-02 -4.13593395E-03  1.68586025E-03 -4.22791866E-03  7.86861169E-03
 -9.82046050E-04 -8.86036422E-04 -1.92547301E-04  1.17264641E-02 -4.46180096E-05
  1.08124180E-03  7.91415231E-04 -1.81576525E-03  5.34220987E-03 -9.82630200E-03
  3.45913475E-04  1.91575429E-03 -5.23937021E-03  8.47438298E-03 -2.34647323E-02
 -1.29127929E-03 -2.14052001E-03 -3.18292700E-03 -6.72380594E-03 -8.35175659E-03
  6.86227514E-03 -4.53349504E-03 -9.70638244E-03 -1.26537084E-02  8.47500461E-03
 -7.68479562E-03 -6.98423634E-03 -1.10474565E-02 -2.98926371E-03  1.47759006E-03
 -6.32594454E-03  1.82710052E-04  1.14474554E-05 -2.36418559E-04 -3.18403090E-05
  1.27099257E-06 -8.40450237E-05  3.87701950E-04  8.19350687E-04 -6.62459673E-04
 -3.41320596E-04 -8.89319164E-04  1.20426258E-03  1.89369464E-03 -6.82803884E-03
  2.00999871E-01 -4.95495060E-03 -7.86332672E-03 -2.11595498E-02 -2.79823246E-03
  1.05207611E-02  2.44819057E-02 -3.13081737E-02 -4.13856092E-03  2.32942852E-02
  2.97786954E-03 -7.49878437E-03 -9.84119154E-04  6.65019766E-03 -1.57122560E-03
 -3.42353132E-04 -4.44598824E-05  1.16670561E-02 -6.08647988E-03 -8.50109798E-03
  9.20236188E-04  4.75080077E-03  7.91440141E-04 -1.13421383E-02 -2.09670004E-02
 -1.69936987E-03  8.05859793E-03  1.91386955E-03  3.82705964E-03  6.35103353E-03
  2.07140262E-02 -5.91602105E-03  1.44974509E-02 -2.05482272E-02  2.96264078E-02
 -9.28629930E-03  2.21688601E-02 -2.07196699E-02  3.39239547E-02 -5.30114927E-03
  1.97191117E-02  1.11741166E-02  8.06549013E-04  2.56332177E-04 -6.73884465E-03
 -1.12768625E-04  4.84809386E-04  1.29225605E-04  2.95757186E-04 -1.85289840E-04
 -1.98332488E-03 -1.72887037E-03  6.22007383E-04  5.37535433E-04  8.38060653E-04
  2.13470994E-03  3.35688343E-03 -1.21032920E-02 -1.59801743E-03  1.99064819E-01
 -2.96354224E-03 -3.47985671E-03 -2.58110895E-02 -3.41211052E-03 -6.03901391E-03
 -2.83536657E-03 -1.43539369E-02 -1.89433998E-03 -3.36010298E-03 -1.29274033E-01
  4.31138766E-02  5.68876997E-03  1.00962186E-02  1.07694984E-02  1.59716035E-03
  2.12628397E-04  3.72403018E-04 -7.12256956E-03  6.35886243E-03  8.40495481E-04
  1.33504949E-02  3.59197563E-03 -2.47222254E-03  2.20693067E-03  2.92091021E-04
  4.63237506E-03  1.24597240E-03  2.04090919E-03  3.24930382E-03  2.13626777E-02
  3.81631049E-04  1.04605947E-02 -9.91954485E-03  3.06639459E-02  3.31304480E-04
  1.54988923E-02  3.54544972E-03  2.36253378E-02  2.57284262E-03  6.76023840E-03
  2.05548004E-02 -1.02066493E-02  2.15765443E-03 -1.02322087E-02 -3.19742597E-04
 -1.55996821E-04  1.78414968E-04  1.24413450E-04  1.16301393E-04 -1.17004097E-03
 -2.25164566E-03  4.75862424E-04 -2.30707850E-04  8.97417171E-04 -1.46396693E-01
 -2.47948551E-01 -4.52971703E-02 -5.98177634E-03 -1.06034501E-02  7.76334889E-01
 -3.13273522E-02 -4.95067273E-02 -1.09898390E-01 -1.75415101E-02 -3.10374364E-02
  1.53285095E-01 -1.50880446E-01 -2.58644123E-02 -4.57730565E-02  1.67248450E-02
 -3.38437138E-02 -6.10112141E-03 -1.07775607E-02 -9.67842056E-03  1.51890901E-02
 -2.20680611E-04 -3.91529128E-04 -7.79234890E-03  1.13128969E-02  1.19643626E-03
  1.54600624E-02  6.45812687E-03 -6.54578039E-03  1.59063982E-02  2.82375021E-03
  1.49976229E-02  9.01540665E-03  2.70246755E-03  4.44948176E-03  2.45097019E-02
  2.24537953E-03  1.55312509E-02 -1.46125670E-02  3.45801972E-02  2.90868696E-03
  2.29528561E-02 -4.95051117E-03  3.28577429E-02  4.88264521E-03  1.43997721E-02
  1.28101822E-02  1.62036790E-03  2.41298963E-03  5.11337304E-04 -2.93899120E-04
  3.76368630E-04  2.26982230E-04  2.77466379E-04  3.66023441E-06 -2.62067322E-04
  4.79590579E-04  8.43838000E-04 -2.26997249E-04 -2.96987663E-04  9.51274119E-03
  1.59007639E-02  2.19117873E-01 -9.45435987E-03 -1.67595742E-02 -5.49589706E-02
  3.19858068E-01 -4.13769760E-03 -6.53898299E-03 -1.75288098E-02  2.04389707E-02
 -4.10148606E-03  2.02451706E-02 -2.58507147E-02  4.13354192E-02 -6.04786782E-03
  2.21349626E-03 -6.08415450E-03  1.14555053E-02 -1.41311877E-03 -1.27747944E-03
 -2.20301020E-04  1.68359914E-02 -5.09162743E-05  1.43980180E-03  1.19667315E-03
 -2.62953723E-03  7.70797231E-03 -1.41198842E-02  3.54403883E-04  2.82556378E-03
 -7.58113689E-03  1.22076535E-02 -3.38162258E-02 -1.82698550E-03 -3.03223054E-03
 -4.11389918E-03 -9.96714411E-03 -1.18477226E-02  9.74164408E-03 -5.85187974E-03
 -1.43900033E-02 -1.79524132E-02  1.21735362E-02 -1.05001275E-02 -1.03840892E-02
 -1.57443140E-02 -4.15037006E-03  2.14934372E-03 -9.12061310E-03  2.11316381E-04
  1.10963267E-05 -3.44470077E-04 -4.17034727E-05  2.28295864E-06 -1.18959328E-04
  5.41794767E-04  1.14786972E-03 -9.34962930E-04 -4.90864843E-04 -1.27065518E-03
  1.25610507E-03  2.09954635E-03 -9.45468746E-03  2.89470219E-01 -2.21241979E-03
 -7.25702808E-03 -1.30397848E-02  4.16890753E-01 -7.33219129E-03 -1.15870534E-02
 -3.10458659E-02 -4.10566347E-03  1.55018024E-02  3.58773940E-02 -4.57825010E-02
 -6.05192705E-03  3.40428328E-02  3.90899489E-03 -1.07909168E-02 -1.41618178E-03
  9.70216948E-03 -2.26538494E-03 -3.92072434E-04 -5.06570872E-05  1.67665467E-02
 -8.79969400E-03 -1.21595973E-02  1.24369368E-03  6.97163107E-03  1.19674969E-03
 -1.63745621E-02 -3.01620025E-02 -2.57025280E-03  1.17405808E-02  2.82289531E-03
  5.51721293E-03  9.13791597E-03  2.97475406E-02 -8.48013846E-03  2.04306252E-02
 -2.95263125E-02  4.25373793E-02 -1.33128716E-02  3.12718218E-02 -2.98370876E-02
  4.87909521E-02 -7.59656743E-03  2.78938031E-02  1.60680310E-02  1.09890037E-03
  3.50354396E-04 -9.73462068E-03 -1.54338507E-04  7.05808368E-04  1.79960686E-04
  4.27914683E-04 -2.68577281E-04 -2.82006941E-03 -2.47162800E-03  8.73909031E-04
  7.73489022E-04  1.19895677E-03  2.22683979E-03  3.72227319E-03 -1.67593253E-02
 -2.21232486E-03  2.86790638E-01 -1.28656619E-02 -2.31155591E-02 -3.05081466E-03
  4.13194737E-01 -4.56433262E-03 -3.17568488E-03 -2.15533765E-03 -2.87145429E-04
 -5.02722171E-04 -1.22302493E-02  1.58230829E-02  2.09074708E-03  3.70305577E-03
 -1.15465417E-01  4.18108692E-02  5.51790066E-03  9.78995629E-03  1.01308450E-02
  8.73386635E-04  1.17307957E-04  2.02863572E-04 -4.97248460E-03  4.43943082E-03
  5.86391059E-04  9.32270564E-03  2.50899721E-03 -1.52203852E-03  1.35783136E-03
  1.79045471E-04  2.85587913E-03  7.70412186E-04 -1.06390763E-03 -1.54505088E-03
  2.19616316E-02  3.21704634E-03  4.44165997E-03  3.55641280E-03  3.16168978E-02
  4.57633927E-03  6.51722269E-03  1.17941803E-02  2.40576064E-02  5.30348152E-03
  8.87320837E-04  1.59981897E-02 -8.18520756E-03  1.97719813E-03 -8.75720490E-03
 -1.39014797E-04 -2.67884649E-04  2.60908981E-05  2.03625298E-05  1.34182779E-04
 -4.89163717E-04 -2.41953802E-03 -1.54297562E-04 -3.88228170E-04  9.68623332E-04
 -1.48488768E-01 -2.30576257E-01 -6.26817105E-02 -8.27668620E-03 -1.46726814E-02
  6.54337292E-01 -8.20578545E-02 -1.08345964E-02 -1.92086372E-02  5.58948973E-01
 -2.66818841E-02 -4.01167290E-02 -7.81307870E-02 -1.24245411E-02 -2.19790260E-02
  1.16864186E-01 -1.06186948E-01 -1.84102414E-02 -3.25749315E-02  7.28846684E-03
 -2.32669756E-02 -4.30442211E-03 -7.60064915E-03 -6.93222860E-03  1.21055172E-02
 -3.31674236E-04 -5.88545130E-04 -5.86772200E-03  8.89061512E-03  7.23342175E-04
  1.16075043E-02  5.09716097E-03 -5.05555554E-03  1.27953972E-02  1.95050511E-03
  1.15440828E-02  7.28397629E-03  7.33358186E-04  1.38033246E-03  2.11698282E-02
  3.09680880E-03  9.64451665E-03 -5.70670872E-03  2.99465047E-02  4.27566583E-03
  1.42193017E-02  5.95073254E-04  2.77013184E-02  5.28819894E-03  8.36243322E-03
  9.72639066E-03  1.16069974E-03  2.01074268E-03  1.91923721E-04 -1.61768834E-04
  2.29588716E-04  1.14422555E-04  1.79868491E-04  2.60478103E-05  8.09588155E-05
  1.25813461E-04  3.84335073E-04 -2.81626536E-04 -1.40004004E-04 -1.45137538E-05
  3.46284273E-03  1.62463446E-01 -1.13743507E-02 -2.01587516E-02 -2.64988644E-02
  2.37381352E-01 -1.59154712E-02 -2.82068881E-02 -4.73029786E-02  1.77519534E-01
 -3.52406339E-03 -5.29845161E-03 -1.24126492E-02  1.41685629E-02 -2.90509005E-03
  1.54333610E-02 -1.83961649E-02  3.06089365E-02 -4.30470978E-03  9.65372731E-04
 -4.28905811E-03  8.68455077E-03 -9.95258852E-04 -9.14723567E-04 -3.31370698E-04
  1.45790476E-02 -7.69644511E-05  1.93401307E-03  7.23751527E-04 -2.02564590E-03
  6.69057728E-03 -1.18195041E-02  1.39759028E-03  1.95234681E-03 -5.93069342E-03
  1.06182500E-02 -2.77519060E-02 -1.53840529E-03 -2.63268383E-03 -7.75703152E-03
 -6.94339326E-03 -1.11818904E-02  8.67135579E-03 -1.11131752E-02 -1.00088355E-02
 -1.69159260E-02  1.01791421E-02 -1.41171533E-02 -7.28103391E-03 -1.44587927E-02
 -4.13434024E-03  1.23502790E-03 -7.55137123E-03  3.38501236E-04  4.02751970E-05
 -2.59440217E-04 -7.32567585E-05 -2.85954092E-06 -1.12680489E-04  5.73014468E-04
  1.23002855E-03 -8.68736064E-04 -4.07657650E-04 -1.12858646E-03 -3.46548063E-06
  4.55202006E-04 -1.13747264E-02  2.47090405E-01 -2.66304252E-03 -3.49479098E-03
 -1.59154543E-02  3.55794476E-01 -3.72573067E-03 -6.24022767E-03 -1.70716873E-02
  3.04531341E-01 -6.24494638E-03 -9.38945617E-03 -2.19865458E-02 -2.90887485E-03
  1.06773445E-02  2.73535956E-02 -3.25839401E-02 -4.30876977E-03  2.54239355E-02
  1.70208267E-03 -7.61289641E-03 -9.98228140E-04  7.44376999E-03 -1.62270970E-03
 -5.89008733E-04 -7.67597694E-05  1.44785229E-02 -7.40358219E-03 -1.03790110E-02
  1.75540192E-03  5.45880276E-03  7.24025160E-04 -1.37025638E-02 -2.49717383E-02
 -9.09747105E-04  9.36163669E-03  1.95104467E-03  3.82827306E-03  6.61791376E-03
  3.39115446E-02 -5.43396351E-03  2.00056955E-02 -2.24134714E-02  4.86259091E-02
 -8.76605007E-03  3.04156056E-02 -2.24398597E-02  5.17498658E-02 -4.18089405E-03
  2.63539783E-02  1.43978133E-02  1.92464126E-03  7.48578741E-04 -8.34571572E-03
 -1.78842081E-04  4.85941878E-04  1.69887810E-04  3.29461114E-04 -1.92307301E-04
 -2.52777245E-03 -2.75642931E-03  7.02250394E-04  5.12585768E-04  1.28779215E-03
 -2.27825231E-06  8.12080031E-04 -2.01588727E-02 -2.66288157E-03  2.43869731E-01
 -6.20625000E-03 -2.82074689E-02 -3.72566655E-03  3.51287933E-01 -1.10766783E-02
 -3.02548615E-02 -3.99755598E-03  2.99698483E-01  1.27585556E-04 -1.11217554E-03
  2.01180019E-02  2.66173856E-03  4.70532185E-03  7.14473738E-03  2.62781098E-02
  3.47522701E-03  6.14657495E-03 -9.66636945E-03  3.89064437E-03  5.12505726E-04
  9.11214032E-04  4.04313863E-04 -3.39245330E-03 -4.48500145E-04 -7.93706719E-04
  2.15996715E-03 -1.92891931E-03 -2.55278333E-04 -4.04845110E-03 -1.08874694E-03
  2.30219833E-03 -2.05632653E-03 -2.72877338E-04 -4.31185845E-03 -1.15838885E-03
 -5.44604789E-03 -7.97320640E-03 -1.14167767E-02  1.14276357E-03 -8.60120589E-03
  2.05565332E-02 -1.63766233E-02  1.91290474E-03 -1.29499205E-02  1.60060101E-02
 -1.47872741E-02  9.60092650E-04 -9.97822629E-03 -2.08746085E-03 -3.03479101E-04
 -2.30668063E-04  3.55846384E-04  2.31798641E-04  3.21304864E-05 -1.66095764E-04
 -7.87685268E-05 -3.61065364E-05  1.03070478E-03  7.38882156E-04 -7.52749814E-04
  1.43998390E-05 -2.58335934E-04  2.70622878E-03  3.50317059E-03 -3.01076929E-02
 -3.97926845E-03 -7.04527082E-03 -7.04916100E-03 -4.42860665E-02 -5.85312602E-03
 -1.03630694E-02  1.97200334E-04 -3.24169176E-02 -4.28429496E-03 -7.58615247E-03
  1.07183498E-02  8.10120876E-04  8.12633575E-05  5.00461566E-04 -1.38619299E-04
 -2.46776669E-04  3.60782533E-03 -8.78992020E-04 -4.35368607E-04 -7.71622311E-04
 -2.57375450E-03 -2.15651354E-03 -2.58562025E-04 -4.54829132E-04  1.41889027E-05
 -1.07194725E-03 -2.50227091E-04 -4.43094560E-04  7.50716818E-04 -3.50832257E-04
  1.03226720E-04 -1.25191808E-03 -2.08326823E-04  1.05046312E-03 -6.53017355E-05
  3.34105874E-04 -1.57956259E-03 -5.83365070E-05 -2.68774525E-03 -3.93812596E-03
 -6.82346291E-03 -6.15903237E-05  1.95578296E-05  1.02953935E-02 -9.83690927E-03
  6.73613588E-06 -1.70278760E-04  8.84821479E-03 -8.55757293E-03 -2.97860598E-05
 -3.87421634E-04 -3.98940453E-04 -1.19858226E-05  4.56724562E-05  4.94258571E-04
  1.66999119E-05  5.75997367E-05 -1.23963731E-05 -8.18991168E-06 -2.63595639E-05
  1.68466657E-04  5.96309205E-04 -9.75243928E-05  6.05537237E-05 -2.39152835E-04
  4.82675016E-03  7.35494479E-03  1.84981379E-04 -2.94471970E-03 -5.21724202E-03
 -2.04925117E-02 -1.32594774E-04 -4.29524893E-03 -7.60997262E-03 -1.71337660E-02
 -4.26842945E-04 -3.70036159E-03 -6.55621875E-03  2.29818560E-03  1.81650059E-03
  1.06689241E-04  1.04510638E-05 -1.38831125E-04  1.53512422E-03 -3.27650359E-05
  4.76440118E-04 -4.35482102E-04  2.35957467E-03 -1.02213461E-04 -3.39248266E-04
 -2.57313495E-04 -2.42301326E-04 -5.93336246E-05  1.94120625E-06 -2.50290228E-04
  7.88422389E-04 -5.85767366E-05 -2.65158580E-04  1.03364311E-04 -3.74759393E-04
 -9.78879048E-05 -1.17637103E-03 -6.47525500E-04  3.34850947E-04 -9.46327609E-04
  1.09308458E-04 -3.12614749E-03  7.21840916E-04  9.57174475E-04 -2.00658887E-04
 -5.28748743E-03 -3.04007226E-03 -2.10562449E-03 -2.55702387E-04 -7.63230065E-03
 -4.40717993E-03 -1.56552092E-03 -8.03926962E-04 -6.28954866E-03 -3.57868404E-03
 -2.10920542E-04  2.77674108E-04 -9.22630179E-04 -3.33674861E-04  4.07071710E-05
 -3.70974881E-05  3.41659530E-05  9.22702006E-06  2.98470537E-06  2.22861021E-04
  8.71275126E-05  2.26778740E-04  8.40495645E-05 -3.29142905E-05  6.38894990E-04
  9.73457104E-04 -2.94530497E-03  2.20852891E-02 -6.89153240E-04 -2.71191332E-03
 -4.29619100E-03  3.18116992E-02 -1.00520010E-03 -2.26740412E-03 -3.70132360E-03
  2.70934188E-02 -8.66167382E-04  3.03934165E-04 -1.47123070E-04  2.91273437E-03
  1.89693106E-04  1.90926999E-05 -2.46768343E-04 -3.28075129E-05  1.49707448E-03
  8.44501583E-04 -7.71620424E-04 -1.02272105E-04  2.23837539E-03 -6.02898842E-04
 -4.55659070E-04 -5.95058773E-05 -3.16989275E-04  3.30878523E-06 -4.43102950E-04
 -5.85315651E-05  7.17785298E-04 -1.80272718E-04 -1.12848712E-03 -5.70116029E-04
  1.21339421E-05  1.03470738E-04 -7.86536536E-04 -2.88890979E-03 -1.28933993E-03
  4.40594270E-04  3.34781701E-04 -3.03770579E-03 -4.22613308E-03  3.27442120E-04
 -2.96724958E-03  2.09943422E-04  1.01608440E-02  4.12156657E-04 -4.26936442E-03
  2.23710986E-04  8.18726154E-03  1.34008780E-03 -3.16962238E-03  9.87390930E-05
  2.60627448E-04 -2.51464560E-05 -4.56719192E-04 -1.29572134E-04  2.06753330E-05
  7.42494506E-05  2.14508820E-05  4.26747447E-05 -2.30463784E-05  1.24877084E-04
 -1.86989108E-05 -1.57291408E-06  1.27708814E-04  6.93589987E-05  1.12880843E-03
  1.72013478E-03 -5.21712555E-03 -6.88746477E-04  2.12565448E-02 -4.79298162E-03
 -7.60975366E-03 -1.00458066E-03  3.06028525E-02 -4.00729688E-03 -6.55568030E-03
 -8.65575791E-04  2.60520334E-02  5.37806318E-04 -2.61366105E-04 -3.43549706E-05
  2.87149442E-03  1.70648908E-04  3.68771078E-04  8.49027191E-04  4.30259564E-05
  5.04477955E-04 -1.46676236E-03  1.17007539E-03  6.91205891E-05  7.37615682E-04
 -6.11243845E-06  2.17730760E-04  1.94091592E-05  1.49513169E-04  7.99617609E-05
 -7.55746022E-05  7.38061608E-06  1.48588290E-05  7.66984549E-05 -9.15288747E-05
 -3.15379239E-05 -9.39130689E-05 -2.23136281E-05  4.92847511E-05 -1.56764749E-04
 -4.17509223E-05 -5.00476373E-05  6.55063162E-06 -2.76325940E-05 -5.88049804E-05
 -3.16374448E-04  1.50029659E-04 -2.17112772E-04  2.27079261E-04 -4.52759483E-04
  2.19673781E-04 -3.19976118E-04  5.18458069E-05 -3.79582544E-04  1.49247350E-04
 -1.84836449E-04 -1.69005586E-04 -3.02845772E-05 -7.46589226E-06  6.70756660E-06
  5.20738373E-06  4.66667250E-07 -5.90782793E-06 -2.12139495E-06 -1.12097247E-06
  6.43516631E-06  4.64481206E-06 -2.09645143E-05 -4.60245792E-07 -2.11378453E-06
 -3.64296030E-05  3.07098138E-05 -1.59247336E-03 -2.13063755E-04  3.36777092E-04
 -3.46035537E-04 -2.33284560E-03 -3.13286892E-04  4.78264271E-04  5.53517320E-06
 -1.72362637E-03 -2.20170516E-04  4.41082657E-04  2.97701663E-04 -2.27308788E-06
 -8.79300321E-06  8.15865010E-05  2.11662582E-05 -1.52365259E-04 -3.29248002E-04
 -9.56739817E-04 -1.26483098E-04  4.48311793E-04  1.30955289E-03 -1.34983706E-03
 -1.84965372E-04  7.15115366E-04  5.41450882E-06 -2.61002485E-04 -3.87895339E-05
  1.63360384E-04 -7.13906479E-05  4.14535024E-05 -2.84954550E-06  9.58946980E-05
 -8.01783972E-05 -1.87910992E-05 -4.99614635E-05  1.22933741E-04  4.78101555E-05
 -1.37793536E-04 -1.84582370E-04 -8.60790102E-05  1.40116324E-04  5.68212577E-05
  4.46847313E-05  6.43792949E-05 -4.93134428E-04 -5.61410353E-05 -2.45148623E-04
 -1.99766733E-04 -7.19407984E-04 -8.46088186E-05 -3.49780027E-04 -2.83261838E-04
 -4.91428554E-04 -7.23844463E-05 -2.17096336E-04  6.38359268E-05 -7.51029210E-05
 -1.66095951E-05 -6.85060946E-05  7.19767562E-06  1.78393205E-05 -5.07819029E-06
  5.11320191E-06 -6.05999358E-06  1.00600021E-05  5.03063217E-05 -8.81098832E-06
  1.19424322E-05 -2.12750973E-05  3.25102645E-05 -2.74425331E-05  9.29796331E-04
  6.96426980E-05  1.87027466E-03  3.09012989E-04  1.37279298E-03  1.04982942E-04
  2.70644381E-03 -4.81656406E-06  9.51202022E-04  5.87149828E-05  2.19611679E-03
 -2.65783327E-04 -5.33082326E-05 -1.04504895E-05  1.73969736E-04 -6.79145543E-06
  3.29085200E-05 -2.01379540E-05 -4.35142703E-05 -1.26492115E-04  1.25133784E-04
 -2.06118865E-05  1.73063660E-04 -1.85019992E-04  2.00444133E-04 -4.19522718E-06
  7.11936472E-07 -3.88599340E-05  4.71235572E-05  1.06821085E-05 -9.43391699E-06
 -2.85255920E-06  2.71352293E-05  3.27143468E-05 -2.08599782E-05 -4.65658034E-06
  1.64080535E-05  1.79058339E-05 -2.17863341E-05 -2.39258467E-05 -1.04111375E-05
  2.32467930E-05  2.56685767E-05 -6.32420156E-05  1.30812636E-05  2.90319729E-05
  5.86739477E-05  8.20584797E-05  1.37720934E-04 -1.14202956E-04  8.52301299E-05
  1.16004374E-04  2.02696580E-04 -7.60479365E-05  6.94492546E-05  1.05815703E-04
  1.58882247E-04  4.82704896E-05  9.70734158E-06  4.66721174E-06 -1.42109617E-05
 -2.81954910E-06 -6.20289692E-07 -1.24506595E-07 -2.82402874E-07 -5.61034073E-07
 -1.69087743E-05 -3.71265379E-06 -3.17375989E-06 -3.51618532E-06 -2.94691613E-06
  4.30421338E-06 -3.61327611E-06  6.96404941E-05  4.17488646E-04  2.44012811E-04
  4.07967365E-05  1.04973599E-04  6.02682153E-04  3.51704992E-04 -6.92346747E-07
  5.87198259E-05  4.99109878E-04  2.98834545E-04 -3.51285980E-05 -1.04462855E-05
  4.17596562E-05  1.31692085E-05 -1.57634450E-06  3.14602976E-06  1.84687378E-06
 -3.19832136E-04 -6.91165177E-04 -1.63762694E-03 -4.47162293E-04 -5.40887826E-04
  2.74910971E-03 -2.26764218E-03 -6.40808054E-04 -7.75110142E-04  1.14618731E-05
 -4.25869546E-04 -1.25117041E-04 -1.53951155E-04 -1.49873921E-04  1.31129196E-04
  3.93451343E-06  7.16163372E-06 -8.83146487E-05  1.13935938E-04  3.66890014E-05
  2.24505301E-04  7.89906863E-05 -4.06745874E-05  1.25149615E-04  5.70616235E-05
  1.66652121E-04  1.23010642E-04  4.77968700E-05  8.22156435E-05  1.73890416E-05
  1.61046640E-05  1.61745490E-04 -2.86161744E-04  1.43616517E-05  1.80386898E-05
  2.38876633E-04 -1.22903311E-04  7.91319303E-05  5.54395886E-05  1.32476121E-04
  2.22179645E-04 -2.02997670E-05  3.18542523E-05 -1.06527060E-05 -2.27091303E-06
  1.09133467E-05  3.45580527E-06  5.50572693E-06 -2.13205570E-06  3.17955157E-06
  3.17745003E-05  1.21036884E-05  3.70663197E-06 -1.03757524E-05  6.82768688E-05
 -5.75734312E-05  2.84165989E-03 -8.80981113E-05  2.56116612E-04  6.48639941E-04
  4.16613852E-03 -1.19315980E-04  3.85000779E-04 -1.02410407E-05  3.05786002E-03
 -1.42888430E-04  2.25993708E-04 -5.57984737E-04 -1.04630096E-05 -5.87406100E-05
 -4.75390105E-05 -3.34888726E-05  2.41320915E-05  2.02739295E-06  6.29850688E-05
 -8.60103641E-05 -1.85899627E-04 -5.42185918E-04  6.15508381E-04 -1.26445226E-04
  7.39467246E-04 -7.64682495E-04  9.56380529E-04 -1.84956762E-04  3.05964553E-06
 -1.47693171E-04  2.12423370E-04 -3.87048480E-05 -4.03109306E-05  2.38654283E-05
  9.56864713E-05 -2.85296567E-06 -6.58446050E-05  4.80668509E-05 -3.25152519E-05
  5.62889845E-05 -6.80450209E-05 -6.62300576E-05  5.73170771E-05 -8.11815979E-05
  8.51437621E-05 -2.45680278E-04  1.35814137E-06  7.51269970E-06  2.45983277E-04
 -1.78638534E-05  1.62488754E-04 -3.61729612E-05  3.53296108E-04 -2.67719758E-05
  2.34731524E-04  8.10737855E-05  2.73156530E-04  1.43626843E-05  1.35456531E-04
  7.58632383E-05  4.13661062E-05 -4.87241500E-05 -3.52539457E-06 -6.86402974E-06
 -3.12236284E-06  1.19464801E-06 -6.62268924E-08 -6.50357340E-07 -2.05827670E-05
 -7.61382272E-06 -1.07765235E-05 -8.14075521E-06 -1.02061630E-05  1.83829164E-05
 -1.54614478E-05  5.24882633E-04  1.78683475E-03  6.96200721E-05  1.74416043E-04
  7.74915576E-04  2.58088472E-03  1.04948698E-04 -2.85519864E-06  5.37189820E-04
  2.12362604E-03  5.86833613E-05 -1.50078941E-04 -3.03211119E-05  1.88332144E-04
 -1.04435866E-05 -9.90169574E-06  6.34958577E-06  5.60722071E-06  1.00431101E-05
  2.56452470E-05  1.87363443E-03  2.49806705E-03  2.98258685E-03  6.24111732E-04
  1.70238258E-03 -6.07317678E-03  3.83221178E-03  8.52090942E-04  2.59451804E-03
  5.62464051E-04  4.45782060E-04  1.46151616E-04  5.34351171E-04  2.82913593E-04
 -5.13996473E-04 -5.84813178E-05  2.14999656E-04  2.24912765E-04 -5.27206724E-04
 -1.73674411E-05 -5.51166519E-04 -1.15486490E-04  1.03164664E-04 -8.79359493E-04
 -1.68660893E-05 -4.31808748E-04 -4.24485522E-05 -1.26033355E-04 -1.34563574E-04
 -1.22692214E-03  6.01414759E-05 -3.95644414E-05  1.97579096E-04 -1.74910752E-03
  8.85091528E-05 -4.95342237E-05 -2.89618907E-04 -1.38931976E-03 -4.11861366E-05
  1.91562280E-04 -4.54770169E-04 -2.25794574E-05 -2.64387000E-05 -2.43478680E-05
  1.50753031E-06  6.16657904E-06 -9.58889821E-06 -5.75736870E-06 -7.08386023E-06
 -6.15520455E-05  1.43520507E-05 -1.36161504E-05  2.11161656E-05 -2.19711983E-06
  1.49641792E-03  2.10945250E-03 -6.84272789E-03 -4.89455816E-04  4.02541541E-03
 -5.02614925E-03 -1.00754524E-02 -7.35544784E-04  5.74701915E-03 -3.25445825E-03
 -7.75071216E-03 -4.73241721E-04  5.09130896E-03  1.30183497E-03  1.19074511E-04
  4.49853330E-05  6.31938023E-04  8.72567209E-05 -1.13509166E-05 -1.13393352E-06
 -1.35516143E-04 -3.46959435E-05  4.55861589E-04 -1.67306810E-03 -2.23076926E-03
 -3.40641535E-03 -6.04564394E-04  1.68199602E-03  5.42386271E-03 -4.66942597E-03
 -8.63310364E-04  3.07184837E-03 -5.02604146E-04 -7.14696937E-04 -1.56271529E-04
  8.87690947E-04 -2.52666723E-04  2.24221000E-04  9.49888716E-07  8.39880341E-04
 -5.41597140E-04 -2.67115817E-04  6.16475029E-05  6.44540451E-04  1.56593755E-04
 -9.02326344E-04 -1.05714249E-03  3.44003412E-05  7.88344390E-04  1.91492526E-04
  3.61106246E-04  6.54810242E-04  2.07182356E-03  7.28445161E-04 -1.49610361E-04
 -2.36035751E-03  2.95370272E-03  1.00092135E-03 -1.34543820E-04 -2.43594575E-03
  3.20569369E-03  9.18975845E-04  1.53541164E-04  8.55433744E-04  5.98875528E-05
  1.48893224E-04 -6.07519898E-04  1.75803058E-05  4.93066837E-05 -2.04534208E-05
  1.71631212E-05 -1.80176704E-05 -5.66725601E-05 -1.04431446E-04 -6.05918958E-05
 -1.27650163E-06  3.80829611E-05 -1.33613124E-03 -1.88352956E-03  2.12077634E-03
 -2.88575502E-04  1.38628116E-02  4.48791725E-03  3.25072928E-03 -3.89231237E-04
  2.00131801E-02  2.90577001E-03  2.01687453E-03 -4.45692494E-04  1.69001125E-02
 -1.16255092E-03 -5.31667564E-04 -1.26207653E-04  1.30157037E-03 -1.08462140E-05
  1.65812699E-04  2.06483914E-05  8.48733970E-05  1.80569086E-05  9.92832334E-05
  1.11787954E-03 -2.21001717E-04 -2.94645301E-04 -6.03802864E-04  6.15102497E-04
  4.86897859E-04  7.16278952E-04 -8.62480612E-04  1.03926353E-03  8.03954395E-04
 -6.63846939E-05 -1.56442949E-04  2.71672924E-04  2.17399916E-04 -3.33588479E-05
  8.36340330E-07  1.98549595E-04  1.21927029E-04 -3.08522428E-05  4.35395798E-06
  1.31600140E-05  1.22828266E-04 -1.09983027E-04 -3.82821500E-05 -5.63127214E-05
  4.44228248E-05  1.96812460E-04 -3.15463412E-04  9.96509061E-05  1.23472580E-04
  7.46329883E-04  6.23343177E-04 -8.47263908E-05 -2.56483479E-04  1.07165675E-03
  8.95743523E-04 -1.19418738E-04 -2.61249629E-04  9.67014600E-04  7.30095746E-04
 -7.59214911E-05  4.19767660E-05  1.06078355E-04 -1.04879177E-05 -7.19734822E-05
 -2.50860388E-06  4.14218997E-07 -1.30503010E-05 -3.52734813E-06 -4.41812799E-06
 -2.14553758E-05 -3.53161976E-05 -6.45857588E-05 -2.95986984E-05 -3.33644798E-06
 -1.76536705E-04 -2.48853854E-04 -2.88689935E-04  3.41860129E-03  2.31049195E-03
  5.92925040E-04 -3.89417119E-04  4.92690805E-03  3.33216730E-03  3.83902248E-04
 -4.45820844E-04  4.20428542E-03  2.86913672E-03 -1.53642730E-04 -1.26138562E-04
  3.46674612E-04  2.05641471E-04 -6.58679530E-07  2.26590083E-05  1.12008396E-05
  2.42584541E-06  3.32735016E-05  3.98940611E-05  1.77330392E-04  1.01567100E-04
 -3.51219252E-03 -4.68284007E-03 -5.84660195E-03 -1.32479475E-03 -2.01013709E-03
  1.13852576E-02 -7.60591353E-03 -1.95733129E-03 -2.85357747E-03 -1.05478396E-03
 -9.42600718E-04 -3.67195379E-04 -4.92313226E-04 -5.30371031E-04  8.93425300E-04
 -9.63410018E-05  1.28784088E-05 -5.58227583E-04  6.55756039E-04  9.90620515E-05
  1.04304695E-03  4.81936782E-04 -4.43021488E-04  8.06162163E-04  1.59409484E-04
  8.94414970E-04  7.29482705E-04  2.45250434E-04  3.89414883E-04  1.73000494E-03
  1.10765694E-04  4.52736876E-04 -1.25582999E-03  2.44979665E-03  1.39724556E-04
  6.86242859E-04 -5.37287094E-04  2.27066016E-03  2.65304977E-04  2.80245033E-04
  1.12879561E-03 -1.09045150E-04  1.90014234E-04 -1.76339645E-04 -3.44624000E-06
  2.14156046E-05  7.72498566E-06  1.69422463E-05  2.79133908E-06  4.13410924E-05
 -1.42358160E-05  2.99437299E-05 -1.37566141E-05  1.31616956E-05 -2.80502059E-03
 -3.95419298E-03  1.15915909E-02 -1.94918293E-03 -6.48902226E-04  9.42173339E-03
  1.71077569E-02 -2.75408036E-03 -8.38061470E-04  6.10081083E-03  1.30035727E-02
 -2.53429474E-03 -1.09372684E-03 -2.44018279E-03 -3.52365221E-04 -4.27260029E-04
 -4.39092501E-04 -1.35270437E-04  8.44807304E-05  3.25723824E-06  2.47988631E-04
  3.13944778E-05 -6.50927531E-04  2.90691813E-04 -3.33729192E-05  1.15502939E-03
 -9.44560799E-04 -1.25925914E-03 -1.91668322E-03  2.36054243E-03 -6.03789733E-04
  3.06099237E-03 -2.62659893E-03  4.03805144E-03 -8.62413861E-04 -2.83767442E-04
 -4.00491829E-04  1.05951376E-03 -1.55628131E-04 -1.42550490E-04  1.26879560E-04
  8.37351399E-04  9.20500974E-07 -6.03294585E-05  1.56145750E-04 -9.63833537E-05
  5.10534169E-04 -4.82576557E-04  4.44628198E-05  1.90913220E-04 -2.94106885E-04
  7.74461890E-04 -1.33939699E-03 -5.93013529E-05 -1.28830976E-04 -3.47442055E-04
  2.75375419E-04  5.90923614E-04  5.17271861E-04 -5.03961365E-04  3.98174536E-04
  8.24393111E-04  9.14222956E-04 -6.78162846E-04  4.19971133E-04  4.35303878E-04
  1.56333656E-04 -9.15286549E-06 -3.36602359E-04  4.53340553E-05 -2.93860668E-05
 -1.39444793E-05 -6.96504482E-06 -2.84411149E-06 -7.63194204E-06 -7.88388967E-05
  5.88467481E-05 -8.85764607E-05 -4.89239026E-05 -8.53913745E-05 -7.54527876E-04
 -1.06363304E-03  1.20880788E-03  1.41234796E-02 -2.88668388E-04  2.53432628E-03
  1.85176365E-03  2.03570745E-02 -3.89350750E-04  1.64138770E-03  1.15404604E-03
  1.73216845E-02 -4.45847012E-04 -6.56236814E-04 -2.99239962E-04  1.44724007E-03
 -1.26088784E-04 -3.66255660E-05  1.80710444E-05  3.28015271E-05  3.04008126E-05
  1.43666775E-04 -1.39831463E-04  2.28949579E-05  2.52157457E-04  5.41916728E-05
  1.07465670E-03  1.40640269E-03  1.63468782E-03 -3.65975250E-03  3.11772999E-03
  4.33137482E-03 -2.13803088E-03 -1.10806914E-03  9.43650351E-04  1.31112385E-03
  3.65077309E-02  8.15518239E-03 -6.93604756E-03 -9.64327292E-03 -2.53283272E-03
  2.81173105E-04 -2.40520862E-04 -3.33979759E-04 -5.79017305E-04  2.20795538E-03
 -1.88045317E-03 -2.56021797E-04  1.58926609E-03  1.19228217E-04 -4.54968762E-04
  3.88172936E-04  5.32542693E-05 -3.28066100E-04 -3.63655102E-04 -6.08017703E-04
  2.01509381E-03 -1.48152077E-03 -3.63560980E-03  2.04324999E-03  2.85407038E-03
 -2.05844581E-03 -5.35924854E-03 -1.06087473E-03  2.37669070E-03 -2.03050554E-03
 -2.79508434E-03 -5.45279605E-03 -1.15401111E-03  5.01309676E-04  3.92426908E-03
  6.27899078E-05  1.16065412E-05 -3.11364521E-05 -3.09792149E-06  1.19728722E-05
  4.30209775E-04  5.06933769E-06 -1.20102704E-04 -1.28045395E-06  1.44314297E-04
 -3.63389006E-04 -6.07595594E-04  3.28494850E-03 -1.74643436E-03 -2.37209012E-03
  2.04210783E-03  4.86631656E-03 -2.47841108E-03 -3.35752863E-03 -1.06321032E-03
  2.35367961E-03 -2.02680512E-03 -2.81542711E-03 -5.44918130E-03 -3.75530339E-03
  1.04308918E-03  1.33848697E-03 -3.87844954E-05  1.20786398E-05 -1.32168484E-05
  5.79861879E-05  5.18364099E-06 -2.66572448E-04 -2.03266607E-05 -1.33928674E-04
  3.59991833E-04 -3.33866689E-05  6.33154750E-01  2.04017345E-03  2.45777619E-03
 -5.72858274E-03  4.88020586E-03  6.77993782E-03 -2.70591336E-03 -2.56907487E-03
  2.18809622E-03  3.04010207E-03  5.18297691E-02  1.09360154E-02 -9.30145219E-03
 -1.29320839E-02 -3.80754645E-03  3.87048467E-04 -3.31348028E-04 -4.60019284E-04
 -9.57746904E-04  3.65213247E-03 -3.11044802E-03 -4.23494975E-04  2.62877471E-03
 -5.45798345E-05  2.07746920E-04 -1.75671208E-04 -2.33359304E-05  1.48526574E-04
 -6.08018983E-04 -9.98875482E-04  3.34056351E-03 -2.45328449E-03 -6.04136230E-03
  3.25320863E-03  4.73623916E-03 -3.42328110E-03 -8.85501429E-03 -1.53912082E-03
  4.06977857E-03 -3.45062428E-03 -4.92288872E-03 -7.98184682E-03 -1.53630129E-03
  5.92868318E-04  5.62069933E-03  9.80891294E-05  3.23334633E-05 -6.31322141E-05
 -7.15500693E-06  2.28058554E-05  7.48165856E-04 -6.67527498E-05 -1.33010999E-04
  9.50832263E-06  2.22838657E-04 -6.07581980E-04 -9.98169232E-04  5.46030197E-03
 -2.89552114E-03 -3.93225259E-03  3.25126313E-03  8.03618110E-03 -4.11203232E-03
 -5.57223154E-03 -1.54353038E-03  4.16964754E-03 -3.47327556E-03 -4.81910130E-03
 -7.97740709E-03 -5.40271283E-03  1.39792964E-03  1.77758028E-03 -6.46308560E-05
  3.45869965E-05 -2.71589266E-05  9.37387787E-05  1.89582848E-05 -4.40401357E-04
 -1.17481077E-04 -1.92488484E-04  6.10744972E-04 -1.14992838E-04  5.70726165E-01
  5.32577057E-01  1.23931520E-02  1.96685698E-02 -1.55627143E-02  2.64078639E-02
  3.66856674E-02 -6.12366958E-02 -1.52913058E-02  3.90855526E-02  5.42957736E-02
 -7.47361805E-03 -2.55510529E-03  9.39123992E-03  1.30212341E-02  3.93273968E-03
  1.12494344E-02  4.28459039E-04  5.93635426E-04 -6.44766057E-03  3.59357741E-03
 -7.61253332E-03  6.26980198E-03  2.41712480E-03 -1.28852253E-02  1.17106265E-04
 -1.38070553E-02  1.31705771E-02 -5.48596720E-06  7.71387755E-05  1.21410231E-04
 -2.60264632E-03 -6.87771490E-03 -4.01246690E-03 -2.16309666E-04 -4.00738933E-03
 -1.00142285E-02 -5.51274127E-03 -4.56536316E-03 -2.49632260E-03 -7.86397953E-03
 -1.70270900E-03 -1.96461066E-03 -3.48573483E-03 -2.83660663E-03 -2.69081561E-03
  4.66552620E-05  3.27931314E-05 -1.32596231E-04  1.08146728E-04  1.03961505E-05
 -9.73071161E-04 -3.47398099E-04 -2.47989645E-04 -2.24774095E-05 -6.27173165E-04
 -4.40980439E-03 -7.32178582E-03  2.80298514E-02 -9.59242087E-03 -1.21687202E-02
  2.37852117E-02  4.16642244E-02 -1.32373009E-02 -1.66230928E-02  2.16755878E-02
  3.82248424E-02 -1.67267284E-02 -2.19799167E-02 -1.40272184E-02 -5.30215523E-03
 -1.97336258E-03 -2.78262980E-03  1.45590167E-04  5.71554374E-04  1.68894015E-05
 -1.92888759E-04  4.10229749E-04 -1.55208504E-03  4.07843386E-04 -6.94982089E-04
  2.20008927E-03  1.86529010E-04 -5.34030082E-03 -8.39793540E-03  1.84154067E-01
 -1.05537608E-02 -1.67493048E-02  2.64009062E-02 -7.04898805E-03 -3.12464084E-02
  5.21473219E-02  3.90760370E-02 -2.69131102E-03 -4.62452517E-02  6.36854043E-03
  9.37228849E-03  5.05054243E-04 -1.11116929E-02 -3.34771427E-03  4.25950502E-04
  1.13941028E-02 -5.04914450E-04  6.18760831E-03 -7.61241756E-03  2.45770413E-05
  7.22052948E-03 -1.10234458E-03  1.13263036E-02 -1.38118827E-02 -4.91034006E-03
  1.44729805E-02  3.58920712E-03 -8.97873674E-04 -1.48378127E-03 -5.41208042E-03
 -3.29915690E-03 -3.11071751E-03  4.63413870E-03 -7.98903378E-03 -4.75412342E-03
 -5.02184450E-03  8.77282357E-03 -4.40437105E-03 -3.90979547E-03 -7.75759077E-03
 -5.29211598E-04 -2.79274714E-03 -4.06048007E-03  2.45250352E-03 -1.45373181E-04
 -4.76101893E-06 -3.11883317E-05  1.09149534E-04 -3.56721440E-05  1.22727639E-03
 -3.11016574E-04 -6.66645348E-04  4.43112573E-05  9.04926404E-04  3.37107211E-05
  6.15293594E-05 -3.02149472E-03 -4.55279602E-03  7.29112420E-03 -3.47967464E-04
 -4.15247989E-03 -6.85106590E-03  1.05380072E-02  3.31561560E-03 -1.21555952E-03
 -4.49115842E-03  8.04066751E-03  1.94385021E-03 -1.77128230E-03 -4.37610749E-03
  3.12655380E-03  1.52939075E-04 -1.00008416E-04 -3.10470932E-05  1.67277315E-05
 -1.34059475E-05 -4.14260075E-04 -5.15674122E-04 -5.29758210E-04  5.29644815E-04
  3.61600284E-04  4.54632406E-03  7.14929481E-03  1.51115827E-02  1.89035975E-01
 -1.46646000E-02 -2.32731540E-02  3.66801438E-02 -3.12499348E-02 -2.79674697E-02
  7.24571680E-02  5.42874700E-02 -4.62493787E-02 -3.36531667E-02  8.86812442E-03
  1.30016431E-02 -1.11161717E-02 -6.93671632E-03 -4.65069469E-03  5.91736467E-04
 -5.06317777E-04  1.10543355E-02 -6.09475283E-03 -6.00066364E-03  5.91280270E-03
  1.78346221E-03 -7.61241295E-03 -1.49507318E-02 -5.55594368E-03  5.14058751E-03
  2.51723401E-03 -1.38087591E-02  4.31987128E-03  7.17358723E-03 -1.17741098E-02
  5.24540308E-03  2.96488097E-02 -2.33360697E-02 -1.62398064E-02  6.52784603E-03
  4.37403257E-02 -2.04190376E-02 -2.00356053E-02  1.19776924E-02  4.06811352E-02
  1.41483195E-02 -2.92177373E-03  2.71619922E-03 -4.33041143E-03  3.72477995E-04
 -4.78303187E-04  3.98700472E-04  1.09229847E-04  1.12658652E-04 -2.24428210E-03
 -5.16728626E-04  1.06014646E-03  1.11480523E-04 -4.98620956E-04 -1.43322478E-04
 -2.30007554E-04 -2.71124942E-03  7.00515072E-03  2.64810695E-04  5.34893499E-04
 -3.54848795E-03  1.01424448E-02  1.60377336E-04  5.70835980E-03  3.45805720E-04
  7.36522203E-03  5.09208365E-04  2.17884391E-03 -2.49866815E-03  3.11690525E-03
 -2.21738318E-03 -2.31826438E-05 -5.94460290E-05  6.20677511E-05 -1.33215951E-04
 -7.38079737E-05 -8.24083690E-04  1.57510212E-05 -7.47305840E-04  7.01546774E-04
 -5.29645491E-04  6.31705046E-03  9.93385590E-03  2.09981747E-02 -1.78774059E-02
  1.77061051E-01 -2.95120613E-03 -3.46201057E-03  1.50867035E-02 -1.28529588E-02
 -1.78564092E-02 -2.86681934E-03  8.38763854E-03 -7.14458239E-03 -9.92685855E-03
 -1.29211168E-01 -2.52591130E-02  2.14866824E-02  2.98727182E-02  1.07670840E-02
 -9.32033218E-04  7.99179912E-04  1.10915866E-03  2.89140403E-03 -1.10260510E-02
  9.39063695E-03  1.27863460E-03 -7.93642537E-03  1.00440746E-03 -3.83039295E-03
  3.25791379E-03  4.42265269E-04 -2.75385948E-03  2.04328494E-03  3.25326008E-03
 -1.07147317E-02  7.79598090E-03  1.97613123E-02 -9.93261893E-03 -1.52205333E-02
  1.09357284E-02  2.88032199E-02  3.53443371E-03 -1.34251775E-02  1.11409522E-02
  1.75076704E-02  2.05748631E-02  3.40589171E-03 -9.90596102E-04 -1.41842055E-02
 -3.22223473E-04 -1.36954781E-04  2.38639809E-04  2.84846182E-05 -8.40580605E-05
 -2.61060966E-03  4.70346262E-04  2.31264106E-04 -6.75263849E-05 -6.61868918E-04
  2.04179605E-03  3.25079367E-03 -1.79041080E-02  9.29631572E-03  1.26091730E-02
 -9.92557591E-03 -2.61770427E-02  1.32230595E-02  1.79046525E-02  3.55047594E-03
 -1.50457034E-02  1.14848684E-02  1.58821294E-02  2.05659657E-02  1.37309180E-02
 -3.13970558E-03 -3.92221029E-03  2.21104193E-04 -1.47531389E-04  1.03605105E-04
 -3.14607285E-04 -8.57008031E-05  1.45659112E-03  6.61377708E-04  5.19538573E-04
 -2.08950504E-03  5.76339659E-04 -1.46397580E-01 -2.47949136E-01  2.65298171E-02
 -2.25847194E-02 -3.13811027E-02  7.76331249E-01  1.83379843E-02  2.89817753E-02
 -2.27678410E-02  3.87466229E-02  5.38263418E-02 -8.97398568E-02 -2.23816043E-02
  5.71558647E-02  7.93979024E-02 -9.81480443E-03 -3.54475896E-03  1.35147435E-02
  1.87380622E-02  5.67027449E-03  1.62891361E-02  4.90863903E-04  6.79621565E-04
 -9.33780440E-03  5.40271801E-03 -1.12255954E-02  8.93520790E-03  3.65245741E-03
 -1.86251658E-02  3.50000407E-04 -2.01685398E-02  1.88836129E-02  1.33234486E-04
  1.45625835E-05  4.15249691E-05 -3.36876869E-03 -1.04744826E-02 -6.71961593E-03
  2.28149935E-05 -5.23399883E-03 -1.52266713E-02 -9.30990425E-03 -6.48723274E-03
 -3.08655773E-03 -1.20887814E-02 -3.50867991E-03 -3.23936884E-03 -5.01233797E-03
 -4.15781172E-03 -3.75247603E-03  7.61075273E-05  5.10667580E-05 -1.96963096E-04
  1.54913677E-04  1.69724764E-05 -1.32520232E-03 -5.12504027E-04 -3.58284597E-04
 -2.49312188E-05 -8.90181039E-04 -6.40881747E-03 -1.06055782E-02  4.03000923E-02
 -1.41165525E-02 -1.79489359E-02  3.43552866E-02  5.99008085E-02 -1.94917481E-02
 -2.45409801E-02  3.12594643E-02  5.49762445E-02 -2.44889593E-02 -3.22166598E-02
 -2.03920393E-02 -7.76174411E-03 -2.81746761E-03 -3.97596630E-03  2.13431849E-04
  8.24451967E-04  2.13231958E-05 -2.86447694E-04  5.92286881E-04 -2.23096330E-03
  5.61619615E-04 -1.00642918E-03  3.15563178E-03  2.51373388E-04 -5.57141324E-03
 -9.31284116E-03  2.66139848E-01  2.09231969E-02  2.90735849E-02  3.21920562E-02
  3.84706183E-01 -1.56163569E-02 -2.46802524E-02  3.87359488E-02 -1.02760900E-02
 -4.58455666E-02  7.64194699E-02  5.71413239E-02 -3.95606064E-03 -6.76253496E-02
  8.36428528E-03  1.34870026E-02  8.58693998E-04 -1.59904266E-02 -4.82678308E-03
  4.87380588E-04  1.64568938E-02 -5.77877761E-04  8.92394649E-03 -1.12253518E-02
  2.28871407E-04  1.03739939E-02 -1.70191794E-03  1.63265563E-02 -2.01755187E-02
 -6.91225359E-03  2.08303410E-02  5.10189321E-03 -1.20331325E-03 -2.00943095E-03
 -8.44800662E-03 -4.53544789E-03 -3.56192085E-03  6.34494585E-03 -1.24363039E-02
 -6.54809714E-03 -5.89239552E-03  1.25507815E-02 -7.18305928E-03 -5.30519154E-03
 -1.01505555E-02 -3.71982859E-04 -4.07480889E-03 -5.80844484E-03  3.42164412E-03
 -2.20155066E-04 -9.85248861E-06 -3.77650528E-05  1.57936885E-04 -5.30185806E-05
  1.68981652E-03 -4.30335960E-04 -9.48100499E-04  6.75201441E-05  1.28944314E-03
  1.30040728E-04  2.00693986E-04 -5.03289320E-03 -6.37161991E-03  1.11905620E-02
 -7.80841397E-04 -6.97650249E-03 -9.60533558E-03  1.61583891E-02  4.70156237E-03
 -2.49663973E-03 -6.21261518E-03  1.24710884E-02  3.14380194E-03 -2.43755780E-03
 -6.31202523E-03  4.54885706E-03  2.24971018E-04 -1.46932233E-04 -4.24750743E-05
  1.70563351E-05 -2.15682029E-05 -5.59267434E-04 -7.20408932E-04 -7.56639203E-04
  7.15257188E-04  5.30538168E-04  4.74306877E-03  7.92801156E-03  2.09237003E-02
  2.72899911E-01 -2.47529115E-02 -2.74039609E-02  2.88564909E-02  3.94030175E-01
 -2.16990794E-02 -3.42931747E-02  5.38177796E-02 -4.58509064E-02 -4.09684273E-02
  1.06182785E-01  7.93851365E-02 -6.76315922E-02 -4.92323631E-02  1.16497235E-02
  1.87096709E-02 -1.59972235E-02 -9.85030163E-03 -6.70544188E-03  6.77040846E-04
 -5.79866658E-04  1.60675102E-02 -8.65235624E-03 -8.94084814E-03  8.73366367E-03
  2.58542365E-03 -1.12254174E-02 -2.14351937E-02 -8.27120045E-03  7.58307093E-03
  3.63604692E-03 -2.01710409E-02  6.29743031E-03  1.04175655E-02 -1.74468273E-02
  7.98762759E-03  4.28825834E-02 -3.37733027E-02 -2.40835786E-02  1.00153338E-02
  6.32538572E-02 -2.94663893E-02 -2.94990023E-02  1.78287273E-02  5.88086024E-02
  2.06451830E-02 -4.19040749E-03  3.91460062E-03 -6.38911730E-03  5.43870995E-04
 -6.91307728E-04  5.73890526E-04  1.57249210E-04  1.58990783E-04 -3.24174603E-03
 -7.20590741E-04  1.50352567E-03  1.56311846E-04 -7.31051943E-04 -9.17819071E-05
 -1.72750409E-04 -4.87524273E-03  1.07957125E-02  1.04206894E-03  3.72373935E-04
 -6.52995823E-03  1.56141417E-02  1.16817375E-03  8.11744035E-03 -5.62756243E-04
  1.15140468E-02  1.60626903E-03  3.62551229E-03 -3.43898621E-03  4.53110787E-03
 -3.16396473E-03 -2.61730125E-05 -9.03662985E-05  9.23865878E-05 -2.02149845E-04
 -1.08600008E-04 -1.14216369E-03  4.52888513E-05 -1.06314356E-03  9.36735518E-04
 -7.36958352E-04  6.59041149E-03  1.10159129E-02  2.90741645E-02 -2.47528268E-02
  2.56319319E-01 -3.80776533E-02  4.00969234E-02 -3.41376344E-02  3.71162888E-01
 -4.55073501E-03 -3.16496865E-03  1.25496807E-03 -1.07028777E-03 -1.49193213E-03
 -1.22111694E-02 -9.26064979E-03  7.89001496E-03  1.09534930E-02 -1.15423980E-01
 -2.44939290E-02  2.08437175E-02  2.89720393E-02  1.01264199E-02 -5.11742333E-04
  4.41590574E-04  6.11551808E-04  2.02011698E-03 -7.70277105E-03  6.56286651E-03
  8.93978772E-04 -5.54556556E-03  6.21733936E-04 -2.36305910E-03  2.01635341E-03
  2.72170927E-04 -1.70113129E-03 -1.06122849E-03 -1.53965696E-03 -1.31032760E-02
  1.13434561E-02  1.46365063E-02  3.53598235E-03 -1.88229626E-02  1.62648313E-02
  2.11828623E-02  1.17838821E-02 -1.56619779E-02  1.45148168E-02  1.24375422E-02
  1.60223542E-02  2.54877707E-03 -5.02139783E-04 -1.18745436E-02 -2.97916713E-04
  3.90969412E-05  3.02212456E-05 -1.05851838E-05 -1.38053173E-04 -2.26951465E-03
  9.42252805E-04 -4.50905548E-04 -1.95906867E-04 -9.74468403E-04 -1.06263551E-03
 -1.54186959E-03 -1.21848315E-02  1.11427068E-02  1.55087516E-02  3.54181660E-03
 -1.76630589E-02  1.60107650E-02  2.22776992E-02  1.17918653E-02 -9.41487869E-03
  1.32026054E-02  1.85925691E-02  1.60145529E-02  1.15591754E-02 -2.38053907E-03
 -2.92459518E-03  1.86308215E-04  7.33145742E-05  1.19547449E-04 -2.28427318E-04
  6.23363560E-05  1.26360516E-03  1.29789321E-03  7.15841174E-04 -1.56864243E-03
  9.83081725E-04 -1.48487835E-01 -2.30577617E-01  3.66783274E-02 -3.12268676E-02
 -4.33871254E-02  6.54347980E-01  4.80139642E-02 -4.08773310E-02 -5.67955858E-02
  5.58949485E-01  1.56196536E-02  2.34881134E-02 -1.64348947E-02  2.74446049E-02
  3.81282648E-02 -6.84346700E-02 -1.47434291E-02  4.06859471E-02  5.65218754E-02
 -4.28188467E-03 -1.89334837E-03  9.53934466E-03  1.32238917E-02  4.06271306E-03
  1.37603717E-02  7.35477139E-04  1.02016256E-03 -7.70555851E-03  4.17533526E-03
 -8.46318826E-03  7.98478949E-03  2.74644330E-03 -1.53109104E-02  3.98065044E-04
 -1.56231559E-02  1.62836464E-02  8.83076702E-05  7.64667158E-04  1.24778146E-03
 -2.59586133E-03 -7.79302419E-03 -1.51238842E-03 -3.54407520E-03 -4.00483827E-03
 -1.14280198E-02 -1.77009689E-03 -7.73917360E-03 -2.77388322E-03 -8.56418105E-03
  1.85580297E-03 -1.74555465E-03 -4.33757450E-03 -3.07722637E-03 -2.83065398E-03
  3.28263335E-05 -1.87613424E-05 -9.97660988E-05  1.38262718E-04  3.79680035E-05
 -1.32497750E-03 -5.50708812E-04 -9.45644632E-05 -2.84876192E-05 -6.66515956E-04
 -4.04360551E-03 -7.03042769E-03  3.84477350E-02 -1.65791737E-02 -2.17560737E-02
  2.41791341E-02  5.69525069E-02 -2.32096714E-02 -3.02856666E-02  2.19870809E-02
  5.12967925E-02 -2.62328406E-02 -3.50840993E-02 -1.76561847E-02 -6.47648395E-03
 -2.95590521E-03 -4.20001298E-03  1.18576650E-04  6.06908698E-04  2.11484717E-06
 -1.53171374E-04  4.33437189E-04 -2.23358973E-03 -3.37584101E-05 -1.08370025E-03
  3.05933777E-03 -1.59579316E-04  8.86336716E-06 -2.02671004E-03  2.19060256E-01
  2.51583595E-02  3.49571055E-02  1.55159718E-02  3.16569934E-01  3.52004021E-02
  4.89100795E-02  2.76710218E-02  2.62482942E-01 -1.33018640E-02 -2.00025752E-02
  2.74368051E-02 -7.58924821E-03 -3.24739329E-02  5.82783030E-02  4.06753376E-02
 -1.63028625E-03 -4.81390178E-02  3.64928774E-03  9.51604747E-03  1.22260712E-03
 -1.12849282E-02 -3.45799265E-03  7.32490113E-04  1.40066693E-02 -8.67791112E-04
  7.62832878E-03 -8.46192728E-03 -2.58393542E-04  8.93989774E-03 -1.43674568E-03
  1.38383538E-02 -1.56252978E-02 -5.93057311E-03  1.76174418E-02  3.75489244E-03
 -1.54491653E-03 -2.60062012E-03 -4.32946051E-03 -3.94367084E-03 -7.98600009E-03
  8.16486085E-03 -6.51831462E-03 -5.61933609E-03 -1.22511471E-02  1.21293696E-02
 -2.37119085E-03 -5.15772945E-03 -1.43087906E-02 -1.42581643E-03 -2.82921846E-03
 -5.14254541E-03  2.56390539E-03 -1.33658820E-04  2.78221271E-05 -1.05247922E-04
  1.16605551E-04 -6.00504858E-05  1.75816143E-03 -3.20798316E-04 -9.63957370E-04
 -4.13528370E-06  1.06878417E-03 -5.46150188E-04 -8.81188004E-04 -1.07641626E-03
 -4.56605055E-03  7.93248940E-03  2.40800688E-03 -1.22803330E-03 -6.90229081E-03
  1.15234340E-02  5.94348668E-03  1.50090741E-03 -4.63110911E-03  8.38565686E-03
  1.84151957E-03 -1.84517978E-03 -5.28280426E-03  3.40215914E-03  1.69804653E-04
 -7.08620309E-05 -2.53409259E-05  5.01741240E-05  3.09791527E-05 -5.94434576E-04
 -4.71670110E-04 -5.72389831E-04  7.71628869E-04  5.41654894E-04 -1.08151251E-05
  1.72115055E-03  2.51567601E-02  2.27183683E-01 -2.97635338E-02 -1.31996411E-02
  3.51973603E-02  3.27936342E-01 -4.16430217E-02 -2.35488029E-02  3.77489320E-02
  2.74670874E-01 -1.84828865E-02 -2.77934231E-02  3.81214807E-02 -3.24773038E-02
 -2.93291459E-02  8.09763892E-02  5.65118911E-02 -4.81429227E-02 -3.38602764E-02
  5.09390662E-03  1.31986387E-02 -1.12897165E-02 -6.33590059E-03 -4.80392044E-03
  1.01764519E-03 -8.69302156E-04  1.34231682E-02 -7.69608724E-03 -6.79817909E-03
  7.01828318E-03  2.21590629E-03 -8.46237048E-03 -1.81611223E-02 -6.47611790E-03
  6.44175284E-03  3.16896099E-03 -1.56227258E-02  3.82251294E-03  6.66206142E-03
 -1.98453928E-02  1.17481050E-02  4.08154063E-02 -2.30573988E-02 -2.77603898E-02
  1.57266465E-02  6.00427941E-02 -2.00957341E-02 -3.09457418E-02  2.09975205E-02
  5.47949367E-02  1.76653196E-02 -4.13766999E-03  3.98789128E-03 -5.23616611E-03
  3.38704586E-04 -5.04160494E-04  4.29253111E-04  1.16934204E-04  9.85803855E-05
 -3.32277374E-03 -2.18847397E-04  9.77273166E-04  3.78583093E-05 -9.60262427E-04
 -9.61699448E-04 -1.57388316E-03  5.58719349E-04  7.25865538E-03  3.69056859E-04
  4.51853256E-03  1.35361115E-03  1.05677903E-02  3.34473188E-04  9.50334119E-03
  4.83695877E-03  7.17904280E-03  1.34808710E-04  1.87274100E-03 -2.60889058E-03
  3.35298502E-03 -2.98216459E-03 -4.46777767E-05  1.08656744E-05  8.80948576E-05
 -1.11383357E-04 -4.50434130E-05 -1.07224067E-03  2.21952737E-04 -8.48396494E-04
  1.09665058E-03 -5.21311262E-04 -1.35001594E-05  2.39351951E-03  3.49552909E-02
 -2.97637837E-02  2.07249157E-01 -1.83449715E-02  4.89066574E-02 -4.16435480E-02
  3.00045062E-01 -3.27228214E-02  5.24510177E-02 -4.46615206E-02  2.44759459E-01
  1.29852383E-04 -1.10974125E-03 -1.17928039E-02  1.00547186E-02  1.39571753E-02
  7.14146709E-03 -1.54071118E-02  1.31383093E-02  1.82383735E-02 -9.67684836E-03
 -2.28485126E-03  1.94800101E-03  2.70423305E-03  4.05283652E-04  1.98419946E-03
 -1.69090944E-03 -2.34856710E-03 -8.77277273E-04  3.34710623E-03 -2.84641224E-03
 -3.88040326E-04  2.40850835E-03 -9.31369848E-04  3.56422553E-03 -3.02412619E-03
 -4.13325524E-04  2.56265842E-03 -5.45442980E-03 -7.98413769E-03  4.71216043E-03
 -2.54337420E-03 -1.32575794E-02  2.05802742E-02  6.55824734E-03 -3.32742530E-03
 -1.95711199E-02  1.60269943E-02  6.48624170E-03 -3.90902655E-03 -1.61241748E-02
 -2.08790863E-03  3.14845011E-04 -3.67327743E-04  1.77032010E-04  1.76083387E-04
  1.30676146E-04 -2.01954393E-04 -3.15008479E-05 -1.14299590E-05  1.32116521E-03
  1.94811533E-04 -6.64367731E-04 -8.55756647E-05 -7.61695873E-05 -5.45116320E-03
 -7.97978797E-03  1.25421276E-02 -4.20466620E-03 -5.51478118E-03  2.05707613E-02
  1.85960050E-02 -5.87839085E-03 -7.66411015E-03  1.60123344E-02  1.50932524E-02
 -5.73941960E-03 -7.61328386E-03 -2.08764201E-03 -2.42391980E-04 -2.56562440E-04
 -3.81380828E-04 -1.17035379E-04  1.60222691E-04 -1.45923512E-05  2.01697830E-04
  9.95456440E-05 -7.16568635E-04  2.73021108E-04  3.15076516E-05  1.28010303E-03
  1.11443613E-04  2.72445980E-03  3.52653300E-03  1.76392869E-02 -1.50324449E-02
 -2.08783135E-02 -7.09535181E-03  2.59462075E-02 -2.21113602E-02 -3.07103999E-02
  1.51725751E-04  1.89987835E-02 -1.61905264E-02 -2.24857530E-02  1.07236763E-02
 -4.74096405E-04 -4.76789639E-05  1.19853678E-03  3.05285252E-04  4.26831205E-04
 -2.11001524E-03  1.29769892E-03  9.59920579E-04  1.33692397E-03  1.50844791E-03
 -8.70690382E-04  5.72283644E-04  7.93076052E-04 -8.57463255E-06  1.74050398E-04
  5.53502490E-04  7.68842450E-04 -3.41087615E-04 -1.01372905E-03 -1.76339852E-04
  4.32157737E-04 -6.94942523E-04 -1.18334664E-03 -1.78117459E-03 -1.11334874E-03
  1.21531746E-03 -1.20673046E-03  7.87823742E-04  1.22778239E-03 -6.03302935E-03
 -1.00850613E-03  2.12392330E-03 -3.49999230E-03 -8.66274370E-03 -1.53803548E-03
  3.14747691E-03 -3.18813595E-03 -7.43454275E-03 -8.53419665E-04  3.02304684E-03
  3.48531820E-04 -6.37387843E-04 -4.71675450E-04 -3.60998896E-04 -7.27718534E-06
  2.06877141E-05  3.23150493E-05  3.14331967E-05 -1.98668130E-05 -3.43233754E-04
  2.73467288E-04  1.04414768E-04  9.29652502E-05 -2.02549041E-04  3.95305180E-03
  5.56980237E-03  1.35215447E-04  1.53835402E-03  2.51207406E-03 -1.36833390E-02
  3.05204147E-05  2.21509648E-03  3.61175271E-03 -1.12154696E-02  1.35802451E-04
  1.31183724E-03  2.23449643E-03 -1.12509037E-04  1.51429467E-04  8.24326925E-05
  1.75601910E-04  4.60800187E-05  6.02670272E-05  1.38466513E-05 -6.36224456E-05
  4.37554402E-05  1.16272917E-04  7.15544176E-05 -6.36982351E-05 -2.37584082E-04
  5.59426901E-05 -2.83078276E-03 -4.31298317E-03  1.48456531E-02  6.52244015E-03
  9.06128637E-03  1.20144614E-02  2.12511112E-02  9.51340643E-03  1.32164783E-02
  1.00447256E-02  1.79961787E-02  8.19604891E-03  1.13862686E-02 -1.34631537E-03
  2.55293598E-03  4.03687295E-04  4.03188430E-05  3.06005312E-04  1.29426614E-03
 -3.62862209E-04  1.79858213E-03  9.61331285E-04  1.60340327E-03 -1.13806612E-03
 -1.28462315E-03  5.71559528E-04 -6.83515543E-04 -6.79303889E-04  7.24668221E-06
  5.53313883E-04  3.52524868E-04 -6.54658034E-04  1.47489313E-04 -1.75278576E-04
 -8.39887643E-04  3.85758846E-04  9.33049930E-04  6.97718428E-04 -1.11134244E-03
 -1.64072348E-03  1.24214626E-03  1.86838652E-03 -8.40376928E-05 -2.40316842E-04
 -9.59491531E-04 -4.93166495E-03 -3.35581718E-03  1.09095345E-03 -1.44756846E-03
 -7.05685840E-03 -4.90216885E-03  1.22756170E-03 -6.01523103E-04 -6.20182536E-03
 -4.49920609E-03 -3.77008587E-04 -5.45006272E-04 -5.79399522E-04  1.42028931E-04
  6.38716731E-06  4.34769358E-05  3.48761587E-06  2.60712419E-05  2.51621330E-06
  3.97364194E-04  4.59712594E-05  1.49038234E-04  1.34041465E-04  1.50563775E-04
 -7.41291542E-04 -1.14208947E-03  1.74108949E-03 -6.28743992E-03  5.16378454E-04
  3.20671082E-03  2.59622824E-03 -9.05118414E-03  8.08255419E-04  2.89347274E-03
  2.42454283E-03 -7.60604888E-03  2.29569389E-04 -2.86024440E-04 -2.48149249E-04
 -7.89980729E-04  4.89847470E-04  1.23348613E-05  2.95507046E-05 -2.28302483E-05
  2.43015166E-05 -3.57491231E-05 -1.05673539E-04  5.34834783E-06 -1.49865405E-04
  2.78192053E-04 -3.20793871E-04  2.41281048E-03  3.67593654E-03  6.51928384E-03
  1.69459020E-02 -7.71396286E-03 -1.02389777E-02  9.50891564E-03  2.43144979E-02
 -1.12514917E-02 -8.56115947E-03  8.19320281E-03  2.06353219E-02 -9.69407254E-03
  1.14511358E-03  3.27630317E-04  2.65809923E-03  5.62194583E-04  5.75799886E-05
  4.25675671E-04 -3.61081989E-04  1.05091517E-03  2.49582871E-03  1.33598419E-03
 -1.13572768E-03  8.41586981E-04 -1.78186772E-03  7.91555757E-04 -6.78524087E-04
 -1.13823378E-03  1.03650989E-05  7.68829018E-04 -6.54945695E-04 -8.54520372E-05
 -7.89112359E-04  7.74864799E-04 -8.24076621E-04 -8.62315646E-05 -1.75518473E-04
 -1.95785760E-03  1.03674967E-03 -1.23796865E-03 -6.77045998E-05 -1.11186202E-03
 -4.04472498E-03 -5.72261844E-03  1.89166709E-03 -3.09399915E-03 -9.12691371E-04
  1.41560946E-02  2.70762828E-03 -4.41186677E-03 -1.49125161E-03  1.16665965E-02
  1.71451905E-03 -3.07679778E-03 -1.08050905E-03  3.85390456E-05  3.22921983E-05
 -2.76902438E-04  1.55276580E-04  9.41986740E-05 -3.95910956E-05  2.61060846E-05
  1.33264358E-05  2.61637684E-05  3.52401785E-04 -6.59629885E-05  5.43447133E-06
  2.56603378E-05 -2.47355729E-05 -8.95536328E-04 -1.40259084E-03  2.79999952E-03
  5.08721186E-04 -5.73671909E-03  4.02415118E-03  4.15475997E-03  7.93358507E-04
 -8.20749799E-03  3.67864919E-03  3.83140928E-03  1.81953013E-04 -7.25993702E-03
 -4.19030116E-04 -3.02051814E-04  5.04350762E-04 -4.24339566E-04 -3.23040298E-05
 -9.31237136E-06 -8.12809621E-06  7.00648319E-06  3.16959586E-05 -3.30323244E-04
 -2.96794377E-04 -1.30171643E-04  3.11601824E-04 -6.79116640E-06  3.35132144E-03
  5.10587422E-03  9.05896766E-03 -7.71590337E-03  1.17813037E-02 -1.42223109E-02
  1.32131579E-02 -1.12542272E-02  1.67815047E-02 -1.18910390E-02  1.13845266E-02
 -9.69622444E-03  1.41453461E-02  1.59153014E-03  4.55301299E-04 -3.87608791E-04
  2.39858975E-03 -6.92260649E-05 -1.49610290E-04  5.40636449E-04 -4.87792671E-04
  2.38768867E-04  5.95077743E-04  7.97544006E-04 -7.13096435E-04  3.96084961E-04
  3.07731260E-06  1.64596386E-04 -1.44618528E-04  9.36175211E-05 -3.24371615E-05
  2.50437986E-05 -1.45302764E-05  7.32400896E-05 -3.06674098E-05 -2.31741218E-05
 -2.88025115E-06  2.52164295E-06 -1.09086003E-04 -1.77233665E-04  5.12887358E-06
 -2.89017210E-05  1.07332399E-05 -2.07796491E-04  2.48535335E-05  2.50652982E-05
  2.99782271E-04 -1.68183146E-04 -5.76970648E-04 -5.25517319E-05  4.36182268E-04
 -2.46285910E-04 -8.35825841E-04 -2.03412520E-04  3.32844843E-04 -1.94023507E-04
 -5.61385830E-04 -2.15119167E-05  3.79439659E-05 -3.42721738E-05 -8.22129338E-05
  2.03407271E-05 -4.25796126E-06 -3.22387817E-06  5.79638999E-08  1.44243620E-06
  5.35268481E-05 -1.91847588E-05 -4.58562705E-06  4.29130550E-07  8.48144279E-06
  2.91264906E-07  1.05597229E-05 -3.60605382E-04  2.08170611E-04  1.38783946E-04
 -5.64816125E-05 -5.21970042E-04  2.99770375E-04  1.99369742E-04  8.92489175E-05
 -3.42522768E-04  2.41833676E-04  1.76378697E-04  8.62009167E-05 -3.57792742E-05
  6.26297002E-05 -1.08111500E-06  4.85048224E-06  3.77886227E-07  2.25874898E-07
 -9.30850165E-06 -1.80757164E-06  9.91227393E-06  1.27445267E-05 -1.81730091E-06
 -2.23018049E-05 -8.54086881E-06  1.48551570E-05 -1.23676384E-05  4.52341199E-04
 -3.86136114E-04  1.56259389E-03  1.40213686E-04  6.44614869E-04 -5.50777552E-04
  2.26528160E-03 -2.15517272E-06  5.82213833E-04 -4.92652405E-04  1.81231395E-03
 -1.20955590E-04  9.34801862E-05 -8.28994858E-05  1.29409368E-04  2.17292280E-05
  2.63952880E-04  5.70471399E-04 -6.76527900E-04  9.22419089E-04  9.35590393E-04
 -2.26917008E-03 -9.09931879E-04  1.32783164E-03  1.29321468E-03 -1.03748102E-05
 -1.60915939E-04  2.67827034E-04  2.41849291E-04  1.23745027E-04  9.08320092E-05
 -5.19394218E-06 -7.82601191E-05 -3.41874603E-05  1.29470144E-04 -1.48619504E-04
  1.05010711E-05  1.18182420E-04 -1.32906910E-05  7.21487147E-05 -1.60110598E-04
  7.05054911E-05  1.11798345E-04 -5.00198437E-05 -8.63003279E-05  1.36534740E-05
  1.52745797E-04 -2.80356572E-05  3.01183437E-04  1.09372988E-05  2.29124248E-04
 -4.24658143E-05  1.92727953E-04  7.19280532E-05  1.34652417E-04 -4.05225586E-05
 -1.90221945E-04 -1.54641135E-05 -1.28914042E-05  4.25623358E-05 -9.91072582E-06
  5.15300579E-06 -6.65625545E-06 -1.61850548E-06 -1.87373550E-06 -2.83216202E-05
  2.55155918E-06 -2.32274568E-05 -8.01534722E-06 -1.30245852E-05 -5.56710318E-05
 -9.57948215E-05  1.80609456E-05  1.49334763E-04  6.43968059E-05  3.33854927E-04
  3.07713057E-05  2.22099265E-04  1.03675807E-04  2.41473619E-04  3.62338267E-05
  1.39568335E-04  1.13540062E-05 -1.92834079E-04 -5.69711968E-05 -2.90448428E-06
  1.48903261E-05  5.00876485E-06  7.76496673E-06  8.53126580E-07 -7.47583688E-06
  8.47871904E-06  1.36662118E-05  1.57001771E-05  1.24355736E-05 -1.62715941E-05
  2.98151798E-05 -5.65973913E-05  4.72313259E-05  1.73753352E-03 -4.51794442E-04
 -1.64806032E-03 -5.34822713E-04  2.53846205E-03 -6.79596836E-04 -2.41553791E-03
  7.99319571E-06  1.91830130E-03 -3.94798419E-04 -1.77790187E-03  4.61013853E-04
  3.19966201E-05  8.01526186E-05  4.47971121E-06 -1.23331026E-05  4.50460995E-05
 -2.24749430E-04 -4.85814239E-04  9.22221448E-04 -3.35504092E-04 -8.28176876E-04
  1.93259701E-03  1.32758118E-03 -4.27902387E-04 -1.14018608E-03  8.96366063E-06
  2.67100136E-04 -6.89441290E-05 -2.10562672E-04 -1.05384264E-04 -5.22847237E-06
  7.81891365E-05  7.44993267E-05  1.71604544E-05 -1.59042661E-04  8.69484400E-05
  4.33987864E-05 -7.56398258E-05  4.59372303E-06 -1.77702034E-04  2.39929703E-05
  1.12043774E-04 -4.13855098E-05  4.34674018E-05  8.04049846E-05  5.63489480E-05
  2.24356665E-05  1.96210066E-04 -2.91218123E-04  8.76929599E-05  2.38731556E-05
  2.86646185E-04 -1.55296191E-04  3.36240933E-05  7.91658150E-05  2.16249431E-04
  1.86676462E-04 -2.43320960E-05 -3.80296990E-06 -2.91052727E-05  3.14804736E-06
 -7.73228497E-06  3.36397612E-06  8.28262013E-07  2.17796721E-06  3.64844722E-06
 -2.57885215E-05 -1.66203592E-07 -9.04558936E-07  1.54168200E-05  2.01129096E-05
  3.70052021E-05 -2.48644894E-04  3.78902592E-05  1.11052876E-04 -1.33370500E-04
 -3.57979398E-04  5.04258132E-05  1.54104656E-04  3.66941481E-05 -2.19878571E-04
  7.58161412E-05  1.73138287E-04  1.58881049E-04 -1.55931109E-05 -1.09570897E-05
  2.16329165E-05  1.25906067E-06 -6.47250463E-06 -2.89478996E-07 -2.32887828E-06
 -3.29627362E-06 -4.07556637E-06 -1.16744113E-05 -9.12224849E-06  1.58742963E-06
 -4.50905707E-07  4.82443139E-05 -4.01685917E-05 -4.51636484E-04  1.59360412E-03
  1.40224030E-03  4.55369273E-04 -6.79375988E-04  2.32260825E-03  2.05470626E-03
 -6.92957243E-06 -3.94576629E-04  1.78633194E-03  1.51741650E-03 -3.92644728E-04
  8.02074542E-05  6.32380259E-05 -7.66914636E-06  9.71295483E-06 -3.00063481E-05
  3.56904742E-05 -3.06114637E-05 -6.61832214E-05 -3.26785890E-04 -4.97013774E-04
 -1.70468132E-04  2.63325735E-04 -5.02239851E-04 -7.41638867E-04 -2.40921133E-04
  1.06341676E-06 -1.07639876E-04 -1.54676661E-04 -4.57807981E-05 -1.43630596E-05
 -4.49452707E-05 -3.59423909E-05  6.31821842E-06  1.97994390E-05  4.61309642E-05
  7.55550548E-05 -6.64000508E-06 -2.48072286E-05  3.95947081E-05  1.30122261E-04
  1.65724710E-04 -1.08652955E-04 -3.34957183E-05  7.62656464E-06  1.34936330E-05
  9.78364725E-05  6.55617616E-05  1.63397234E-05 -4.77867848E-05  1.42149606E-04
  9.31970793E-05  2.42348157E-05 -3.73486894E-05  1.03180393E-04  7.71373254E-05
  2.26595422E-05  2.43124656E-05  4.38412598E-05  4.13606625E-05 -6.06014072E-07
  1.87277245E-06  6.80863673E-07  2.05640454E-06 -1.50110292E-07  3.74746376E-08
  6.32884907E-06  8.93938712E-06  1.24925356E-05 -3.60419226E-08 -2.29143516E-08
  1.08604643E-05  3.08312477E-06  4.44779613E-04 -1.52594343E-04 -2.70742265E-04
  1.99881860E-05  6.45519123E-04 -2.21883411E-04 -3.92999460E-04 -1.11558426E-04
  4.36396535E-04 -1.71256297E-04 -3.01256108E-04 -4.34514437E-05  4.98918283E-05
 -5.02047059E-06 -5.85679142E-05 -8.07694217E-06 -1.56941701E-06 -2.42530983E-07
  1.30369003E-05 -3.62128999E-06 -2.25915765E-05 -5.51015592E-06 -2.15764429E-06
  3.46814575E-05 -1.82812421E-05  6.55905312E-06 -5.49088934E-06 -1.08612291E-03
 -8.20188176E-04  7.19541262E-05  6.20717149E-05 -1.57189394E-03 -1.18111952E-03
  1.07914264E-04 -8.47065209E-07 -1.27170809E-03 -9.90707575E-04  6.59758930E-05
 -5.34077602E-05 -1.09131953E-04 -1.12036146E-04 -1.55980743E-05 -4.41767325E-07
 -1.18482950E-05 -4.99473400E-06  1.51327689E-05  1.89965135E-04  4.10584352E-04
 -4.80354671E-04  3.25825218E-04  9.22353686E-04 -1.63323664E-03 -6.46810059E-04
  4.13884291E-04  1.32774162E-03 -7.35388745E-06 -1.15020425E-04  6.40369900E-05
  2.67432658E-04  8.90717154E-05  6.37158224E-05 -7.66862820E-05 -5.22458813E-06
 -6.73224535E-05  1.15587235E-04 -9.22756316E-05 -1.95484985E-05  5.13686572E-05
 -1.37951399E-04  1.07518684E-04 -6.91498597E-05 -2.47055376E-05 -1.19607685E-06
 -1.15046052E-05 -2.23714802E-05  7.81901437E-05 -7.07872669E-05 -2.76188518E-04
  8.27310465E-05  1.09035384E-04 -9.83100910E-05 -3.96143214E-04 -7.96290151E-05
  1.20536203E-04 -1.29172842E-04 -2.53769392E-04 -1.33693904E-04  9.02662526E-06
 -5.74555593E-06 -2.70321312E-05  2.92479365E-06  4.01707826E-06 -4.95634078E-06
 -8.00135182E-07 -9.54131211E-07 -1.69686326E-07  3.69791568E-06 -2.08866932E-06
 -2.98452340E-07 -8.82500399E-06 -3.97712932E-05 -6.75369929E-05 -1.38005962E-05
 -4.14127649E-05  1.65516631E-04  2.33589044E-04 -1.68520096E-05 -5.39426615E-05
  2.45862746E-04  1.73726769E-04 -2.50670556E-06 -8.79150783E-05  1.57015536E-04
 -1.34764463E-04 -4.16849524E-05  1.89219661E-05 -7.27500425E-07  4.04377579E-06
  8.23730500E-06  4.91342765E-07 -6.10429408E-06  2.41840995E-06  1.42626483E-05
  2.93921068E-05  6.99095681E-06 -1.30966940E-05 -4.10157471E-06 -4.07547328E-05
  3.39725684E-05  1.25084449E-03 -1.34528578E-03 -4.51755190E-04 -3.84899104E-04
  1.82753969E-03 -1.95997049E-03 -6.79542510E-04  5.78824140E-06  1.37997696E-03
 -1.51443522E-03 -3.94751084E-04  3.31808552E-04  2.38483117E-05 -4.82685742E-05
  8.01754431E-05  1.87339860E-06  2.74617700E-05 -2.57244483E-05 -2.48328515E-06
  2.66661272E-05 -7.60492249E-04 -1.01417248E-03  1.94955468E-03 -1.57048998E-03
  7.49292530E-04  2.46647225E-03  2.99679355E-03 -2.41709353E-03  1.60551228E-03
 -2.26131046E-04  6.34491643E-04 -5.09465253E-04  5.58089186E-04 -1.14864265E-04
  2.73511427E-04 -2.29498775E-04  6.72893210E-04 -4.86650556E-04 -1.55155806E-04
  1.93074659E-04  8.45542341E-05 -3.71168930E-04 -1.25770653E-03 -6.71265373E-05
  1.72182246E-04  1.65495684E-04 -7.61558742E-04  2.38163966E-04  4.87726613E-04
 -6.90926486E-04  8.84152122E-04  4.35751807E-04 -1.93430370E-03 -9.57657843E-04
  1.22089594E-03  6.85881413E-04 -2.16865190E-03 -1.14000276E-03  1.27067194E-03
  1.16070249E-03  5.87833058E-04 -1.77247755E-04  2.12060424E-04 -4.50795973E-04
  5.24459923E-05 -1.94110876E-05 -4.49437241E-06  6.59498155E-07  3.93142690E-06
 -8.49407107E-05 -1.80798745E-05 -9.30510056E-06 -1.27822332E-05 -6.00429415E-05
 -6.93467137E-05 -1.72992169E-04 -2.29294860E-04 -4.21497677E-04 -8.45355885E-05
  7.62369799E-04 -2.94973734E-04 -5.92505467E-04 -1.13997708E-04  1.16135864E-03
  1.52809743E-04 -6.46663130E-04 -2.15726396E-04  3.63021538E-05 -2.01829208E-04
  1.24711783E-04 -2.48015115E-04  1.25393683E-05  1.26275749E-05  2.56722157E-06
 -2.65287186E-05 -1.04917464E-05 -2.84527030E-05  5.28729036E-05 -4.90312224E-05
  3.36661010E-05 -9.69940604E-05 -6.07736384E-04 -8.56731382E-04  5.08504957E-03
 -4.16702839E-03  1.07923173E-02  2.04139507E-03  7.27185342E-03 -5.95801400E-03
  1.56067614E-02  1.32312223E-03  6.40583744E-03 -5.23807566E-03  1.30654392E-02
 -5.29016485E-04  7.45629657E-04 -6.23265489E-04  9.18630763E-04  1.15937324E-04
 -5.08224836E-05  4.37035393E-05 -5.16598791E-06  2.94340627E-05  8.42236748E-04
  2.89960896E-03  3.86666594E-03 -2.17105517E-03  3.63703255E-03  3.28620632E-03
 -9.40328658E-03 -2.59508190E-03  5.17220000E-03  4.25769378E-03  8.67982107E-04
 -1.80787603E-04  9.08311211E-04  5.15115749E-04  4.38274581E-04  6.11339299E-04
 -1.87154195E-05 -5.24028894E-04 -1.41291863E-04  6.98011614E-04 -7.63756531E-04
  1.28884709E-04  5.81148897E-04 -4.55924943E-05  5.48953733E-04 -9.10961692E-04
  4.62559880E-04  6.09163384E-04 -3.07276067E-04 -4.90402219E-04  1.67707327E-03
 -9.10846640E-04 -1.09934012E-03  1.57062709E-03  2.37515447E-03 -1.26710137E-03
 -1.60544922E-03  1.10748818E-03  2.25222015E-03 -1.35309341E-03 -1.42194522E-03
 -9.96367889E-04  1.95372683E-05 -2.43506640E-04  2.70311635E-04 -2.99024838E-05
  2.73207845E-06 -1.80125070E-05 -4.66484312E-06  4.66419802E-06  1.96607312E-05
 -1.00703167E-04 -2.29273389E-05 -1.80893931E-05  3.45732347E-05 -3.62666744E-04
 -5.81639657E-04  9.14586702E-04 -1.05819698E-03 -2.13854047E-03  1.86643059E-03
  1.35652399E-03 -1.49034273E-03 -3.02701039E-03  1.47471244E-03  1.26018411E-03
 -1.52721246E-03 -2.91007972E-03 -1.03610376E-03 -3.74215609E-04 -1.95114050E-04
 -1.29230984E-04  1.36463411E-05  8.59856568E-06 -4.66780071E-06 -2.69854208E-05
  2.48013263E-05 -4.12270770E-05 -1.05609568E-04 -2.11094796E-05  2.61488007E-05
  1.38702938E-05  2.31758376E-03  3.26718646E-03  8.76442665E-03  1.31551453E-03
 -6.87260967E-03 -7.78509191E-03  1.28222506E-02  1.72395670E-03 -1.01345036E-02
 -5.04486565E-03  1.01921942E-02  2.15453469E-03 -7.74212170E-03  2.01841637E-03
  1.58793656E-04  7.86510439E-04  1.78953083E-04 -5.13102086E-05  1.87115523E-04
 -1.03491093E-04 -6.35006797E-05  1.00814810E-04 -2.57878271E-04  9.58518256E-04
 -2.46965350E-03 -3.29316639E-03  3.63601711E-03 -1.14312833E-03 -2.69469677E-03
  8.00793711E-03  5.17077271E-03 -1.14491708E-03 -3.46964945E-03 -7.38616622E-04
  9.04375101E-04  5.68884665E-05 -3.99938938E-04 -3.73164903E-04 -1.90672497E-05
  5.99547934E-04  4.50573167E-04  1.67876382E-04 -7.50322974E-04  4.31660228E-04
  3.54632477E-04 -4.44899675E-04  1.32615096E-04 -8.90334707E-04  2.15343935E-04
  7.62907237E-04 -3.73651081E-04  2.56439507E-04  3.77591934E-04 -8.76293091E-04
  1.45545878E-03  1.05816982E-03 -1.09473539E-03 -1.23668523E-03  2.06229191E-03
  1.53203398E-03 -6.46427476E-04 -1.22674357E-03  1.93073788E-03  1.25799905E-03
  7.76829521E-04 -2.00976949E-04  2.14474859E-05 -1.85683830E-04  9.83436113E-06
 -2.30069523E-05 -7.51731513E-06 -1.31525450E-06 -7.12260364E-07 -4.78005677E-05
 -3.17462726E-05 -1.02969228E-04 -3.68721003E-05  6.31567956E-07  3.48088604E-05
  3.63228240E-05 -7.56852202E-04  1.39527070E-04 -4.28282014E-05 -7.45587805E-05
 -1.07620319E-03  1.86260323E-04 -7.59429036E-05  6.28138008E-04 -4.72997787E-04
  1.91558887E-04 -2.87100930E-05  6.75029752E-04  3.78638637E-07 -1.66819038E-04
 -6.44437562E-05  1.03725022E-05 -1.73731754E-05  3.33591556E-06 -1.32870904E-05
 -2.86958245E-06 -3.91391760E-05 -4.74718365E-05 -4.51430499E-05  2.40500811E-05
  2.11887481E-05 -1.97394283E-03 -2.78271897E-03  1.31499655E-03  8.92744660E-03
  6.03995347E-03  6.63067936E-03  1.72314395E-03  1.30028934E-02  8.89951628E-03
  4.29748344E-03  2.15399343E-03  1.05403038E-02  6.84213498E-03 -1.71866888E-03
  7.86459237E-04  3.93978175E-04 -1.39152544E-04  4.45904903E-05 -1.03961801E-04
  1.53362980E-04 -3.86613942E-05 -1.00260754E-04  2.50679823E-04 -3.43461492E-04
  8.34861944E-04 -3.36678143E-04 -4.48944571E-04 -9.15871214E-04 -1.60997798E-03
 -5.14520498E-04  1.09173558E-03 -1.68912708E-03 -2.61759249E-03 -7.25679455E-04
 -1.01392337E-04 -4.85072819E-04 -6.20217014E-04 -1.17988822E-04 -5.09338570E-05
 -4.85556930E-04 -4.08782704E-04  6.11859739E-06  6.28242806E-05  8.35142019E-05
  3.14314995E-04 -4.17162341E-04 -7.71820526E-05  1.31388516E-04  3.91397268E-04
  6.99612104E-04 -9.97108666E-04 -1.06444852E-04  5.31398360E-05  8.33275318E-05
 -4.65634550E-04  4.13330633E-05  1.16802486E-04 -2.59254731E-04 -6.57856047E-04
  5.94352949E-05  1.73850639E-04 -2.24885352E-04 -6.35695113E-04  5.03338261E-05
  1.76362197E-04  1.21591814E-04  1.69902077E-04  2.20362217E-04 -8.12916689E-06
  8.96569700E-06  1.13013826E-05  1.21098822E-05 -1.57312836E-06 -2.61589946E-06
  1.54795104E-05  9.25907968E-05  6.63978768E-05  2.29636668E-05 -2.41730711E-05
  1.22617934E-04  2.88955809E-04 -1.29576419E-04  6.98848118E-05  4.58055557E-04
 -1.25423903E-03 -2.34249926E-04  8.50195110E-05  6.26390263E-04 -1.44672054E-03
 -5.63792912E-04  2.43806843E-04  8.00797134E-04  3.72432904E-04  3.40800363E-04
  1.72831951E-04  7.93965189E-06 -1.93151758E-05 -7.55897193E-06 -3.69154820E-07
  2.83107351E-05 -2.04203432E-05  4.43662757E-05  3.42226410E-05  3.30475442E-05
 -3.78352495E-05 -5.86458944E-05 -2.69076154E-04 -3.79377077E-04 -7.88082766E-03
 -6.98881995E-03 -8.12457498E-05  9.04133316E-04 -1.13750420E-02 -1.00471078E-02
 -8.99323649E-05  5.85731820E-04 -9.59141535E-03 -8.63129827E-03 -1.73634568E-04
 -2.34296146E-04 -7.61565949E-04 -8.29049329E-04 -1.17715446E-04 -4.40040606E-06
 -6.19288617E-05 -3.72385394E-05  7.89854813E-05 -6.37237663E-06 -5.11310940E-05
 -4.35861697E-04 -3.46406612E-04  5.72736170E-04  2.08698070E-03  2.78296148E-03
 -1.58448883E-03  8.25747350E-04  3.63661886E-03 -6.76761769E-03 -1.90073535E-03
  7.56535867E-04  5.17162100E-03  6.25343228E-04 -1.38843654E-04 -1.01002849E-04
  9.06585113E-04  3.15449086E-04  4.39092463E-04 -5.12542120E-04 -1.88587124E-05
 -4.24228183E-04  5.84374075E-04 -4.23899189E-04 -8.37354079E-05  3.07340323E-04
 -8.44730860E-04  6.14431573E-04 -3.40712934E-04 -1.16445172E-04  1.38100783E-04
  2.57148121E-05  6.20152925E-05 -2.94741514E-04  3.29387154E-04 -5.87931281E-04
 -2.44251166E-04 -4.31639995E-04  4.77520306E-04 -8.24415821E-04 -9.12649018E-04
 -3.76071565E-04  3.36571912E-04 -2.24364373E-04 -5.29624279E-04 -1.28130714E-04
  1.52013327E-04 -3.26972295E-05  1.92847026E-05  1.08631710E-05 -1.48688192E-05
 -1.64643363E-06  9.63044873E-07 -5.23343621E-05  2.35173925E-05 -6.62112361E-06
 -3.91326150E-06 -6.41439185E-05 -2.60060759E-04 -4.22266428E-04  6.39409809E-04
 -1.39144042E-03 -1.06236299E-03  1.37399490E-03  9.50874318E-04 -1.97677859E-03
 -1.49268731E-03  1.09863619E-03  8.96480116E-04 -1.83823827E-03 -1.54366991E-03
 -7.56793679E-04 -2.75799535E-04  2.03047966E-05 -2.01926783E-04  1.17274922E-05
  2.35954965E-05 -4.35764071E-06 -2.09117800E-05 -5.72042590E-06 -7.98462140E-06
  1.19602611E-05 -2.80806799E-05  2.53531810E-05 -1.12851875E-04  1.66816180E-03
  2.35165588E-03  6.26854767E-03 -7.80000631E-03  1.31544182E-03 -5.60350756E-03
  9.17185545E-03 -1.13556771E-02  1.72382437E-03 -3.63135500E-03  7.28322472E-03
 -9.24672697E-03  2.15446425E-03  1.45277790E-03  1.11500719E-04 -3.50955563E-04
  7.86532970E-04  3.12878307E-05  1.00700911E-04 -1.00994288E-04 -6.13454828E-06
  1.19635955E-04  3.51156068E-04  3.94789158E-04 -4.55859245E-04  2.58571475E-06
  6.93838538E-04  1.40731483E-03  1.63594694E-03 -1.42729254E-03 -6.31368279E-03
  1.15721599E-04 -2.13983365E-03 -4.32010553E-04 -1.91146770E-03  3.51042968E-05
  3.65123503E-02  3.18311107E-03  1.40512157E-02 -2.58502300E-04 -2.53189612E-03
  1.09224324E-04  4.86632381E-04 -9.02470098E-06  1.68215602E-03  2.30916443E-05
  1.01628459E-04  2.63207288E-03 -1.25449897E-03 -3.47471279E-04 -4.24229984E-06
 -2.09928951E-05 -5.42470017E-04  2.58575356E-04 -3.63714914E-04 -6.08118686E-04
  6.63340917E-04  4.22626897E-03 -1.08367082E-03  2.04357481E-03  9.19086017E-04
  6.11169303E-03 -1.70644435E-03 -1.06100208E-03  9.27668690E-04  4.08962111E-03
 -5.85912812E-05 -5.45484822E-03 -2.00025121E-04 -3.52662861E-03  2.12404066E-03
  3.96645416E-05  7.46718683E-06 -5.76857300E-05 -4.53789775E-06 -1.48933498E-05
  1.57237161E-04 -1.24745278E-05 -4.26105302E-04 -5.19949855E-05 -1.06184765E-04
 -3.63660709E-04 -6.08035242E-04  1.93398210E-03  3.96307340E-03  1.80451517E-04
  2.04336846E-03  2.93234390E-03  5.69470520E-03  2.96615588E-04 -1.06238792E-03
  9.05950243E-04  4.09460545E-03 -7.94060162E-05 -5.45223126E-03 -2.80202987E-03
 -2.98757541E-03 -4.63565554E-04 -1.91694174E-05  1.97492967E-05  1.02070746E-05
  5.48476495E-05  3.65945878E-05 -8.65143936E-05  8.68798895E-05  9.08603498E-05
  2.92387458E-04  3.34171807E-04 -3.63819307E-04 -6.08292759E-04  2.35541567E-04
  4.35555794E-03  6.72902181E-04  2.04416919E-03  2.41091675E-04  6.31648936E-03
  1.07708585E-03 -1.06119867E-03  9.35339773E-04  4.08792321E-03 -8.77165365E-05
 -5.45895727E-03  6.76752766E-04 -3.79127374E-03 -1.47232206E-03  9.66258361E-06
 -2.68092084E-05  4.93088804E-05 -3.07422082E-06 -4.41037135E-05  2.57582685E-05
 -7.29209297E-05  3.41155357E-04 -8.95830574E-05 -3.00209528E-04  6.33154529E-01
  2.04161690E-03  2.45979467E-03 -2.23416780E-03 -9.88311469E-03  1.81152602E-04
 -2.70907695E-03 -1.00160990E-03 -4.43163919E-03  8.13558844E-05  5.18349245E-02
  4.26861311E-03  1.88430048E-02 -3.46663167E-04 -3.80636296E-03  1.50254647E-04
  6.70248611E-04 -1.24440984E-05  2.78240005E-03  3.81960322E-05  1.68103657E-04
  4.35364532E-03 -2.07502179E-03  1.56826112E-04  2.95235551E-06  9.50301128E-06
  2.47098439E-04 -1.17811925E-04 -6.08124247E-04 -9.99047475E-04  1.09826925E-03
  7.01483444E-03 -1.80823249E-03  3.25372141E-03  1.52893064E-03  1.01192091E-02
 -2.80033044E-03 -1.53910241E-03  1.57528573E-03  7.08466926E-03 -2.12480090E-04
 -7.98460999E-03 -2.27577855E-04 -4.93300759E-03  3.15100630E-03  7.70720310E-05
  1.55229085E-05 -9.03486835E-05  5.37470392E-06 -2.91698592E-05  1.95664016E-04
 -3.89476815E-05 -7.37386737E-04 -1.60130509E-04 -1.50614099E-04 -6.08027614E-04
 -9.98892526E-04  3.21930554E-03  6.57549376E-03  3.01939595E-04  3.25331356E-03
  4.83062376E-03  9.43539866E-03  4.84662200E-04 -1.54164005E-03  1.67756053E-03
  7.06403080E-03 -1.09181034E-04 -7.98145489E-03 -4.09489966E-03 -4.13182538E-03
 -6.94677238E-04 -2.57241980E-05  3.43430307E-05  1.56926238E-05  1.03885027E-04
  4.86961162E-05 -1.77936709E-04  1.34749041E-04  1.57903552E-04  4.10632438E-04
  6.23369086E-04 -6.08297889E-04 -9.99335176E-04  3.84131617E-04  7.23064406E-03
  1.12400819E-03  3.25468248E-03  4.17039538E-04  1.04550907E-02  1.76463637E-03
 -1.53920511E-03  1.54119382E-03  7.09602113E-03 -6.90196846E-05 -7.99025333E-03
  1.07533786E-03 -5.32622375E-03 -2.19363266E-03  2.49935714E-05 -4.88280056E-05
  7.92875862E-05  1.02697897E-05 -7.63044797E-05 -8.78889981E-06 -9.54387687E-05
  5.80144408E-04 -2.36846616E-04 -4.79905328E-04  5.70725863E-01  5.32576631E-01
  4.83174221E-03  7.66832466E-03  1.07290793E-02 -2.08427580E-02  3.79149446E-04
 -2.38743887E-02  2.36244773E-02 -3.08461045E-02  5.62112095E-04 -2.91269698E-03
  6.78649957E-03 -7.40668604E-03  1.17119832E-04  1.53484195E-03  1.16775958E-02
 -3.40331918E-04  5.30778428E-06  2.36902478E-04  1.27549028E-03 -1.69386039E-04
  7.95391337E-03  8.24377735E-03  1.02615372E-03  3.51251684E-04  1.24596017E-04
  1.38908651E-02  2.11243160E-02  4.60432779E-04  7.61231694E-04 -8.29484817E-03
  1.38546942E-03  3.75624020E-03 -2.38627244E-03 -1.21847957E-02  1.93427461E-03
  5.71840239E-03 -4.29599894E-03 -8.75389250E-03 -5.39685769E-04  5.10567193E-03
  3.97675493E-04 -6.05915588E-03  1.99129994E-03  2.69139055E-04 -1.42722729E-05
  2.48772788E-05 -1.18516293E-04  5.95408248E-05  1.27951446E-04  4.79294457E-05
 -3.48717663E-04  6.82176534E-04  4.81679497E-05  7.14562265E-04 -4.02860891E-03
 -6.68540305E-03  1.69022254E-02  2.04166847E-02  4.98721403E-03  2.16255582E-02
  2.58360851E-02  2.90801656E-02  7.64685218E-03  2.19706159E-02  2.25854221E-02
  3.43016012E-02  5.45296581E-03 -1.16705725E-02 -6.78206415E-03  7.30324130E-04
 -9.70452195E-05  1.24463849E-04  5.66643861E-05 -1.52930877E-04  2.33054412E-04
 -5.70825579E-04 -5.02333292E-04  4.98623210E-04  4.50489715E-04  2.29170053E-03
  1.83316753E-03  1.97106567E-03  3.26704798E-03 -2.52541976E-03 -8.46470990E-03
 -8.98531494E-03 -1.04647906E-02 -3.24937606E-03 -1.24547156E-02 -1.37014450E-02
 -1.31502988E-02 -2.67321258E-03 -1.63126802E-02 -1.08814739E-02  4.42642483E-03
 -5.82800013E-03  2.39781978E-03 -2.72504332E-04 -1.26167509E-04  8.26731932E-05
  2.38195478E-04 -1.50510134E-04 -1.40645103E-05  7.75627301E-05  2.32715280E-04
 -1.20285589E-03  1.17516030E-04  1.71928720E-03 -2.08274753E-03 -3.27523302E-03
  1.99205534E-01  2.13686512E-02  3.39125833E-02 -2.08389472E-02 -7.67239929E-02
  1.68838455E-03 -1.05582743E-01 -3.08391465E-02 -1.05806892E-01  2.49937338E-03
 -1.28994183E-02 -7.38428124E-03 -2.42566153E-02  6.02116522E-04  6.77817747E-03
 -3.37295478E-04  1.02641675E-02  2.72792852E-05  7.50280669E-03 -1.68404907E-04
  7.01532997E-04  1.00832307E-02 -7.52647554E-03  7.88645929E-03  1.23688777E-04
  9.25953895E-04  9.60880223E-03 -1.08537410E-02 -2.51436756E-03 -4.18216767E-03
  4.50624577E-03  2.13833082E-02 -9.26056335E-03  1.37861381E-02  6.24768432E-03
  3.04280372E-02 -1.41301333E-02  7.61658215E-03  6.83157300E-03  2.92491442E-02
 -7.82620545E-03 -1.05048351E-02  2.08215611E-03  8.28027794E-04  1.25535140E-03
  3.57702822E-04  1.44949007E-04  2.08728956E-04  2.53269814E-04 -9.39381924E-05
  6.98348340E-04  5.07423892E-04 -2.17984873E-04 -1.56805117E-04 -8.27059692E-05
 -1.58134059E-03 -2.63449524E-03  9.25517796E-03  1.53630795E-02  4.15353370E-04
  8.79640486E-03  1.36498169E-02  2.16216733E-02  6.90241674E-04  2.14971022E-03
  7.95023364E-03  2.04330624E-02 -3.03776627E-04 -7.99335888E-03  3.91788001E-04
  1.47386440E-03 -4.97278965E-04  2.59808948E-05  7.86849083E-05 -2.61192848E-05
  2.76112049E-04 -2.53118310E-04 -4.08930429E-04  2.90365242E-04 -1.77497006E-04
  1.74012391E-05 -6.11192647E-04 -2.96980885E-03 -4.93765793E-03 -4.42858579E-04
  2.53189461E-02  7.76122843E-03  1.62218956E-02 -1.36717463E-03  3.62472090E-02
  1.19315352E-02  1.02843006E-02  2.63400233E-03  3.47167368E-02  6.71188277E-03
 -1.17261746E-02  2.64474863E-03  5.14332829E-04 -1.17277111E-03  2.51288335E-04
 -2.56605686E-04 -1.42645191E-04  4.32513065E-04 -2.28068344E-05  1.24654559E-04
 -8.67559583E-04  5.23361662E-04  1.19018077E-04 -5.27345733E-04 -9.20536464E-03
 -1.44757503E-02 -1.19285404E-02  1.49166902E-01 -3.92290897E-04 -6.22480910E-04
  3.79440584E-04  1.69006851E-03  1.54200694E-02  1.93792505E-03  5.62526648E-04
  2.50109604E-03  3.05597025E-02  2.39770525E-04  1.17886519E-04  6.01784027E-04
  8.48373207E-03 -1.23143341E-04  5.45242315E-06  2.76107865E-05  1.17562743E-02
 -1.79076636E-03  8.36848987E-04  1.11589236E-02  2.86768622E-04 -1.69370041E-04
 -1.61694603E-03  4.81995251E-03  2.51739157E-02 -2.85775394E-04  1.23862042E-04
  3.59752870E-03  5.96779830E-03  1.26568448E-03 -2.00481963E-02  1.06576281E-02
 -1.92463977E-02  2.27660979E-03 -2.90404717E-02  1.67347988E-02 -2.09368121E-02
 -7.75348548E-04 -3.33010291E-02  1.37793725E-02  9.69437287E-03  2.00232071E-04
  9.19796422E-04 -6.64828536E-03 -2.47362388E-04 -1.50378195E-04 -3.66182992E-04
 -3.16875641E-04 -2.33990509E-05 -1.30516732E-03  1.78407073E-04  2.63863242E-03
 -2.95496658E-05  6.75027431E-04 -8.65503231E-04 -1.43554369E-03  5.80454879E-03
  3.13396682E-03 -8.52573319E-03  4.62370210E-03  8.77638913E-03  4.44851283E-03
 -1.24863443E-02  5.19221209E-03  7.38282550E-03  6.11544132E-03 -8.76827045E-03
 -2.26068518E-03 -7.47134196E-05 -4.15591315E-04 -6.58618842E-03 -7.54833047E-07
 -1.81127392E-06  1.46551665E-04  2.64791420E-05 -1.66197943E-04  1.20374164E-04
  6.92919527E-04  5.27182693E-04  3.76223214E-04  4.41069817E-04 -2.60280707E-03
 -4.31732301E-03 -7.31124498E-03  1.58325932E-02  9.52846199E-04  1.39137921E-02
 -1.13878698E-02  2.30874319E-02  1.98092692E-03  1.53773145E-02 -6.92765205E-03
  2.57737720E-02  2.23763238E-03 -6.88330015E-03 -2.25159772E-04 -9.17085919E-04
 -6.56415958E-03  1.04775842E-04 -1.03549294E-04 -9.81792595E-05  3.52490145E-04
  1.56315812E-04  5.98861205E-04 -2.87071981E-04  1.83746575E-03 -2.19491445E-04
 -1.18608122E-03  1.68798830E-04  2.65451334E-04  2.19944261E-04  9.67458162E-04
  2.01882564E-01 -2.95496020E-03 -3.46757000E-03  5.88383320E-03  2.60315908E-02
 -4.77354289E-04 -2.85671628E-03  3.26956928E-03  1.44716713E-02 -2.65993691E-04
 -1.29217866E-01 -9.85907061E-03 -4.35251004E-02  8.00502045E-04  1.07646825E-02
 -3.61284393E-04 -1.61600224E-03  3.00845763E-05 -8.40021233E-03 -1.15347131E-04
 -5.07491646E-04 -1.31438412E-02  6.26473209E-03 -2.91383408E-03 -4.21450351E-05
 -1.76197218E-04 -4.56308314E-03  2.17550714E-03  2.04372104E-03  3.25394102E-03
 -3.48517265E-03 -2.27307710E-02  6.11355372E-03 -9.93446735E-03 -4.87948555E-03
 -3.27285383E-02  9.28221286E-03  3.53326593E-03 -5.07308548E-03 -2.41311639E-02
  1.73852777E-03  2.05810970E-02  3.36206866E-04  1.19713544E-02 -8.39111505E-03
 -2.85708399E-04 -5.92162887E-05  2.97417464E-04 -4.47238201E-05  1.08722361E-04
 -4.49696248E-04  1.75930141E-04  2.55116348E-03  7.92363538E-04  4.07166334E-04
  2.04320654E-03  3.25306661E-03 -1.06783221E-02 -2.12409108E-02 -1.04304478E-03
 -9.93188014E-03 -1.58413308E-02 -3.04584580E-02 -1.62454179E-03  3.54284978E-03
 -6.70164937E-03 -2.37944611E-02  1.12432209E-04  2.05749310E-02  1.06630462E-02
  9.83204187E-03  1.87714174E-03  7.51306682E-05 -1.20245920E-04 -5.10818236E-05
 -3.80603092E-04 -1.41819692E-04  7.28933269E-04 -4.28526806E-04 -5.44287963E-04
 -1.12115063E-03 -2.29523441E-03  2.04429805E-03  3.25487523E-03 -1.06272341E-03
 -2.34622979E-02 -3.83170809E-03 -9.93744502E-03 -1.18732598E-03 -3.38432825E-02
 -5.87502099E-03  3.53264865E-03 -4.52434845E-03 -2.42996881E-02 -5.22318296E-04
  2.05941539E-02 -3.14203864E-03  1.30208809E-02  5.87844954E-03 -1.03502894E-04
  1.75187497E-04 -2.65394929E-04 -6.63211001E-05  2.66811104E-04  2.02927237E-04
  2.58620454E-04 -1.97807156E-03  1.08469652E-03  1.53003296E-03 -1.46396339E-01
 -2.47947398E-01  1.03467881E-02  4.57275896E-02 -8.38630411E-04  7.76325546E-01
  7.14964478E-03  1.12995105E-02  1.58081085E-02 -3.05813390E-02  5.56219932E-04
 -3.49871351E-02  3.45256051E-02 -4.51071642E-02  8.21816247E-04 -3.82462335E-03
  9.89818173E-03 -1.06584734E-02  1.68377941E-04  2.21294078E-03  1.67802845E-02
 -3.90517370E-04  5.80071417E-06  4.80927358E-04  1.77329230E-03 -2.23473558E-04
  1.15321095E-02  1.18110285E-02  1.63539069E-03  4.16896473E-04  2.05932338E-04
  2.00830988E-02  3.04184720E-02  6.21862859E-04  1.03751386E-03 -1.21491663E-02
  2.55876871E-03  5.34453257E-03 -3.28417361E-03 -1.78415364E-02  3.59719513E-03
  8.13027121E-03 -6.14874177E-03 -1.28426846E-02 -9.76492937E-05  7.32961289E-03
  3.91841646E-04 -8.74695084E-03  2.86251902E-03  4.52428853E-04 -1.66834892E-05
  3.71726205E-05 -1.75231883E-04  8.55335296E-05  1.82531395E-04  7.28529177E-05
 -4.94430900E-04  9.45665825E-04  5.92602238E-05  1.02398693E-03 -5.80441492E-03
 -9.61445130E-03  2.38682195E-02  2.92834926E-02  7.15244418E-03  3.10632345E-02
  3.65142965E-02  4.16995150E-02  1.09667084E-02  3.16352321E-02  3.19984838E-02
  4.92903559E-02  7.82656809E-03 -1.67690625E-02 -9.78989131E-03  9.83350690E-04
 -1.30899242E-04  1.86598875E-04  7.69978221E-05 -2.21523125E-04  3.27746752E-04
 -8.29499331E-04 -7.01260842E-04  7.02567038E-04  6.43645170E-04  3.26209608E-03
  2.62079494E-03  2.78410850E-03  4.62156449E-03 -3.85292211E-03 -1.13705043E-02
 -1.28683397E-02 -1.48392667E-02 -5.00098575E-03 -1.67494981E-02 -1.96142988E-02
 -1.88849716E-02 -4.05787063E-03 -2.25304116E-02 -1.56490441E-02  6.11977390E-03
 -8.35940236E-03  3.45419746E-03 -4.64841140E-04 -1.80474251E-04  1.12682793E-04
  3.51350024E-04 -2.17548169E-04 -2.77306888E-05  1.03151059E-04  3.15930720E-04
 -1.68469244E-03  1.51523610E-04  2.43855991E-03 -2.17267280E-03 -3.63180165E-03
  2.86981552E-01 -1.65161310E-02  3.04247638E-04  1.25546798E-02  4.13452184E-01
  3.16196387E-02  4.99709422E-02 -3.05753897E-02 -1.12505396E-01  2.47720311E-03
 -1.54726483E-01 -4.50964746E-02 -1.54743868E-01  3.65483927E-03 -1.69419392E-02
 -1.06257777E-02 -3.47742912E-02  8.66398329E-04  9.77286071E-03 -3.86311010E-04
  1.51626042E-02  3.12108739E-05  1.11302467E-02 -2.22048559E-04  1.02649914E-03
  1.50597240E-02 -1.10902626E-02  1.16516928E-02  2.04750579E-04  1.34753085E-03
  1.43333511E-02 -1.58744661E-02 -3.76488648E-03 -6.21032218E-03  6.87182521E-03
  3.22465199E-02 -1.34263341E-02  2.02930285E-02  9.53763785E-03  4.59024883E-02
 -2.05054981E-02  1.10940064E-02  1.03522934E-02  4.39132053E-02 -1.12329770E-02
 -1.57064283E-02  3.03581755E-03  1.07499755E-03  1.99940786E-03  5.21754883E-04
  2.09340696E-04  2.95648951E-04  3.69229740E-04 -1.38825515E-04  1.00171841E-03
  7.16057762E-04 -3.95532824E-04 -2.62055995E-04 -1.27619311E-04 -2.42911802E-03
 -3.99636841E-03  1.38539217E-02  2.37005443E-02  5.87609445E-04  1.31554448E-02
  2.04429632E-02  3.33927035E-02  9.87161845E-04  3.22960139E-03  1.19283246E-02
  3.14005309E-02 -4.93734824E-04 -1.21350413E-02  3.44543143E-04  2.07146061E-03
 -7.68735048E-04  3.69602063E-05  1.16435546E-04 -3.61003730E-05  4.10058385E-04
 -3.61496665E-04 -6.19303259E-04  4.30276673E-04 -2.34355024E-04  5.22734086E-05
 -7.85729751E-04 -4.41684100E-03 -7.29098575E-03 -2.82888729E-04  3.78471848E-02
  1.11752084E-02  2.37772727E-02 -1.47819730E-03  5.41881454E-02  1.71987162E-02
  1.49314673E-02  4.33100094E-03  5.16933428E-02  9.56014603E-03 -1.74434409E-02
  3.91884121E-03  5.94507938E-04 -1.82208611E-03  3.65788408E-04 -3.70775704E-04
 -2.02166576E-04  6.27771966E-04 -3.79809621E-05  1.64020669E-04 -1.24106800E-03
  8.08331010E-04  1.22398280E-04 -7.96814251E-04 -9.60308509E-03 -1.60516777E-02
 -1.65167563E-02  2.17697730E-01  1.33968559E-03  5.54833797E-02 -2.27788843E-02
  3.17899042E-01 -5.80445335E-04 -9.17201762E-04  5.56646820E-04  2.47971145E-03
  2.26908172E-02  2.83987559E-03  8.22414449E-04  3.65739894E-03  4.46673409E-02
  3.15397109E-04  1.69496955E-04  8.66022304E-04  1.23407179E-02 -1.77554618E-04
  6.01628019E-06  3.17065945E-05  1.68712432E-02 -2.52484979E-03  1.27349199E-03
  1.60340833E-02  3.73085245E-04 -2.23449719E-04 -2.25331015E-03  7.04914511E-03
  3.62648671E-02 -4.63076036E-04  2.04878594E-04  5.15275286E-03  8.54035518E-03
  1.90187861E-03 -2.83371383E-02  1.48808380E-02 -2.75404230E-02  3.38940947E-03
 -4.10426637E-02  2.34113608E-02 -3.01190310E-02 -1.00849527E-03 -4.73499381E-02
  1.93471944E-02  1.37982256E-02  3.19334685E-04  1.36986625E-03 -9.54208908E-03
 -3.47471876E-04 -2.13769476E-04 -5.39334093E-04 -4.60262279E-04 -3.50998699E-05
 -1.84547902E-03  2.63140853E-04  3.74635461E-03 -5.87357653E-05  9.63831752E-04
 -1.23602082E-03 -2.04933428E-03  8.28231690E-03  4.34549935E-03 -1.25998880E-02
  6.60350980E-03  1.25227039E-02  6.16404532E-03 -1.84440621E-02  7.46644215E-03
  1.05628134E-02  8.60732374E-03 -1.30163910E-02 -3.20065855E-03 -8.76327528E-05
 -6.14244056E-04 -9.51753983E-03  5.80535121E-07 -4.43098135E-06  2.10214971E-04
  3.54521469E-05 -2.41314719E-04  1.76431056E-04  9.83886303E-04  7.58872922E-04
  5.32733205E-04  6.22205335E-04 -3.72263324E-03 -6.17102474E-03 -1.05542565E-02
  2.23315563E-02  9.84967002E-04  1.98913879E-02 -1.64274202E-02  3.25645834E-02
  2.28709559E-03  2.21167357E-02 -1.00432250E-02  3.65852720E-02  2.79248874E-03
 -9.77273543E-03 -3.73882003E-04 -1.34432437E-03 -9.44677883E-03  1.49993653E-04
 -1.43087846E-04 -1.49579648E-04  5.09505144E-04  2.30965032E-04  8.54592405E-04
 -3.92723307E-04  2.61001328E-03 -3.01439520E-04 -1.68112778E-03  1.76131986E-04
  2.94420186E-04  3.04251095E-04  1.33970797E-03  2.90688256E-01 -1.01778420E-03
  4.19179429E-04  1.84787734E-03  4.18564394E-01 -4.55550673E-03 -3.16907750E-03
  4.89156112E-04  2.16837382E-03 -4.06280127E-05 -1.22151291E-02 -3.61204347E-03
 -1.59762973E-02  2.91458008E-04 -1.15430333E-01 -9.55746393E-03 -4.22194163E-02
  7.75785372E-04  1.01254281E-02 -1.97408670E-04 -8.90963830E-04  1.65524382E-05
 -5.86921176E-03 -7.95780200E-05 -3.54338101E-04 -9.18245849E-03  4.37620802E-03
 -1.80006579E-03 -2.43323480E-05 -1.08442549E-04 -2.81877772E-03  1.34046872E-03
 -1.06203084E-03 -1.54084734E-03 -5.19075765E-03 -2.20799572E-02 -3.11652780E-04
  3.53912655E-03 -7.44131930E-03 -3.18122462E-02 -3.18970576E-04  1.17846637E-02
 -6.69677686E-03 -2.33580465E-02 -4.49962236E-03  1.60245097E-02  1.29083456E-04
  9.71452830E-03 -7.30811635E-03 -4.31226497E-05  4.65492426E-05  3.13479768E-04
  4.60998541E-05  7.67650912E-05  4.03472041E-04  5.85682993E-04  2.41963115E-03
  8.59742424E-04  3.62921906E-04 -1.06272057E-03 -1.54157292E-03 -4.28467823E-03
 -2.22524799E-02  5.84773879E-04  3.53979910E-03 -6.29897694E-03 -3.20275090E-02
  8.09481180E-04  1.17892704E-02 -4.67493273E-04 -2.46290853E-02  1.68809169E-03
  1.60219446E-02  9.13931211E-03  7.85169424E-03  1.65055813E-03  3.24451929E-05
 -3.17974544E-05 -7.53859393E-05 -1.56183280E-04 -2.79863210E-04  3.51976944E-04
 -4.47171733E-05 -6.11155926E-04 -3.78726063E-04 -2.56682856E-03 -1.06190355E-03
 -1.54047045E-03 -5.50279838E-03 -2.19975315E-02  9.41826593E-04  3.53725818E-03
 -7.83544750E-03 -3.17101980E-02  1.25977340E-03  1.17838247E-02 -8.80214736E-03
 -2.27383109E-02  4.10741592E-03  1.60344768E-02 -2.90668082E-03  1.06288974E-02
  5.14279002E-03  4.16935627E-06 -1.48815739E-05 -2.38579090E-04  1.00109149E-04
  2.07727584E-04  4.66932510E-04 -5.24927887E-04 -1.73506718E-03  1.43389521E-03
  1.29490007E-03 -1.48489419E-01 -2.30579117E-01  1.43077767E-02  6.32414785E-02
 -1.15799969E-03  6.54348011E-01  1.87297542E-02  8.27866014E-02 -1.51582518E-03
  5.58962173E-01  6.08942202E-03  9.15660107E-03  1.08871200E-02 -2.16589960E-02
  3.94476938E-04 -2.66762575E-02  2.57634248E-02 -3.21060344E-02  5.85985639E-04
 -1.66905720E-03  7.59436039E-03 -7.52396525E-03  1.16475653E-04  1.58573240E-03
  1.44951303E-02 -5.83674443E-04  9.54520831E-06 -2.88829295E-04  2.00126112E-03
 -3.26491569E-04  9.63601202E-03  9.92008200E-03  4.04770674E-04  1.20041836E-03
 -4.85710072E-05  1.68026700E-02  2.49138910E-02  7.59082920E-04  1.28018392E-03
 -8.75766208E-03 -6.38177816E-04  5.16642658E-03 -4.04003473E-03 -1.28913523E-02
 -9.97300750E-04  7.87076618E-03 -5.86706471E-03 -9.27424355E-03 -3.52957312E-03
  6.73743612E-03  8.53223079E-04 -7.16092996E-03  2.02997788E-03  2.32646535E-04
 -4.66807641E-05  3.13559050E-06 -1.27721981E-04  6.80659245E-05  1.63533595E-04
 -2.50882373E-05 -4.81896050E-04  9.50768406E-04  6.44413581E-05  8.53542972E-04
 -4.05243695E-03 -7.00331369E-03  2.29037955E-02  3.42616020E-02  5.53295482E-03
  2.36988236E-02  3.48447670E-02  4.89861481E-02  8.54168493E-03  2.38901559E-02
  2.97590557E-02  5.30952881E-02  5.89661553E-03 -1.50658874E-02 -8.47142018E-03
  1.95584296E-03 -3.30190171E-04  1.06263727E-04  8.42689910E-05 -1.62246100E-04
  3.15611792E-04 -5.83130120E-04 -7.29368635E-04  6.13409776E-04  7.30295845E-04
  2.86756090E-03  2.96383360E-03  2.37919454E-03  4.06895214E-03 -2.57896848E-03
 -1.64827630E-02 -1.10122249E-02 -1.33756543E-02 -3.18971839E-03 -2.40910098E-02
 -1.68483029E-02 -1.59010741E-02 -3.10683806E-03 -2.73171883E-02 -1.30476752E-02
  6.17333878E-03 -7.22809691E-03  2.15090202E-03 -2.25262753E-05 -1.51716392E-04
  1.46203890E-04  2.39453600E-04 -1.80451387E-04  2.74888711E-05  1.45979208E-04
  3.47701134E-04 -1.77385195E-03  2.84316191E-04  2.29551539E-03  2.38737807E-06
 -7.91823676E-04  2.44114579E-01 -1.98618797E-02  3.66051691E-04  6.05437315E-03
  3.51626112E-01 -2.77904300E-02  5.11829868E-04  1.07975983E-02  3.00075720E-01
  2.69323618E-02  4.04973693E-02 -2.16561933E-02 -7.99925972E-02  1.75437938E-03
 -1.17984726E-01 -3.21007553E-02 -1.08956758E-01  2.60122736E-03 -7.39765401E-03
 -7.49657585E-03 -2.39217620E-02  6.11669525E-04  7.00106171E-03 -5.79838948E-04
  1.20660095E-02  4.70388906E-05  8.60084826E-03 -3.25700140E-04  8.40964591E-04
  1.12628815E-02 -8.64886574E-03  9.29605152E-03 -5.08213589E-05  1.13196514E-03
  1.09722765E-02 -1.26726171E-02 -1.51707691E-03 -2.73068535E-03  6.73274320E-03
  2.89604737E-02 -7.93538226E-03  1.02386479E-02  9.45268456E-03  4.12907425E-02
 -1.22441551E-02  4.20006975E-03  9.65888645E-03  3.86398237E-02 -5.79141483E-03
 -1.23938458E-02  2.55250900E-03  8.77001017E-04  1.96222934E-03  3.19077589E-04
  1.19026229E-04  1.86148450E-04  2.47799816E-04 -1.10231588E-04  3.81016166E-04
  3.34021091E-04 -6.04126803E-04 -3.55904218E-04 -1.33214984E-04 -5.17038405E-04
 -1.00935540E-03  7.92001348E-03  2.00978223E-02 -2.85080629E-04  4.47608798E-03
  1.16372222E-02  2.83951431E-02 -3.42265004E-04 -1.99150304E-03  5.97043676E-03
  2.59557958E-02 -1.21132890E-03 -9.08330774E-03  7.32891251E-05  1.46351016E-03
 -6.54705254E-04  5.36940458E-05  5.25340953E-05 -1.09325617E-05  2.34525820E-04
 -2.06763900E-04 -3.37718438E-04  1.68152416E-04 -1.25541525E-04 -3.01879116E-04
 -3.59790838E-04 -2.00537459E-03 -3.57132716E-03  2.46606903E-03  3.44655960E-02
  6.82942837E-03  1.30532652E-02  2.77347469E-03  4.93900640E-02  1.06472180E-02
  7.22350143E-03  6.58295236E-03  4.61840340E-02  5.19728579E-03 -1.40054283E-02
  3.51083795E-03  5.57941323E-04 -1.80479756E-03  2.44605176E-04 -2.21739537E-04
 -1.31518131E-04  4.13766545E-04 -4.28272269E-05 -6.54546394E-05 -5.94557946E-04
  8.70519243E-04 -2.93213814E-04 -7.84914275E-04  1.85373917E-05 -3.48958735E-03
 -1.98589149E-02  1.60794391E-01  1.61054743E-03  2.67358092E-02 -2.77853216E-02
  2.35048259E-01  2.25357158E-03  4.77039458E-02 -2.98019303E-02  1.75042748E-01
 -4.94417645E-04 -7.43412825E-04  3.94885870E-04  1.75648757E-03  1.57628295E-02
  2.16608401E-03  5.86633673E-04  2.60358655E-03  3.29818738E-02  1.39334543E-04
  1.17462362E-04  6.11209472E-04  9.32323980E-03 -1.26967575E-04  9.69056651E-06
  4.72690289E-05  1.46291677E-02 -2.57584163E-03  4.84762711E-04  1.35579299E-02
  5.79897573E-04 -3.26449847E-04 -2.63406964E-03  4.83384694E-03  3.00405375E-02
  3.61105397E-05 -4.94537222E-05  3.83525285E-03  6.60447802E-03 -7.18540322E-04
 -3.34135642E-02  1.40707748E-02 -2.21323545E-02 -4.71871507E-04 -4.83654277E-02
  2.20166583E-02 -2.36414092E-02 -3.78876047E-03 -5.13694575E-02  1.74951003E-02
  1.27684751E-02 -1.81241763E-04  1.29821886E-04 -8.43591864E-03 -3.35032352E-04
 -1.83540182E-04 -3.42818559E-04 -3.42848017E-04 -1.86528037E-05 -1.55536660E-03
  3.32849050E-04  3.83452427E-03  2.09895989E-04  9.13939819E-04 -9.49134355E-04
 -1.63187310E-03  7.46226305E-03  6.12996307E-03 -8.74506396E-03  5.44499652E-03
  1.12767056E-02  8.75328494E-03 -1.28452141E-02  5.96290268E-03  9.34855579E-03
  1.02669356E-02 -8.89637386E-03 -3.00807603E-03 -1.95025547E-04 -1.97252625E-04
 -7.73150196E-03 -7.11361357E-06  1.88206372E-05  1.82267717E-04  4.38351508E-05
 -1.81263901E-04  1.21226071E-04  8.77935724E-04  6.32193735E-04  4.98906460E-04
  7.00367935E-04 -2.81254405E-03 -4.83936592E-03 -7.05608207E-03  2.58941737E-02
  2.39330587E-03  1.61815644E-02 -1.12398449E-02  3.76758964E-02  4.22530315E-03
  1.75059999E-02 -5.97094542E-03  3.93026418E-02  3.79824729E-03 -9.11436647E-03
  2.57016851E-04 -4.27795215E-04 -8.04728105E-03  1.31745896E-04 -1.51783982E-04
 -5.71205600E-05  3.93919567E-04  1.49365914E-04  6.73342838E-04 -3.24950537E-04
  2.55635486E-03 -5.39806953E-04 -1.70686561E-03 -1.97899933E-07  6.41831065E-05
  3.66034088E-04  1.61038293E-03  2.48573070E-01 -4.90793016E-04  5.11805029E-04
  2.25333459E-03  3.57864320E-01 -8.73256600E-04  5.49083720E-04  2.41654875E-03
  3.06767610E-01  1.26348569E-04 -1.11500181E-03 -4.59562482E-03 -2.03464184E-02
  3.70437567E-04  7.15621719E-03 -6.00128076E-03 -2.65845770E-02  4.84612775E-04
 -9.68218748E-03 -8.88682325E-04 -3.94336408E-03  7.21726602E-05  4.05155371E-04
  7.73223576E-04  3.42255535E-03 -6.28383402E-05  2.54726463E-03  3.64316147E-05
  1.53912193E-04  3.98825937E-03 -1.90314913E-03  2.70806371E-03  4.08501963E-05
  1.63283416E-04  4.24147566E-03 -2.02826130E-03 -5.45821520E-03 -7.98940539E-03
  1.09657448E-03  1.27331720E-02 -6.43656416E-03  2.05925331E-02  1.41737647E-03
  1.83936038E-02 -9.87326199E-03  1.60360826E-02  1.71431639E-03  1.62547540E-02
 -7.11958440E-03 -2.09011890E-03  1.78088793E-04  2.10812720E-04  4.36229847E-04
  2.46060848E-04  8.56931207E-05 -1.35609647E-04  3.39156628E-05 -5.19841363E-05
  9.09484415E-04  3.07049890E-04 -1.09480825E-03 -3.09155084E-04 -1.62328585E-04
 -5.45639374E-03 -7.98705549E-03  8.91068882E-03  1.11430509E-02  1.34955412E-03
  2.05877963E-02  1.34325926E-02  1.59459715E-02  2.09716766E-03  1.60281180E-02
  1.03038375E-02  1.45086484E-02  1.44196105E-03 -2.08720802E-03 -3.81618035E-04
  3.31132753E-04 -1.17995030E-04 -8.31823533E-05  1.05683878E-04  9.88821697E-06
  2.68225479E-04  1.06790515E-05 -6.67447579E-04  5.14222487E-04  1.43484483E-04
  1.03830548E-03  6.58874166E-04 -5.46070631E-03 -7.99277779E-03 -1.55525901E-03
  1.35182360E-02  4.40367388E-03  2.06001837E-02 -2.65812630E-03  1.96015047E-02
  6.79053045E-03  1.60411005E-02 -1.20192081E-03  1.71168066E-02  4.80134175E-03
 -2.09228088E-03  3.63788826E-04  1.52703387E-04 -3.31102435E-04  8.49250835E-05
 -1.88338561E-04  1.40852867E-04  8.55424437E-05 -1.42830670E-04  1.21428306E-04
 -8.17617381E-04  9.73611223E-04 -1.61969196E-04 -7.65075183E-04  2.72398611E-03
  3.52626739E-03  6.87201491E-03  3.04254268E-02 -5.59417948E-04 -7.09677683E-03
  1.01085055E-02  4.47535965E-02 -8.22799507E-04  1.55957944E-04  7.40101675E-03
  3.27656981E-02 -6.02777638E-04  1.07296781E-02 -1.84456516E-04 -1.82339931E-05
  1.50258634E-03 -2.40299603E-04  5.40393418E-06 -8.22587447E-04  2.25349688E-03
 -7.56693806E-04  1.51719973E-05  5.88222002E-04 -3.02000766E-04 -4.50296845E-04
  6.18200276E-06 -3.29555375E-06  7.24913131E-04 -4.37025716E-04  8.04365558E-06
  1.17759788E-04 -3.16193848E-04  7.14880443E-05  7.77547804E-05  1.23050836E-03
  4.23974118E-04 -6.91728661E-04  1.70616084E-04  7.15655092E-04  3.12428719E-03
  3.78191570E-06  6.25655862E-05 -6.20025408E-03 -5.01484731E-04  1.76705913E-03
 -3.88834959E-04 -8.94904720E-03 -7.09842165E-04  2.59914868E-03 -4.73202076E-04
 -7.33260797E-03 -1.00092587E-03  2.05302229E-03  1.81886872E-04 -1.01473868E-03
  2.94279665E-04  1.93183887E-04 -3.57843478E-05  5.02994596E-05 -1.21283848E-05
  5.65036456E-06 -3.94590450E-06 -1.27939684E-04  3.02030007E-04  1.36216937E-04
  8.38477501E-05 -5.24070734E-05  3.17054325E-03  4.40670051E-03  1.06245829E-03
 -8.34183051E-05  1.87274284E-03 -1.05772674E-02  1.45222384E-03 -1.82722944E-04
  2.69202546E-03 -8.50425744E-03  1.06654881E-03  9.68469219E-04  2.06462425E-03
 -2.80252561E-04 -1.15141795E-05 -1.15074266E-04  2.83040191E-04  3.18584040E-05
  1.17601834E-05 -2.01387579E-05  5.83462395E-06 -8.67898485E-05  1.59358464E-04
  1.12454639E-05  2.68376075E-05 -1.48375782E-05  3.29255390E-05 -1.06191510E-03
 -1.39950763E-03 -3.42297762E-03 -1.92254927E-03 -3.59199503E-03  3.04104467E-03
 -4.91272836E-03 -2.73725781E-03 -5.22201263E-03  2.22905502E-03 -4.30360153E-03
 -3.10228749E-03 -4.05839105E-03  3.33282693E-04 -6.04442689E-04  2.49863431E-04
 -4.85080861E-04 -5.76219077E-05  6.24123282E-06  1.52227278E-05 -1.40612896E-05
 -1.51497784E-05 -1.81944658E-04 -1.08376711E-04 -2.09763057E-04  1.82694241E-04
  7.35944502E-05 -1.10324005E-03 -1.68097273E-03  2.13303667E-02 -5.14697083E-03
  9.44276527E-05  4.68291390E-03  3.07097921E-02 -7.50728502E-03  1.37685860E-04
  3.91475083E-03  2.61454125E-02 -6.46712864E-03  1.18639797E-04 -5.26560386E-04
  2.87752244E-03 -8.17838438E-04 -8.17905765E-05 -2.40536808E-04  4.87625581E-04
  2.04432889E-05 -3.64316212E-03 -7.57984464E-04 -9.31412530E-04  6.23761121E-05
  2.60173114E-03 -4.49993301E-04 -2.19432820E-03  3.70535955E-05 -1.49329854E-05
 -4.36779472E-04 -1.10799826E-03  3.53235129E-05 -8.07919904E-04  7.08156228E-05
 -4.37920461E-05 -1.25132109E-03  3.10543643E-04 -9.94784195E-04  1.68514386E-04
 -3.85056893E-05 -1.59124220E-03 -2.32642635E-05  3.22814863E-03  4.68187953E-03
 -4.12885030E-04 -6.41450183E-03 -1.54678575E-03 -1.20501031E-02 -5.39821488E-04
 -9.30412649E-03 -2.01617058E-03 -1.02400848E-02 -4.80010380E-04 -7.92922011E-03
 -1.44438935E-03  3.27898796E-04  1.34962872E-04  4.31328587E-05 -4.73849470E-04
  5.76937868E-06  1.44413186E-06  7.73122975E-05  1.63529903E-05  1.60033597E-05
  4.02470270E-06  1.00329542E-05  6.06392659E-04  2.14140165E-04  9.89851410E-05
  2.56962331E-03  3.77865114E-03 -4.25891461E-04 -6.82256425E-03 -8.61291048E-05
 -9.93228431E-03 -8.27638543E-04 -9.81818050E-03 -1.79616171E-04 -8.56950591E-03
 -9.20047771E-04 -8.62100027E-03 -1.55262756E-04  4.25139967E-04  4.47610523E-04
  1.97575413E-05  2.43231335E-05  3.09175741E-06 -9.51632227E-06 -1.36730372E-05
 -2.83928224E-05 -5.34397107E-05  1.34380585E-04 -8.51066960E-05 -1.47724955E-04
 -1.89944718E-04 -6.22383658E-04  3.55013486E-03  5.12363036E-03 -1.67624549E-03
 -5.85257011E-03  1.83348604E-03 -1.30863852E-02 -2.27353666E-03 -8.52978617E-03
  2.48608444E-03 -1.10567280E-02 -1.74271045E-03 -7.18429331E-03  1.85074876E-03
  2.82506410E-04 -1.54956252E-04  1.07348074E-04  4.15027231E-04  1.93187489E-05
 -8.80881064E-06 -6.04347239E-05  3.72653746E-05  4.93635549E-05  1.27876546E-04
  2.88273674E-05 -4.30340724E-04  2.90096186E-04  3.33494781E-04 -4.88284087E-03
 -7.43926420E-03 -5.14198633E-03 -2.58454147E-04  4.17646307E-04  2.07223243E-02
 -7.50010797E-03 -7.79553494E-04  6.09171992E-04  1.73256857E-02 -6.46244516E-03
 -9.84495582E-04  5.24840953E-04 -2.32117753E-03 -2.57674743E-04  1.79461327E-03
  1.53550525E-05  1.86291891E-06  5.14471136E-06  1.95210349E-05  1.55436796E-03
  6.64488727E-05  1.48832974E-05  6.13067236E-05  2.42047538E-03 -4.72087587E-05
  6.28252488E-06  3.66834985E-05 -1.96979259E-04  4.18707432E-07  8.05856567E-06
  3.53912594E-05  8.23073149E-04  2.47807301E-04  5.91324448E-04  1.08076955E-03
 -1.36115831E-04  7.14522616E-05  5.00756182E-04  1.42514607E-03  2.98832564E-03
 -3.26030167E-04  1.70372586E-04 -2.56492310E-03 -3.52343651E-03  1.69330879E-03
 -1.88211260E-03  7.32786916E-04  8.28451068E-03  2.45901596E-03 -2.64548950E-03
  1.03569233E-03  6.54275406E-03  1.63514009E-03 -3.27659911E-03  5.39105695E-04
  3.53790592E-04  3.20426827E-04  6.86133067E-05 -8.98573187E-05 -1.76825950E-05
 -3.00503647E-05 -5.76114789E-05 -4.92993600E-05  4.63032851E-06  1.03905045E-04
  1.40518218E-05  1.51940933E-04 -5.88802874E-05  9.81462153E-05  5.83927332E-04
  7.96333043E-04  1.89656767E-03 -4.30789594E-06 -6.12854934E-03 -1.84783785E-03
  2.73745685E-03 -2.48339664E-05 -8.86169568E-03 -1.44338326E-03  2.20126208E-03
  3.03206684E-04 -7.17503520E-03 -1.00312241E-04  2.41194694E-04 -1.13149293E-04
 -1.07008797E-03 -2.06074896E-05 -5.56100722E-05  6.63552170E-06  1.80328682E-05
 -2.47300178E-05 -1.08250976E-04 -2.98137294E-04  7.09527448E-06  9.02046377E-05
  3.07661844E-05  1.80978614E-03  2.47821463E-03 -3.54156765E-03  2.08929987E-03
 -2.60324186E-03 -5.79372495E-03 -5.12655948E-03  2.96406792E-03 -3.77041153E-03
 -4.55207336E-03 -3.77648707E-03  3.22742278E-03 -3.23083585E-03 -2.72870852E-04
 -5.70375765E-04  1.01500398E-05 -5.63609513E-04 -2.00492294E-05 -1.13432465E-05
 -3.11540876E-05  6.37809047E-05  3.06900297E-06 -1.94440354E-04  8.60884235E-05
  4.22140034E-05  5.68730585E-05 -1.75542103E-04  8.94580123E-05  1.36317897E-04
  9.42556435E-05  4.17157268E-04  2.24844132E-02 -3.79822000E-04  1.37438401E-04
  6.08463937E-04  3.23931298E-02 -3.17266407E-04  1.18444561E-04  5.24164669E-04
  2.75957295E-02  4.23032472E-05  4.68137829E-06  2.10388651E-05  2.93508690E-03
  2.01099754E-04  4.34680465E-04 -1.89602438E-04 -1.09095073E-03  9.37526002E-05
 -1.72915492E-03 -2.71900115E-04 -1.51447418E-03  1.25706368E-04 -7.79226751E-06
 -5.64645789E-05 -2.85223700E-04  1.98335536E-05  9.42962691E-05  4.21309864E-06
  8.18534531E-05 -1.13737229E-05  1.12709447E-04  2.89584650E-06  7.14344666E-06
  1.22289749E-04 -5.96587497E-05  1.11375744E-04  6.82053471E-06  2.39001017E-05
  9.42402306E-05 -3.22265933E-05 -4.23875052E-05 -8.08020115E-05 -9.08501289E-05
  1.70542081E-04 -1.42174974E-04  2.97098582E-04 -1.34378315E-04  2.42503231E-04
 -2.15092321E-04  1.60875210E-04 -8.94413515E-05  2.26257897E-04 -1.18868509E-04
 -1.81446373E-04 -1.21965873E-07 -1.22939807E-06  3.19733404E-05  5.27670163E-06
  3.27519236E-06  2.88438694E-06  3.49678825E-06 -8.95574284E-07  1.39301079E-05
  1.42666103E-05  6.16108935E-06  2.68800518E-06  1.38673601E-07 -2.41213156E-05
 -3.52791784E-05  9.54785457E-06 -9.81916540E-05 -6.88370236E-05  1.10488848E-04
  1.44677606E-05 -1.49780298E-04 -9.82184632E-05  4.48931487E-05 -1.54577000E-05
 -6.91961131E-05 -9.24546728E-05 -1.08952154E-04 -7.01987268E-06 -2.42519396E-05
 -1.04049776E-05  2.70143299E-06 -6.70097595E-07 -1.90030353E-06  1.38499853E-06
 -9.53105978E-06  3.23359666E-06 -4.64657026E-06 -7.06801228E-06 -6.24466531E-06
 -3.00828242E-05 -3.44450442E-05 -5.98480428E-05 -1.67970666E-04  4.76348296E-05
 -4.96454811E-05  2.09620408E-04 -2.47691632E-04  6.39536905E-05 -6.62317909E-05
  1.13767539E-04 -1.64691509E-04  8.55034997E-05 -9.09142835E-05 -1.44918468E-04
 -3.65268253E-06 -1.62867922E-05 -2.65118826E-05  2.11041557E-06 -2.78841451E-06
 -4.14699570E-06  6.99568409E-06  1.19639695E-06 -2.16610333E-06 -1.12080731E-05
 -1.39822479E-05  1.66772884E-05  6.49749606E-06 -4.30994242E-05  3.60163838E-05
  3.89405338E-04  1.71232545E-03  2.66062617E-05 -4.07562556E-04  5.72292717E-04
  2.51229247E-03  3.85499072E-05  6.30816217E-06  4.08527554E-04  1.83416347E-03
  2.77224733E-05  3.51299709E-04  2.74843717E-06 -1.87480555E-05  1.29323767E-05
  2.41736849E-05  2.77004798E-06  5.95789756E-06 -4.75525160E-05 -6.57175679E-06
 -9.76276485E-05 -2.36292349E-05 -5.57386890E-05 -1.20759547E-05 -1.68934789E-04
 -1.16816473E-07 -4.56204586E-06 -3.90498506E-06 -4.53758645E-05  1.28820744E-06
  1.58340084E-05 -3.12002251E-06 -3.69528312E-05 -4.33992367E-06  1.74527908E-05
 -2.62985984E-05  6.89385155E-06  4.11042549E-07 -5.30278711E-06  2.78194876E-05
 -5.87968421E-05  3.84614614E-06 -8.56503501E-06 -1.16261674E-05 -2.12482141E-05
  1.27966679E-04 -9.88321263E-05 -4.36167347E-05  7.66386686E-05  1.83231158E-04
 -1.41875546E-04 -6.56256973E-05  9.41681464E-05  1.54229895E-04 -1.00415333E-04
 -7.04069380E-05 -1.37645538E-05  1.25306411E-05 -1.64834314E-05  1.31787429E-05
  1.56631758E-07 -1.26518752E-06  2.46152158E-06  9.24816043E-07  9.60904299E-07
  8.31682931E-06 -7.28405355E-06  3.84341234E-06  1.53688260E-06  3.74767671E-06
 -5.51086695E-06 -1.42535759E-05  1.10313026E-04  6.70744760E-05 -1.42762681E-04
  5.91273266E-05  1.61516048E-04  9.74665454E-05 -2.04592165E-04  3.09257919E-05
  1.23627933E-04  7.45660511E-05 -1.76904405E-04 -2.58055421E-05 -4.29057697E-06
  1.05759213E-05 -5.33282791E-06 -1.87684587E-06 -1.22521163E-06 -3.68339888E-07
  1.89504924E-06  1.42079921E-06 -1.00620639E-05 -1.07695689E-05 -1.83207543E-06
  9.41020086E-06  5.32042287E-06  1.57656730E-05  3.30998755E-05  2.75085678E-05
 -3.14932496E-05 -4.32520760E-05 -1.27295138E-04  4.28510627E-05 -4.81176167E-05
 -6.59923572E-05 -1.20769925E-04  3.72116491E-05 -4.83743993E-05 -6.14748566E-05
  3.35731838E-05 -9.37924413E-06  6.11602832E-06  2.26533952E-05 -5.78849299E-07
  3.34021808E-07 -2.21274894E-07 -1.63571506E-07 -4.25302386E-07 -5.25800988E-06
  5.89883497E-06 -7.48544078E-06 -1.63699548E-07  2.57196838E-06 -5.75718290E-07
  5.12557405E-07  3.22926538E-05  1.00503772E-05 -3.96729642E-04 -5.62572252E-06
  4.57397815E-05  1.53151724E-05 -5.71430760E-04  5.45717831E-08  4.65978543E-05
  6.94502500E-06 -4.83686977E-04  4.83823362E-06 -3.65468894E-06 -1.21245062E-07
 -3.71196361E-05  3.97804399E-08  1.25106563E-06  1.21633011E-05  2.62850810E-05
 -6.49768304E-06 -8.03984807E-05 -7.23159063E-04 -1.04547651E-04 -1.19677144E-05
 -1.12940586E-04 -1.10729960E-03 -5.72744937E-07 -3.54786528E-06 -2.16087111E-05
 -2.40913254E-04  5.69066049E-06 -3.11658891E-06  4.06561409E-06 -9.02834775E-05
 -2.21888412E-05 -6.40742867E-05 -7.75729350E-05  2.48059986E-05 -1.34888990E-05
 -2.51496866E-05 -1.21988940E-04 -2.66078357E-04  3.15801593E-05 -1.43257769E-05
 -2.17472179E-05 -2.11844310E-05 -1.16816040E-04 -6.40637236E-04  2.36232247E-04
  4.20451944E-05 -1.69652968E-04 -9.28044311E-04  3.39886550E-04  2.24152512E-04
 -1.40850475E-04 -6.64166478E-04  1.83441642E-04  5.17832158E-05 -3.14673882E-05
 -8.77019886E-05  3.66995017E-05 -6.16505933E-06 -1.77189239E-06  1.75679926E-05
  7.38536690E-06  2.36474864E-06 -4.14695640E-06 -2.73506662E-06  4.55964253E-05
  2.30682248E-05  7.06373728E-06  4.95107938E-06  5.57038957E-06  7.40073690E-05
  1.38228285E-04  3.74160813E-05 -1.36859999E-05  1.06223672E-04  1.99767841E-04
  5.42084849E-05 -6.22320158E-05  6.02344854E-05  1.48347413E-04  2.43759746E-05
 -1.73502172E-05 -1.40254493E-06  2.31812113E-05  6.33224948E-05 -2.96639643E-06
 -1.81303589E-06 -1.28207211E-06  3.24504550E-06  3.11392600E-06 -1.26937649E-05
 -2.02790380E-05 -9.46074366E-06  8.64644126E-06  9.03989414E-06  1.06591091E-05
  4.93598471E-06 -2.06624282E-05  5.28209543E-04  1.22214545E-04  9.03643702E-06
 -2.94166436E-05  7.64691465E-04  1.77035395E-04 -1.42564076E-04  6.12924527E-06
  5.49327446E-04  8.28715427E-05 -6.06961319E-05  3.31724000E-05  6.43666099E-05
  4.15744035E-05 -2.59879735E-06 -5.58499015E-06  9.24128653E-06 -4.57245148E-06
 -9.46038631E-06 -1.99120999E-05 -1.06298095E-05  1.84549627E-05 -1.43914632E-05
 -2.94338245E-05 -2.60050221E-06  2.18456967E-06  9.98269162E-06  7.41765801E-05
 -1.76527471E-03 -2.46561628E-05  1.52231076E-05  1.09489226E-04 -2.54782052E-03
  3.38383726E-07  6.85192434E-06  7.62616666E-05 -2.10668261E-03  2.12540229E-05
 -1.23203921E-07 -4.75543777E-06 -1.99892381E-04 -2.15304457E-08  4.25227563E-06
  2.34140476E-05  3.14677913E-04  6.80106911E-04 -7.17028843E-04 -1.61415959E-03
  1.64367399E-05 -2.70527717E-03 -1.03695185E-03 -2.23421745E-03  2.86266738E-05
 -1.23341510E-05 -2.06810270E-04 -4.19921711E-04  8.55468704E-06  1.47527733E-04
 -5.05224374E-06  1.31136837E-04  5.87651781E-06  1.09176381E-04  1.89697820E-05
  5.94195905E-06  2.10596869E-04 -1.43199006E-04  7.23023302E-05  2.40769932E-05
  5.75766028E-08  1.37700247E-04 -2.10516529E-04 -5.00874466E-05 -8.22529394E-05
 -1.16167529E-06 -9.27956655E-05 -8.54259107E-05  2.78716512E-04 -6.21811361E-06
 -1.43788699E-04 -1.31161342E-04  1.59344104E-04  2.26443238E-05 -4.64676529E-05
 -4.78783216E-05 -2.03311652E-04  2.77052561E-05 -4.41987503E-05  1.58045436E-05
  4.66794616E-06  4.10034601E-06  1.17928159E-05  8.00930217E-06 -1.20815482E-06
  6.77894711E-06  1.88230704E-05  3.88952983E-05  1.24430433E-05 -3.56217979E-07
 -4.85439378E-05 -9.50315707E-05  3.33616956E-04  3.10672665E-04  9.89131179E-05
  3.53637767E-04  4.91041263E-04  4.39097152E-04  1.45498009E-04  1.00467747E-04
  2.88566704E-04  4.03277611E-04  9.12655111E-05 -2.69991152E-04 -1.47404502E-05
  2.65843870E-05 -9.15890596E-06 -1.62434240E-06  4.42582735E-06 -5.90078025E-07
  9.20385570E-06 -5.22792105E-06 -1.14980047E-05  1.55140862E-05 -2.62275314E-06
  1.12005009E-05 -1.29422002E-05 -5.93701803E-05 -9.80407911E-05 -2.67954458E-05
 -1.77596806E-04  1.06455708E-04  3.33498387E-04 -4.82308849E-05 -2.64572532E-04
  1.61182047E-04  2.40070638E-04  8.39704443E-06 -1.33602210E-04  9.72937254E-05
 -2.07794179E-04  3.37956146E-05 -6.20414377E-05 -7.14576528E-06  4.99353256E-06
 -2.34153768E-06 -1.06564098E-05  1.23812925E-05  5.29109125E-06  8.03002918E-06
 -1.45286887E-05 -3.30139918E-05  2.86304094E-05  1.88542005E-05 -6.74022424E-05
  5.63972413E-05 -1.54565442E-04  2.85057958E-03 -2.09646507E-05 -6.37799975E-04
 -2.08922779E-04  4.17861601E-03 -3.19042825E-05  9.78593194E-06 -2.55686861E-04
  3.07089559E-03 -1.48641769E-05  5.49748365E-04 -9.51662599E-05 -7.26574602E-06
  5.47594825E-07  3.65610966E-05  6.93921630E-07  2.18005843E-06  6.29791555E-05
 -1.49979122E-04 -3.24150944E-04 -4.47622735E-04  9.48016206E-04 -6.50409232E-06
  1.28939260E-03 -7.18215468E-04  1.33927576E-03 -1.19795344E-05  5.56293953E-06
 -1.66273830E-04  2.60038823E-04 -3.55209823E-06 -7.03277000E-05 -1.00927649E-04
 -3.91479882E-05 -3.11396662E-06 -8.96850173E-05  3.23714984E-05 -1.30286139E-05
 -1.24341043E-04 -3.25875104E-05 -8.23238226E-05  4.48606620E-05 -1.35583806E-05
 -1.78888902E-04 -2.01663051E-04  1.69733082E-05  3.21826652E-05 -2.88524053E-05
 -1.57140899E-04  1.11716059E-04 -1.17886922E-04 -3.92523068E-05 -2.23103418E-04
  1.64397007E-04 -2.65984554E-06 -6.32032853E-05 -1.83164902E-04  8.03134593E-05
  1.13928469E-04  4.65942520E-05 -2.24025591E-05 -1.54052658E-05 -5.90766338E-06
  7.62598801E-07 -1.09422001E-07 -2.03612671E-06 -1.82503596E-06 -1.71448060E-05
  1.47386123E-05 -5.19294598E-06 -3.51089392E-07 -1.76330052E-05  4.69880412E-05
  6.86921677E-05  2.40957263E-04  5.15852156E-04 -4.16912467E-08 -2.15630099E-04
  3.42632282E-04  7.52559017E-04 -1.91279171E-06 -3.05604145E-04  2.04628565E-04
  5.16952304E-04 -9.83702033E-06  6.51319806E-05  6.82119852E-05  8.00629318E-05
 -5.66621262E-06 -8.42558432E-06  4.53648830E-06  4.21328418E-06  5.96193589E-06
  1.83937026E-05 -1.43250481E-05  9.48888044E-06  1.40398146E-05  7.96687230E-06
  5.28649717E-05  1.12731974E-05  3.02702996E-05  1.58669424E-05 -4.62707502E-04
 -1.75118855E-04 -1.26699988E-04  2.65823656E-05 -6.66209522E-04 -2.55293052E-04
  6.99704159E-05 -4.80565332E-05 -4.96272149E-04 -1.44903781E-04  1.45791855E-04
  1.97542503E-05 -5.52312829E-05  2.13926432E-05 -3.66093937E-06  5.98843385E-06
 -7.94918422E-06  4.18121933E-07  3.69999899E-06 -1.43072048E-05  1.12040657E-05
 -2.18247934E-05  1.19817473E-05 -3.76499333E-06  3.21072878E-05 -2.69024495E-05
 -1.88059857E-03 -9.16889710E-04  9.99304577E-06  3.04021973E-04 -2.72072251E-03
 -1.35410267E-03  1.52367393E-05 -4.60166515E-06 -2.21273491E-03 -9.35954066E-04
  6.86592585E-06 -2.61904540E-04 -1.74644083E-04  5.31458508E-05 -1.17517821E-07
 -1.83191010E-05  1.33431287E-07 -1.18182918E-06 -1.80384259E-05  3.25351237E-05
  2.20941602E-03  2.94595728E-03 -1.05087883E-03 -3.80899002E-03 -1.55327959E-05
 -7.16287252E-03 -1.41538686E-03 -4.99913997E-03 -2.18618421E-05  6.61271422E-04
 -2.15859233E-04 -6.41458031E-04 -1.63674584E-05  3.33851935E-04  1.11278115E-04
  5.26315964E-04  1.00737556E-05  4.59494802E-04  1.44510899E-05  7.87575152E-05
  7.04840693E-04 -2.97460001E-04  4.92235082E-04  2.64853026E-05  1.44793305E-04
  6.67567194E-04 -2.35568403E-04 -2.57140885E-04 -3.66294574E-04  4.26239639E-04
  1.90341360E-03  4.91131111E-04  1.00978672E-03  5.99267684E-04  2.72069658E-03
  6.79639362E-04  6.19308054E-04  6.08764440E-04  2.43916224E-03  7.27343903E-04
 -6.75994419E-04  5.22214059E-05  2.94634056E-05  2.10548605E-04 -1.61301693E-06
  2.28253781E-06  9.36552672E-06  1.10787788E-05 -3.41567959E-06 -5.75884463E-05
 -1.59907369E-05 -3.90839534E-05 -3.21479273E-05 -9.55880165E-07 -1.12052862E-04
 -2.12615198E-04  5.12361169E-04  6.18254156E-04 -3.17602652E-05  8.19087030E-04
  7.66769308E-04  8.61793340E-04 -3.85968063E-05  3.66106227E-04  4.41839091E-04
  8.91721517E-04 -7.10792560E-05 -7.63666885E-04 -1.58767507E-04 -1.17552619E-04
 -5.67243296E-05  5.33143029E-06 -4.43032117E-07 -2.66108506E-06  1.25394917E-05
 -1.93831234E-05 -1.44084371E-05  3.79298777E-06 -4.30731879E-06  7.21869381E-06
 -1.80435017E-05 -1.96639000E-04 -3.10397331E-04  2.14773457E-04  1.37990552E-03
 -2.93048041E-04  9.86308631E-04  2.77973375E-04  1.97199097E-03 -3.98939795E-04
  5.82528137E-04  4.33737012E-04  1.78689619E-03 -4.44519115E-04 -7.30703004E-04
  9.45806272E-05 -7.86096540E-05 -1.69621958E-04  2.06936505E-06 -6.92635052E-07
 -9.68037143E-06  1.80257893E-05  4.81308919E-07 -2.94166183E-05  1.17505235E-05
  8.54835219E-06 -1.89085166E-05 -8.68359233E-06  1.76563346E-03  2.48907099E-03
  1.17505362E-03  6.70520655E-03  2.43322132E-05 -5.93103318E-03  1.75293441E-03
  9.91925851E-03  3.14140049E-05 -3.84298899E-03  1.23364657E-03  7.46084612E-03
  1.38059151E-05  1.53747710E-03 -9.14677980E-05 -2.98129765E-04  3.22691663E-05
  9.27434214E-05  5.53481789E-07  2.54458829E-06  1.44272225E-04 -6.72316631E-05
  4.19204245E-04  3.01332627E-05  4.02446735E-05  2.18048277E-04 -1.19318881E-04
 -8.09991770E-04 -9.81357438E-05  3.37870746E-04 -1.73219424E-04 -1.32397739E-03
  9.01811540E-06  8.71559600E-05 -3.55460047E-05 -3.36130925E-04  4.56337084E-06
  2.32374496E-05 -1.41803308E-06 -1.99258216E-04  2.35789635E-05  1.93559838E-05
 -1.10709734E-04 -6.39492936E-06 -2.32153521E-05  4.06995524E-05  6.70047961E-05
 -2.96614264E-04 -1.99291836E-05 -4.17537518E-05 -1.09562860E-04 -1.70661507E-04
  5.72249533E-04  5.99407132E-04  3.53907688E-04  5.18065117E-04  8.21527119E-04
  8.62817657E-04  4.91731210E-04  6.37461040E-04  6.72194503E-04  9.25783083E-04
  3.39671482E-04 -6.24782863E-05  5.96479823E-05  4.67346234E-05  1.45574708E-04
 -3.76745137E-06 -9.78513873E-06  1.20316807E-05  3.23067448E-06  4.67896142E-06
 -1.00613562E-05 -5.10012796E-05 -4.00243031E-05 -1.34129491E-05  2.95707086E-06
 -4.05998180E-05 -3.81153093E-05 -5.18126220E-05  3.76787520E-04 -4.69106797E-04
  2.03049317E-05 -7.77628915E-05  5.42672917E-04 -6.77652005E-04  2.15274441E-05
 -6.61172155E-05  4.53937864E-04 -5.30251026E-04  2.67888559E-05 -7.40913913E-06
  6.07356856E-05  3.48758416E-05 -4.51156737E-06 -1.27898079E-05 -2.54848176E-06
  5.78681019E-07  3.36895076E-06 -2.02450747E-05 -6.12424897E-05 -6.74210204E-06
 -9.25065448E-07  2.05316434E-05  1.42336439E-04  1.96516027E-04 -7.77131458E-04
 -8.55388476E-04  4.51581841E-04 -4.99719204E-04 -1.10932383E-03 -1.23390209E-03
  6.41843078E-04 -6.37553354E-04 -9.05539829E-04 -1.23279410E-03  4.67815938E-04
  5.83057970E-06 -9.99361337E-05 -9.30373824E-05  1.47112232E-04 -7.01957899E-07
 -1.06180994E-05  6.52207004E-06  1.58785482E-06 -9.66662769E-06  7.78386206E-08
 -5.13608952E-05 -4.16067445E-05  5.38520426E-05  1.15903913E-05  2.40774793E-05
  3.39379218E-05  5.93004568E-04 -1.05144244E-04 -3.61442957E-03 -8.08415354E-05
  8.53660413E-04 -1.47558309E-04 -5.20456244E-03 -5.22601857E-05  7.59851327E-04
 -1.48303277E-04 -4.48071084E-03  2.11928621E-05  4.79817118E-05 -2.20843680E-05
 -3.71618375E-04  2.29889955E-07  8.15209306E-06  3.20347923E-05 -2.48396199E-07
 -4.22229947E-06  2.85961151E-06  8.09892883E-05  1.33650365E-04  1.78243265E-04
 -1.19208347E-04 -2.65555801E-04 -2.61469050E-03 -4.33552806E-04 -1.73018228E-04
 -3.63019821E-04 -4.40001165E-03  3.95934380E-05 -3.38060290E-05 -5.44124937E-05
 -1.12137350E-03  2.01141196E-05 -1.26034982E-06  1.81896724E-05 -8.40840912E-04
  1.15914147E-04 -6.27192998E-05 -6.41029342E-04  1.98954239E-05 -8.92999341E-07
  2.03041600E-04 -2.21526276E-04 -1.59248629E-03  6.49241531E-06  1.32618287E-05
 -2.44529111E-04 -4.91198906E-04  5.45177896E-04  1.04789227E-03  6.17077847E-04
  1.91196876E-03  7.58957621E-04  1.51224978E-03  8.08177321E-04  2.32553877E-03
  7.48483927E-04  2.00494686E-03  4.09643403E-04 -3.99430193E-04  4.64808388E-05
 -4.50331132E-05  5.45821685E-04 -1.09653553E-05 -5.95301848E-06  5.02155429E-05
  2.45781766E-05  8.44002290E-06  1.33268671E-05 -6.77767658E-05 -1.09959720E-04
  5.57389725E-06 -1.77429858E-05  6.41612983E-05  1.21683625E-04  3.14325258E-04
 -4.02701018E-04 -4.96875496E-04 -4.50234248E-04  4.31814666E-04 -5.76474065E-04
 -7.10553832E-04 -5.96727787E-04  2.44635910E-04 -6.52945740E-04 -6.52078532E-04
  4.24178506E-05  5.00289361E-05 -1.58767320E-05  3.46138810E-04 -1.43833104E-05
 -1.85180920E-05 -1.13916600E-05  1.37907405E-05  1.12794278E-05 -6.61246409E-05
 -1.41871229E-04 -5.69379719E-05  2.98499157E-05 -3.41344323E-05  1.46233905E-04
  3.15826476E-04 -7.38011026E-04 -4.19416225E-04 -1.67666509E-05 -1.29162295E-03
 -1.01820444E-03 -6.16340429E-04 -6.19973498E-05 -1.63416777E-03 -8.45278018E-04
 -1.06449319E-03 -2.04881372E-04  2.26129749E-04 -8.17051305E-05  7.14411268E-05
  4.23401511E-04 -1.86440795E-05 -1.23396386E-05  1.93318706E-05 -1.48067410E-05
 -3.23061400E-05 -1.02432870E-04 -3.35254624E-05 -9.70262625E-05  4.39489284E-05
 -3.33879349E-06  1.06730624E-04  1.50463341E-04 -1.04775648E-04  1.84171767E-04
 -1.42293231E-02 -3.58521637E-04 -1.46988326E-04  2.81014943E-04 -2.04953295E-02
 -2.32399423E-04 -1.47858941E-04  1.80714774E-04 -1.74843406E-02  9.30475249E-05
 -2.20224891E-05 -4.22267584E-05 -1.51942334E-03  1.24370313E-06  3.03562980E-05
  1.35384252E-04  6.87947847E-06 -2.26734251E-06  2.03885491E-05  2.70881999E-04
  1.04683773E-03  3.45657219E-03  4.60906882E-03 -2.41155753E-03 -5.78008428E-03
  2.41529287E-04 -1.12074197E-02 -3.56995563E-03 -7.50675012E-03  3.50136204E-04
  1.03422793E-03 -6.83709624E-04 -9.23446394E-04  7.09696385E-05  5.22327463E-04
 -1.72970856E-04  9.01645914E-04  2.56243466E-06  7.21127997E-04 -2.16170627E-05
  4.37786121E-05  9.52408494E-04 -7.84883964E-04  6.92984203E-04 -4.35949550E-05
  4.39161865E-05  7.21510961E-04 -1.16595742E-03 -2.81886519E-04 -4.71900813E-04
  2.27043731E-04  1.91233514E-03  2.73910510E-05  1.60207044E-03  3.07623320E-04
  2.72196576E-03 -2.05513638E-05  9.79573508E-04  3.82272847E-04  2.57285252E-03
  2.74865772E-04 -1.18860109E-03  1.96308213E-04 -1.78689929E-04  2.71578922E-04
  7.69653573E-06  1.17875419E-05  2.38079880E-05  2.22220088E-05 -1.16794720E-05
 -4.04572700E-05  4.81982976E-05 -2.55890046E-05 -1.90448328E-05 -3.32164063E-05
 -2.29391669E-04 -2.96902411E-04  3.44579915E-04  1.92843097E-03  9.47886289E-05
  7.16004155E-04  5.03018485E-04  2.73991088E-03  1.40515816E-04 -1.08608951E-04
  1.70678313E-05  2.32615553E-03  1.01074724E-05 -9.56536776E-04 -7.24023024E-05
 -9.88559038E-06 -5.05631774E-05  4.80343015E-06  7.68599110E-06  2.49407747E-06
  1.50376872E-05 -3.38234916E-06 -6.47309434E-06  1.48813783E-05  3.17334924E-06
 -6.65540262E-05  1.40564565E-05 -3.73923467E-04 -6.22492235E-04  7.63623210E-04
  2.35913800E-03 -3.62889555E-04  2.08637216E-03  1.04148663E-03  3.37619706E-03
 -4.61709064E-04  1.58253285E-03  1.10980481E-03  3.27880331E-03 -5.77975838E-04
 -1.24994689E-03  3.75535269E-04 -1.89592468E-04 -2.50228028E-04  1.07649458E-05
  2.80394401E-06 -2.91047361E-05  3.17628302E-05  7.95160602E-06 -5.08386785E-05
  2.60794054E-05  2.44001025E-05 -3.74696001E-05 -5.05161370E-05  2.76225747E-03
  3.89400857E-03 -3.63873486E-03  1.17315604E-02  2.04594651E-04 -9.27863415E-03
 -5.14888272E-03  1.73070177E-02  2.86589332E-04 -6.01200926E-03 -4.73550433E-03
  1.31842616E-02  2.89784822E-04  2.40556016E-03 -7.52117517E-04 -3.28896918E-04
  4.50897016E-05  1.43685688E-04  2.89937136E-07  6.04200670E-06  2.51486284E-04
 -5.28357729E-05  6.55768247E-04 -2.12134433E-05  1.21718538E-05  1.20446449E-03
 -1.64742148E-03 -2.19665553E-03 -1.79658774E-03  3.42206727E-03 -1.19075048E-04
  5.34118568E-03 -3.24700363E-03  4.69823113E-03 -1.72855801E-04 -4.94246548E-04
 -9.31113695E-04  7.25922099E-04 -3.37932608E-05 -2.49093208E-04 -8.50562014E-04
 -2.18585355E-04 -1.26933181E-06 -2.59683131E-04 -6.37135035E-05 -1.49430733E-06
 -8.09103655E-04 -2.57614164E-04 -1.76132300E-04 -1.05186190E-04  1.22986619E-05
 -1.20373845E-03 -1.04094531E-03  5.54384132E-05  6.85982845E-05 -6.35298212E-04
 -4.03304006E-04  4.13187883E-04 -1.62111830E-04 -9.02836480E-04 -5.66680295E-04
  5.95376727E-04  2.77250049E-04 -8.20001756E-04 -3.69235012E-04  2.79473296E-04
  4.53459321E-04  2.85298179E-04 -7.55153006E-06 -6.01864642E-05 -2.01400403E-05
  1.64325325E-05  5.12958651E-06 -5.98463377E-06 -1.39847464E-05 -6.26474119E-05
  1.14979037E-04 -3.53344462E-05  1.46858554E-05 -9.23279956E-05  3.86793712E-04
  6.94753209E-04  3.13306241E-04 -2.34127642E-03  3.61214077E-04 -2.48072297E-03
  3.59172089E-04 -3.33460812E-03  4.92381309E-04 -2.59401648E-03  6.47336339E-06
 -3.57253378E-03  4.11052711E-04  8.61334068E-04  6.43201504E-04 -9.72440947E-05
  8.51286509E-05 -2.76481451E-05  1.80494176E-05  1.29193401E-05  1.62394256E-05
  5.08764034E-05 -4.47801097E-06  4.19963470E-05 -2.60978870E-05 -3.91664203E-05
 -1.30983841E-04 -2.00897868E-05 -1.00005843E-04 -1.31195653E-04 -2.52585265E-04
 -6.53147489E-04  5.43397064E-04 -2.01682172E-04 -3.43407564E-04 -9.15534297E-04
  1.14819443E-03 -3.18442700E-04  1.36144783E-04 -5.42801520E-04  3.05803095E-04
  2.98757860E-04 -4.61888462E-05 -1.00453028E-05 -1.64872335E-05  8.54439653E-06
 -2.99896494E-05  8.92757405E-06  4.50556746E-06 -8.35513869E-05  9.09252294E-06
  8.13804440E-06  3.26863402E-05 -1.14751086E-04 -1.31662625E-03 -1.85612308E-03
 -1.41110066E-02 -2.00979471E-03 -1.04851815E-04  4.42289040E-03 -2.03682112E-02
 -3.09011336E-03 -1.47100924E-04  2.86531953E-03 -1.72219227E-02 -1.88070325E-03
 -1.47956019E-04 -1.14675075E-03 -1.33195807E-03  5.38927348E-04 -2.20115554E-05
 -6.85542688E-05 -2.80764672E-06 -2.24644506E-06 -5.20064111E-05  1.67513903E-04
 -2.77561051E-04 -4.74855544E-05  8.65279823E-06 -6.17858783E-05  1.15151750E-03
Mulliken Charges                           R   N=           5
  1.24306293E+00 -3.10806072E-01 -3.10668613E-01 -3.10806391E-01 -3.10781856E-01
Optimization MaxStp                        I                2
Optimization Job offset                    I                0
Optimization Num results per geometry      I                2
Optimization Num geometry variables        I               15
Opt point       1 Results for each geome   R   N=           2
 -4.37637587E+02  0.00000000E+00
Opt point       1 Geometries               R   N=          15
  9.46295204E+01  6.70802778E+01  6.18786760E+01  9.50814106E+01  6.61630893E+01
  6.41693599E+01  9.22076017E+01  6.67602250E+01  6.13119176E+01  9.60484272E+01
  6.58718189E+01  6.01997292E+01  9.51826692E+01  6.95264111E+01  6.18338387E+01
Opt point       1 Gradient at each geome   R   N=          15
 -2.64715696E-04 -1.51880850E-05 -4.11039299E-05  8.91534736E-05 -3.56960187E-05
  1.42105862E-04  2.09646330E-05  4.00270533E-05 -2.05114528E-05  1.13828790E-04
 -3.37037490E-05 -7.60802945E-05  4.07687992E-05  4.45607995E-05 -4.41018432E-06
Optimization Number of geometries          I   N=           1
           1
ONIOM Charges                              I   N=          16
           0           0           0           0           0           0
           0           0           0           0           0           0
           0           0           0           0
ONIOM Multiplicities                       I   N=          16
           1           0           0           0           0           0
           0           0           0           0           0           0
           0           0           0           0
Atom Layers                                I   N=           5
           1           1           1           1           1
Atom Modifiers                             I   N=           5
           0           0           0           0           0
Force Field                                I                0
Int Atom Modified Types                    I   N=           5
           0           0           0           0           0
Link Atoms                                 I   N=           5
           0           0           0           0           0
Atom Modified MM Charges                   R   N=           5
  0.00000000E+00  0.00000000E+00  0.00000000E+00  0.00000000E+00  0.00000000E+00
Link Distances                             R   N=          20
  0.00000000E+00  0.00000000E+00  0.00000000E+00  0.00000000E+00  0.00000000E+00
  0.00000000E+00  0.00000000E+00  0.00000000E+00  0.00000000E+00  0.00000000E+00
  0.00000000E+00  0.00000000E+00  0.00000000E+00  0.00000000E+00  0.00000000E+00
  0.00000000E+00  0.00000000E+00  0.00000000E+00  0.00000000E+00  0.00000000E+00
Cartesian Gradient                         R   N=          15
 -2.64715696E-04 -1.51880850E-05 -4.11039299E-05  8.91534736E-05 -3.56960187E-05
  1.42105862E-04  2.09646330E-05  4.00270533E-05 -2.05114528E-05  1.13828790E-04
 -3.37037490E-05 -7.60802945E-05  4.07687992E-05  4.45607995E-05 -4.41018432E-06
Cartesian Force Constants                  R   N=         120
  5.57105368E-01  1.59587590E-04  5.56496542E-01  1.98788925E-04  2.84836500E-05
  5.56295337E-01 -8.58993241E-02  1.16317068E-02 -2.90686298E-02  9.03788349E-02
  1.16300715E-02 -1.03793676E-01  5.90172260E-02 -2.14185353E-02  1.23405813E-01
 -2.90683311E-02  5.90179177E-02 -2.27546635E-01  5.34954032E-02 -1.08733589E-01
  3.51337491E-01 -2.45743045E-01 -2.18948870E-02 -3.87463601E-02 -3.17135381E-02
  7.99482295E-03 -4.28726387E-02  3.84229044E-01 -2.18902598E-02 -8.30330826E-02
 -5.11635152E-03  1.43125724E-02  1.39949498E-02  1.08698446E-02  4.02796197E-02
  8.51604773E-02 -3.87547775E-02 -5.12014253E-03 -8.92107088E-02 -5.70045770E-02
  7.52443130E-03 -3.15382677E-02  7.12116130E-02  9.41275903E-03  9.64546596E-02
 -1.36708041E-01  4.81649988E-02  6.69162891E-02  1.13996040E-02  1.02146039E-03
  1.78281841E-02 -7.13320680E-02  2.53331664E-02  3.27033402E-02  1.83974334E-01
  4.81695024E-02 -1.21181912E-01 -5.70085012E-02 -9.96846529E-04  1.68558986E-02
 -1.62179630E-03  1.62967892E-02  1.17871052E-02 -4.60545738E-03 -8.87319218E-02
  1.55450070E-01  6.69266937E-02 -5.70095475E-02 -1.59351214E-01  2.85248273E-02
 -1.31316353E-02 -7.75564005E-02  1.96883307E-02 -4.21308769E-03  1.02678659E-02
 -1.23249683E-01  1.05019984E-01  2.25720867E-01 -8.87549583E-02 -3.80614062E-02
  6.99911832E-04  1.58344233E-02  7.72180406E-04  6.17382515E-04 -3.54403922E-02
 -5.80350988E-02 -8.15559869E-03  1.26661708E-02  2.52624767E-02  8.10983174E-03
  9.56947564E-02 -3.80689018E-02 -2.48487872E-01  3.07914312E-03 -3.52889740E-03
 -5.04629863E-02  4.04676226E-02 -4.26763449E-02 -2.79094496E-02 -7.21159042E-03
  1.42122961E-02 -6.29111625E-02 -3.06657131E-02  7.00618479E-02  3.89771470E-01
  6.97625987E-04  3.08328872E-03 -8.01867799E-02  4.05297633E-03  5.53235666E-02
 -1.46961874E-02 -9.28094493E-03 -1.09531645E-02  1.40264511E-02  5.80187001E-03
 -4.17842286E-02  9.18880895E-04 -1.27152740E-03 -5.66946223E-03  7.99376354E-02
Dipole Moment                              R   N=           3
 -9.93580632E-04 -5.72242343E-05 -1.54809991E-04
Dipole Derivatives                         R   N=          45
  2.08633054E+00 -9.81598046E-05  1.05331447E-04 -2.30417290E-05  2.08611993E+00
 -3.83552903E-06  7.16407610E-05 -6.66070451E-05  2.08618974E+00 -3.30331191E-01
  4.18802626E-02 -1.04526751E-01  4.17753788E-02 -3.94760913E-01  2.12156141E-01
 -1.04319426E-01  2.12264541E-01 -8.39647925E-01 -9.02446045E-01 -7.83689743E-02
 -1.38674987E-01 -7.83172698E-02 -3.19986027E-01 -1.83256855E-02 -1.38734388E-01
 -1.83451478E-02 -3.42091892E-01 -5.12964103E-01  1.73218481E-01  2.40592772E-01
  1.73074288E-01 -4.57272120E-01 -2.04901044E-01  2.40471595E-01 -2.04940097E-01
 -5.94484272E-01 -3.40589206E-01 -1.36631610E-01  2.50363451E-03 -1.36509356E-01
 -9.14100871E-01  1.10744238E-02  2.51057888E-03  1.10873111E-02 -3.09965647E-01
Polarizability                             R   N=           6
  1.78104671E+01 -9.29042830E-04  1.78097543E+01  1.64525216E-04 -1.70939772E-04
  1.78115189E+01
QEq coupling tensors                       R   N=          30
  1.24342849E-04  4.05380204E-05 -1.79183755E-05  5.35236150E-05  1.09722326E-05
 -1.06424473E-04  1.34281659E+00  2.94176290E-01  8.91379494E-01 -7.34832036E-01
  1.49008687E+00 -2.23419608E+00 -2.67444159E+00 -5.49604242E-01  1.41508928E+00
 -9.74201859E-01 -1.28623409E-01  1.25935232E+00  5.93326874E-02  1.21630143E+00
  4.52250659E-01  1.69009416E+00 -1.43892089E+00 -5.11583346E-01  1.27069385E+00
 -9.60107967E-01 -2.75685923E+00  1.76974908E-02  7.78701225E-02  1.48616538E+00
