 Entering Gaussian System, Link 0=g09
 Initial command:
 /apps/z_install_tree/linux-rocky8-ivybridge/gcc-12.2.0/gaussian-09-D.01-wczn3gur5lpur3omlkzwa2l5ecyxp5ef/g09/l1.exe "/srv/scratch/z5112331/GMX/ligands/Tetrachloropropane/Gau-2770016.inp" -scrdir="/srv/scratch/z5112331/GMX/ligands/Tetrachloropropane/"
 Entering Link 1 = /apps/z_install_tree/linux-rocky8-ivybridge/gcc-12.2.0/gaussian-09-D.01-wczn3gur5lpur3omlkzwa2l5ecyxp5ef/g09/l1.exe PID=   2770029.
  
 Copyright (c) 1988,1990,1992,1993,1995,1998,2003,2009,2013,
            Gaussian, Inc.  All Rights Reserved.
  
 This is part of the Gaussian(R) 09 program.  It is based on
 the Gaussian(R) 03 system (copyright 2003, Gaussian, Inc.),
 the Gaussian(R) 98 system (copyright 1998, Gaussian, Inc.),
 the Gaussian(R) 94 system (copyright 1995, Gaussian, Inc.),
 the Gaussian 92(TM) system (copyright 1992, Gaussian, Inc.),
 the Gaussian 90(TM) system (copyright 1990, Gaussian, Inc.),
 the Gaussian 88(TM) system (copyright 1988, Gaussian, Inc.),
 the Gaussian 86(TM) system (copyright 1986, Carnegie Mellon
 University), and the Gaussian 82(TM) system (copyright 1983,
 Carnegie Mellon University). Gaussian is a federally registered
 trademark of Gaussian, Inc.
  
 This software contains proprietary and confidential information,
 including trade secrets, belonging to Gaussian, Inc.
  
 This software is provided under written license and may be
 used, copied, transmitted, or stored only in accord with that
 written license.
  
 The following legend is applicable only to US Government
 contracts under FAR:
  
                    RESTRICTED RIGHTS LEGEND
  
 Use, reproduction and disclosure by the US Government is
 subject to restrictions as set forth in subparagraphs (a)
 and (c) of the Commercial Computer Software - Restricted
 Rights clause in FAR 52.227-19.
  
 Gaussian, Inc.
 340 Quinnipiac St., Bldg. 40, Wallingford CT 06492
  
  
 ---------------------------------------------------------------
 Warning -- This program may not be used in any manner that
 competes with the business of Gaussian, Inc. or will provide
 assistance to any competitor of Gaussian, Inc.  The licensee
 of this program is prohibited from giving any competitor of
 Gaussian, Inc. access to this program.  By using this program,
 the user acknowledges that Gaussian, Inc. is engaged in the
 business of creating and licensing software in the field of
 computational chemistry and represents and warrants to the
 licensee that it is not a competitor of Gaussian, Inc. and that
 it will not use this program in any manner prohibited above.
 ---------------------------------------------------------------
  

 Cite this work as:
 Gaussian 09, Revision D.01,
 M. J. Frisch, G. W. Trucks, H. B. Schlegel, G. E. Scuseria, 
 M. A. Robb, J. R. Cheeseman, G. Scalmani, V. Barone, B. Mennucci, 
 G. A. Petersson, H. Nakatsuji, M. Caricato, X. Li, H. P. Hratchian, 
 A. F. Izmaylov, J. Bloino, G. Zheng, J. L. Sonnenberg, M. Hada, 
 M. Ehara, K. Toyota, R. Fukuda, J. Hasegawa, M. Ishida, T. Nakajima, 
 Y. Honda, O. Kitao, H. Nakai, T. Vreven, J. A. Montgomery, Jr., 
 J. E. Peralta, F. Ogliaro, M. Bearpark, J. J. Heyd, E. Brothers, 
 K. N. Kudin, V. N. Staroverov, T. Keith, R. Kobayashi, J. Normand, 
 K. Raghavachari, A. Rendell, J. C. Burant, S. S. Iyengar, J. Tomasi, 
 M. Cossi, N. Rega, J. M. Millam, M. Klene, J. E. Knox, J. B. Cross, 
 V. Bakken, C. Adamo, J. Jaramillo, R. Gomperts, R. E. Stratmann, 
 O. Yazyev, A. J. Austin, R. Cammi, C. Pomelli, J. W. Ochterski, 
 R. L. Martin, K. Morokuma, V. G. Zakrzewski, G. A. Voth, 
 P. Salvador, J. J. Dannenberg, S. Dapprich, A. D. Daniels, 
 O. Farkas, J. B. Foresman, J. V. Ortiz, J. Cioslowski, 
 and D. J. Fox, Gaussian, Inc., Wallingford CT, 2013.
 
 ******************************************
 Gaussian 09:  ES64L-G09RevD.01 24-Apr-2013
                13-Jun-2024 
 ******************************************
 %chk=tetrachloropropane.chk
 %mem=8GB
 %nprocshared=20
 Will use up to   20 processors via shared memory.
 -------------------------------------------------------------------
 #p opt freq b3lyp/gen nosymm em=gd3 int=ultrafine scf=xqc scfcyc=96
 -------------------------------------------------------------------
 1/14=-1,18=20,19=15,26=4,38=1/1,3;
 2/9=110,12=2,15=1,17=6,18=5,40=1/2;
 3/5=7,11=2,16=1,25=1,30=1,71=1,74=-5,75=-5,124=31/1,2,3;
 4//1;
 5/5=2,7=96,8=3,13=1,38=5/2,8;
 6/7=2,8=2,9=2,10=2,28=1/1;
 7/30=1/1,2,3,16;
 1/14=-1,18=20,19=15,26=4/3(2);
 2/9=110,15=1/2;
 99//99;
 2/9=110,15=1/2;
 3/5=7,6=1,11=2,16=1,25=1,30=1,71=1,74=-5,75=-5,82=7,124=31/1,2,3;
 4/5=5,16=3,69=1/1;
 5/5=2,7=96,8=3,13=1,38=5/2,8;
 7/30=1/1,2,3,16;
 1/14=-1,18=20,19=15,26=4/3(-5);
 2/9=110,15=1/2;
 6/7=2,8=2,9=2,10=2,19=2,28=1/1;
 99/9=1/99;
 Leave Link    1 at Thu Jun 13 12:20:38 2024, MaxMem=  1073741824 cpu:         1.8
 (Enter /apps/z_install_tree/linux-rocky8-ivybridge/gcc-12.2.0/gaussian-09-D.01-wczn3gur5lpur3omlkzwa2l5ecyxp5ef/g09/l101.exe)
 ------------------
 tetrachloropropane
 ------------------
 Symbolic Z-matrix:
 Charge =  0 Multiplicity = 1
 C                    0     50.156    35.315    31.965 
 C                    0     50.054    35.638    33.445 
 C                    0     51.497    35.707    31.286 
 Cl                   0     50.596    37.342    33.861 
 Cl                   0     48.422    35.372    33.954 
 Cl                   0     50.859    34.495    34.416 
 Cl                   0     51.583    35.195    29.497 
 H                    0     49.48     36.007    31.449 
 H                    0     49.984    34.251    31.757 
 H                    0     52.317    35.127    31.726 
 H                    0     51.67     36.787    31.211 
 
 NAtoms=     11 NQM=       11 NQMF=       0 NMMI=      0 NMMIF=      0
                NMic=       0 NMicF=      0.
                    Isotopes and Nuclear Properties:
 (Nuclear quadrupole moments (NQMom) in fm**2, nuclear magnetic moments (NMagM)
  in nuclear magnetons)

  Atom         1           2           3           4           5           6           7           8           9          10
 IAtWgt=          12          12          12          35          35          35          35           1           1           1
 AtmWgt=  12.0000000  12.0000000  12.0000000  34.9688527  34.9688527  34.9688527  34.9688527   1.0078250   1.0078250   1.0078250
 NucSpn=           0           0           0           3           3           3           3           1           1           1
 AtZEff=   0.0000000   0.0000000   0.0000000   0.0000000   0.0000000   0.0000000   0.0000000   0.0000000   0.0000000   0.0000000
 NQMom=    0.0000000   0.0000000   0.0000000  -8.1650000  -8.1650000  -8.1650000  -8.1650000   0.0000000   0.0000000   0.0000000
 NMagM=    0.0000000   0.0000000   0.0000000   0.8218740   0.8218740   0.8218740   0.8218740   2.7928460   2.7928460   2.7928460
 AtZNuc=   6.0000000   6.0000000   6.0000000  17.0000000  17.0000000  17.0000000  17.0000000   1.0000000   1.0000000   1.0000000

  Atom        11
 IAtWgt=           1
 AtmWgt=   1.0078250
 NucSpn=           1
 AtZEff=   0.0000000
 NQMom=    0.0000000
 NMagM=    2.7928460
 AtZNuc=   1.0000000
 Leave Link  101 at Thu Jun 13 12:20:38 2024, MaxMem=  1073741824 cpu:         2.7
 (Enter /apps/z_install_tree/linux-rocky8-ivybridge/gcc-12.2.0/gaussian-09-D.01-wczn3gur5lpur3omlkzwa2l5ecyxp5ef/g09/l103.exe)

 GradGradGradGradGradGradGradGradGradGradGradGradGradGradGradGradGradGrad
 Berny optimization.
 Initialization pass.
                           ----------------------------
                           !    Initial Parameters    !
                           ! (Angstroms and Degrees)  !
 --------------------------                            --------------------------
 ! Name  Definition              Value          Derivative Info.                !
 --------------------------------------------------------------------------------
 ! R1    R(1,2)                  1.5183         estimate D2E/DX2                !
 ! R2    R(1,3)                  1.5534         estimate D2E/DX2                !
 ! R3    R(1,8)                  1.0964         estimate D2E/DX2                !
 ! R4    R(1,9)                  1.0977         estimate D2E/DX2                !
 ! R5    R(2,4)                  1.8359         estimate D2E/DX2                !
 ! R6    R(2,5)                  1.7301         estimate D2E/DX2                !
 ! R7    R(2,6)                  1.7022         estimate D2E/DX2                !
 ! R8    R(3,7)                  1.8628         estimate D2E/DX2                !
 ! R9    R(3,10)                 1.0965         estimate D2E/DX2                !
 ! R10   R(3,11)                 1.0963         estimate D2E/DX2                !
 ! A1    A(2,1,3)              115.4933         estimate D2E/DX2                !
 ! A2    A(2,1,8)              106.4437         estimate D2E/DX2                !
 ! A3    A(2,1,9)              112.3582         estimate D2E/DX2                !
 ! A4    A(3,1,8)               99.6293         estimate D2E/DX2                !
 ! A5    A(3,1,9)              107.2803         estimate D2E/DX2                !
 ! A6    A(8,1,9)              115.2134         estimate D2E/DX2                !
 ! A7    A(1,2,4)              113.4851         estimate D2E/DX2                !
 ! A8    A(1,2,5)              108.5088         estimate D2E/DX2                !
 ! A9    A(1,2,6)              112.4234         estimate D2E/DX2                !
 ! A10   A(4,2,5)              110.7644         estimate D2E/DX2                !
 ! A11   A(4,2,6)              110.7557         estimate D2E/DX2                !
 ! A12   A(5,2,6)              100.0811         estimate D2E/DX2                !
 ! A13   A(1,3,7)              112.9723         estimate D2E/DX2                !
 ! A14   A(1,3,10)             109.6754         estimate D2E/DX2                !
 ! A15   A(1,3,11)             114.5016         estimate D2E/DX2                !
 ! A16   A(7,3,10)             101.8564         estimate D2E/DX2                !
 ! A17   A(7,3,11)             101.4068         estimate D2E/DX2                !
 ! A18   A(10,3,11)            115.4994         estimate D2E/DX2                !
 ! D1    D(3,1,2,4)             47.2869         estimate D2E/DX2                !
 ! D2    D(3,1,2,5)            170.866          estimate D2E/DX2                !
 ! D3    D(3,1,2,6)            -79.3893         estimate D2E/DX2                !
 ! D4    D(8,1,2,4)            -62.222          estimate D2E/DX2                !
 ! D5    D(8,1,2,5)             61.3571         estimate D2E/DX2                !
 ! D6    D(8,1,2,6)            171.1018         estimate D2E/DX2                !
 ! D7    D(9,1,2,4)            170.7891         estimate D2E/DX2                !
 ! D8    D(9,1,2,5)            -65.6318         estimate D2E/DX2                !
 ! D9    D(9,1,2,6)             44.1129         estimate D2E/DX2                !
 ! D10   D(2,1,3,7)            176.8123         estimate D2E/DX2                !
 ! D11   D(2,1,3,10)            63.9468         estimate D2E/DX2                !
 ! D12   D(2,1,3,11)           -67.7666         estimate D2E/DX2                !
 ! D13   D(8,1,3,7)            -69.6726         estimate D2E/DX2                !
 ! D14   D(8,1,3,10)           177.4619         estimate D2E/DX2                !
 ! D15   D(8,1,3,11)            45.7484         estimate D2E/DX2                !
 ! D16   D(9,1,3,7)             50.6775         estimate D2E/DX2                !
 ! D17   D(9,1,3,10)           -62.1879         estimate D2E/DX2                !
 ! D18   D(9,1,3,11)           166.0986         estimate D2E/DX2                !
 --------------------------------------------------------------------------------
 Trust Radius=3.00D-01 FncErr=1.00D-07 GrdErr=1.00D-06
 Number of steps in this run=     56 maximum allowed number of steps=    100.
 GradGradGradGradGradGradGradGradGradGradGradGradGradGradGradGradGradGrad

 Leave Link  103 at Thu Jun 13 12:20:38 2024, MaxMem=  1073741824 cpu:         0.2
 (Enter /apps/z_install_tree/linux-rocky8-ivybridge/gcc-12.2.0/gaussian-09-D.01-wczn3gur5lpur3omlkzwa2l5ecyxp5ef/g09/l202.exe)
                          Input orientation:                          
 ---------------------------------------------------------------------
 Center     Atomic      Atomic             Coordinates (Angstroms)
 Number     Number       Type             X           Y           Z
 ---------------------------------------------------------------------
      1          6           0       50.156000   35.315000   31.965000
      2          6           0       50.054000   35.638000   33.445000
      3          6           0       51.497000   35.707000   31.286000
      4         17           0       50.596000   37.342000   33.861000
      5         17           0       48.422000   35.372000   33.954000
      6         17           0       50.859000   34.495000   34.416000
      7         17           0       51.583000   35.195000   29.497000
      8          1           0       49.480000   36.007000   31.449000
      9          1           0       49.984000   34.251000   31.757000
     10          1           0       52.317000   35.127000   31.726000
     11          1           0       51.670000   36.787000   31.211000
 ---------------------------------------------------------------------
                    Distance matrix (angstroms):
                    1          2          3          4          5
     1  C    0.000000
     2  C    1.518266   0.000000
     3  C    1.553379   2.597747   0.000000
     4  Cl   2.810186   1.835875   3.180511   0.000000
     5  Cl   2.639342   1.730104   4.084859   2.935273   0.000000
     6  Cl   2.678434   1.702150   3.416561   2.912491   2.630882
     7  Cl   2.853376   4.256853   1.862810   4.962688   5.467001
     8  H    1.096401   2.109420   2.045693   2.974126   2.792421
     9  H    1.097699   2.185867   2.151963   3.788884   2.919468
    10  H    2.182289   2.887430   1.096540   3.525094   4.493889
    11  H    2.242208   2.987041   1.096337   2.912731   4.480600
                    6          7          8          9         10
     6  Cl   0.000000
     7  Cl   5.021029   0.000000
     8  H    3.604286   2.981989   0.000000
     9  H    2.809883   2.924985   1.852678   0.000000
    10  H    3.124306   2.347727   2.983236   2.492233   0.000000
    11  H    4.022811   2.340903   2.336909   3.093866   1.854571
                   11
    11  H    0.000000
 Symmetry turned off by external request.
 Stoichiometry    C3H4Cl4
 Framework group  C1[X(C3H4Cl4)]
 Deg. of freedom    27
 Full point group                 C1      NOp   1
 Rotational constants (GHZ):      1.7606400      0.6150942      0.5874630
 Leave Link  202 at Thu Jun 13 12:20:38 2024, MaxMem=  1073741824 cpu:         0.6
 (Enter /apps/z_install_tree/linux-rocky8-ivybridge/gcc-12.2.0/gaussian-09-D.01-wczn3gur5lpur3omlkzwa2l5ecyxp5ef/g09/l301.exe)
 General basis read from cards:  (5D, 7F)
 Centers:       4      5      6      7      1      2      3      8      9     10
 Centers:      11
 6-311+g(2d,2p)
 ****
 Ernie: Thresh=  0.10000D-02 Tol=  0.10000D-05 Strict=F.
   257 basis functions,   406 primitive gaussians,   271 cartesian basis functions
    45 alpha electrons       45 beta electrons
       nuclear repulsion energy       612.6969831172 Hartrees.
 IExCor=  402 DFT=T Ex+Corr=B3LYP ExCW=0 ScaHFX=  0.200000
 ScaDFX=  0.800000  0.720000  1.000000  0.810000 ScalE2=  1.000000  1.000000
 IRadAn=      5 IRanWt=     -1 IRanGd=            0 ICorTp=0 IEmpDi=131
 NAtoms=   11 NActive=   11 NUniq=   11 SFac= 1.00D+00 NAtFMM=   60 NAOKFM=F Big=F
 Integral buffers will be    131072 words long.
 Raffenetti 2 integral format.
 Two-electron integral symmetry is turned off.
 R6Disp:  Grimme-D3 Dispersion energy=       -0.0120837640 Hartrees.
 Nuclear repulsion after empirical dispersion term =      612.6848993532 Hartrees.
 Leave Link  301 at Thu Jun 13 12:20:38 2024, MaxMem=  1073741824 cpu:         0.8
 (Enter /apps/z_install_tree/linux-rocky8-ivybridge/gcc-12.2.0/gaussian-09-D.01-wczn3gur5lpur3omlkzwa2l5ecyxp5ef/g09/l302.exe)
 NPDir=0 NMtPBC=     1 NCelOv=     1 NCel=       1 NClECP=     1 NCelD=      1
         NCelK=      1 NCelE2=     1 NClLst=     1 CellRange=     0.0.
 One-electron integrals computed using PRISM.
 NBasis=   257 RedAO= T EigKep=  1.03D-05  NBF=   257
 NBsUse=   257 1.00D-06 EigRej= -1.00D+00 NBFU=   257
 Precomputing XC quadrature grid using
 IXCGrd= 4 IRadAn=           5 IRanWt=          -1 IRanGd=           0 AccXCQ= 0.00D+00.
 Generated NRdTot=       0 NPtTot=           0 NUsed=           0 NTot=          32
 NSgBfM=   270   270   270   270   270 MxSgAt=    11 MxSgA2=    11.
 Leave Link  302 at Thu Jun 13 12:20:39 2024, MaxMem=  1073741824 cpu:         3.8
 (Enter /apps/z_install_tree/linux-rocky8-ivybridge/gcc-12.2.0/gaussian-09-D.01-wczn3gur5lpur3omlkzwa2l5ecyxp5ef/g09/l303.exe)
 DipDrv:  MaxL=1.
 Leave Link  303 at Thu Jun 13 12:20:39 2024, MaxMem=  1073741824 cpu:         0.7
 (Enter /apps/z_install_tree/linux-rocky8-ivybridge/gcc-12.2.0/gaussian-09-D.01-wczn3gur5lpur3omlkzwa2l5ecyxp5ef/g09/l401.exe)
 ExpMin= 4.38D-02 ExpMax= 1.06D+05 ExpMxC= 3.62D+03 IAcc=3 IRadAn=         5 AccDes= 0.00D+00
 Harris functional with IExCor=  402 and IRadAn=       5 diagonalized for initial guess.
 HarFok:  IExCor=  402 AccDes= 0.00D+00 IRadAn=         5 IDoV= 1 UseB2=F ITyADJ=14
 ICtDFT=  3500011 ScaDFX=  1.000000  1.000000  1.000000  1.000000
 FoFCou: FMM=F IPFlag=           0 FMFlag=      100000 FMFlg1=           0
         NFxFlg=           0 DoJE=T BraDBF=F KetDBF=T FulRan=T
         wScrn=  0.000000 ICntrl=     500 IOpCl=  0 I1Cent=   200000004 NGrid=           0
         NMat0=    1 NMatS0=      1 NMatT0=    0 NMatD0=    1 NMtDS0=    0 NMtDT0=    0
 Symmetry not used in FoFCou.
 Harris En= -1957.38442892700    
 JPrj=0 DoOrth=F DoCkMO=F.
 Leave Link  401 at Thu Jun 13 12:20:39 2024, MaxMem=  1073741824 cpu:         9.8
 (Enter /apps/z_install_tree/linux-rocky8-ivybridge/gcc-12.2.0/gaussian-09-D.01-wczn3gur5lpur3omlkzwa2l5ecyxp5ef/g09/l502.exe)
 Closed shell SCF:
 Using DIIS extrapolation, IDIIS=  1040.
 Two-electron integral symmetry not used.
 Keep R1 ints in memory in canonical form, NReq=559877582.
 IVT=      238613 IEndB=      238613 NGot=  1073741824 MDV=   523925931
 LenX=   523925931 LenY=   523852049
 Requested convergence on RMS density matrix=1.00D-08 within  96 cycles.
 Requested convergence on MAX density matrix=1.00D-06.
 Requested convergence on             energy=1.00D-06.
 No special actions if energy rises.
 FoFCou: FMM=F IPFlag=           0 FMFlag=           0 FMFlg1=           0
         NFxFlg=           0 DoJE=F BraDBF=F KetDBF=F FulRan=T
         wScrn=  0.000000 ICntrl=     600 IOpCl=  0 I1Cent=           0 NGrid=           0
         NMat0=    1 NMatS0=  33153 NMatT0=    0 NMatD0=    1 NMtDS0=    0 NMtDT0=    0
 Symmetry not used in FoFCou.

 Cycle   1  Pass 1  IDiag  1:
 E= -1957.54363097049    
 DIIS: error= 1.90D-02 at cycle   1 NSaved=   1.
 NSaved= 1 IEnMin= 1 EnMin= -1957.54363097049     IErMin= 1 ErrMin= 1.90D-02
 ErrMax= 1.90D-02  0.00D+00 EMaxC= 1.00D-01 BMatC= 2.13D-01 BMatP= 2.13D-01
 IDIUse=3 WtCom= 8.10D-01 WtEn= 1.90D-01
 Coeff-Com:  0.100D+01
 Coeff-En:   0.100D+01
 Coeff:      0.100D+01
 Gap=     0.337 Goal=   None    Shift=    0.000
 GapD=    0.337 DampG=1.000 DampE=0.500 DampFc=0.5000 IDamp=-1.
 Damping current iteration by 5.00D-01
 RMSDP=2.84D-03 MaxDP=2.06D-01              OVMax= 1.35D-01

 Cycle   2  Pass 1  IDiag  1:
 E= -1957.58602862843     Delta-E=       -0.042397657944 Rises=F Damp=T
 DIIS: error= 8.60D-03 at cycle   2 NSaved=   2.
 NSaved= 2 IEnMin= 2 EnMin= -1957.58602862843     IErMin= 2 ErrMin= 8.60D-03
 ErrMax= 8.60D-03  0.00D+00 EMaxC= 1.00D-01 BMatC= 3.08D-02 BMatP= 2.13D-01
 IDIUse=3 WtCom= 9.14D-01 WtEn= 8.60D-02
 Coeff-Com: -0.510D-01 0.105D+01
 Coeff-En:   0.215D+00 0.785D+00
 Coeff:     -0.281D-01 0.103D+01
 Gap=     0.330 Goal=   None    Shift=    0.000
 RMSDP=3.88D-03 MaxDP=5.20D-01 DE=-4.24D-02 OVMax= 1.26D-01

 Cycle   3  Pass 1  IDiag  1:
 E= -1957.63771533883     Delta-E=       -0.051686710401 Rises=F Damp=F
 DIIS: error= 5.58D-03 at cycle   3 NSaved=   3.
 NSaved= 3 IEnMin= 3 EnMin= -1957.63771533883     IErMin= 3 ErrMin= 5.58D-03
 ErrMax= 5.58D-03  0.00D+00 EMaxC= 1.00D-01 BMatC= 1.65D-02 BMatP= 3.08D-02
 IDIUse=3 WtCom= 9.44D-01 WtEn= 5.58D-02
 Coeff-Com: -0.178D+00 0.489D+00 0.689D+00
 Coeff-En:   0.000D+00 0.000D+00 0.100D+01
 Coeff:     -0.168D+00 0.461D+00 0.707D+00
 Gap=     0.254 Goal=   None    Shift=    0.000
 RMSDP=1.63D-03 MaxDP=1.76D-01 DE=-5.17D-02 OVMax= 3.65D-02

 Cycle   4  Pass 1  IDiag  1:
 E= -1957.65181974244     Delta-E=       -0.014104403614 Rises=F Damp=F
 DIIS: error= 2.40D-03 at cycle   4 NSaved=   4.
 NSaved= 4 IEnMin= 4 EnMin= -1957.65181974244     IErMin= 4 ErrMin= 2.40D-03
 ErrMax= 2.40D-03  0.00D+00 EMaxC= 1.00D-01 BMatC= 2.22D-03 BMatP= 1.65D-02
 IDIUse=3 WtCom= 9.76D-01 WtEn= 2.40D-02
 Coeff-Com: -0.895D-01 0.201D+00 0.397D+00 0.491D+00
 Coeff-En:   0.000D+00 0.000D+00 0.625D-01 0.937D+00
 Coeff:     -0.873D-01 0.196D+00 0.389D+00 0.502D+00
 Gap=     0.252 Goal=   None    Shift=    0.000
 RMSDP=3.80D-04 MaxDP=2.48D-02 DE=-1.41D-02 OVMax= 1.01D-02

 Cycle   5  Pass 1  IDiag  1:
 E= -1957.65383219213     Delta-E=       -0.002012449683 Rises=F Damp=F
 DIIS: error= 4.74D-04 at cycle   5 NSaved=   5.
 NSaved= 5 IEnMin= 5 EnMin= -1957.65383219213     IErMin= 5 ErrMin= 4.74D-04
 ErrMax= 4.74D-04  0.00D+00 EMaxC= 1.00D-01 BMatC= 1.09D-04 BMatP= 2.22D-03
 IDIUse=3 WtCom= 9.95D-01 WtEn= 4.74D-03
 Coeff-Com: -0.344D-01 0.725D-01 0.160D+00 0.270D+00 0.531D+00
 Coeff-En:   0.000D+00 0.000D+00 0.000D+00 0.000D+00 0.100D+01
 Coeff:     -0.342D-01 0.721D-01 0.160D+00 0.269D+00 0.534D+00
 Gap=     0.252 Goal=   None    Shift=    0.000
 RMSDP=1.78D-04 MaxDP=2.25D-02 DE=-2.01D-03 OVMax= 2.59D-03

 Cycle   6  Pass 1  IDiag  1:
 E= -1957.65392577790     Delta-E=       -0.000093585777 Rises=F Damp=F
 DIIS: error= 1.59D-04 at cycle   6 NSaved=   6.
 NSaved= 6 IEnMin= 6 EnMin= -1957.65392577790     IErMin= 6 ErrMin= 1.59D-04
 ErrMax= 1.59D-04  0.00D+00 EMaxC= 1.00D-01 BMatC= 1.24D-05 BMatP= 1.09D-04
 IDIUse=3 WtCom= 9.98D-01 WtEn= 1.59D-03
 Coeff-Com: -0.108D-01 0.211D-01 0.528D-01 0.108D+00 0.307D+00 0.521D+00
 Coeff-En:   0.000D+00 0.000D+00 0.000D+00 0.000D+00 0.444D-01 0.956D+00
 Coeff:     -0.108D-01 0.210D-01 0.527D-01 0.108D+00 0.307D+00 0.522D+00
 Gap=     0.252 Goal=   None    Shift=    0.000
 RMSDP=3.17D-05 MaxDP=2.82D-03 DE=-9.36D-05 OVMax= 8.21D-04

 Cycle   7  Pass 1  IDiag  1:
 E= -1957.65393689539     Delta-E=       -0.000011117485 Rises=F Damp=F
 DIIS: error= 4.66D-05 at cycle   7 NSaved=   7.
 NSaved= 7 IEnMin= 7 EnMin= -1957.65393689539     IErMin= 7 ErrMin= 4.66D-05
 ErrMax= 4.66D-05  0.00D+00 EMaxC= 1.00D-01 BMatC= 1.27D-06 BMatP= 1.24D-05
 IDIUse=1 WtCom= 1.00D+00 WtEn= 0.00D+00
 Coeff-Com: -0.134D-02 0.203D-02 0.819D-02 0.255D-01 0.102D+00 0.297D+00
 Coeff-Com:  0.567D+00
 Coeff:     -0.134D-02 0.203D-02 0.819D-02 0.255D-01 0.102D+00 0.297D+00
 Coeff:      0.567D+00
 Gap=     0.252 Goal=   None    Shift=    0.000
 RMSDP=1.67D-05 MaxDP=2.02D-03 DE=-1.11D-05 OVMax= 2.04D-04

 Cycle   8  Pass 1  IDiag  1:
 E= -1957.65393808787     Delta-E=       -0.000001192480 Rises=F Damp=F
 DIIS: error= 7.28D-06 at cycle   8 NSaved=   8.
 NSaved= 8 IEnMin= 8 EnMin= -1957.65393808787     IErMin= 8 ErrMin= 7.28D-06
 ErrMax= 7.28D-06  0.00D+00 EMaxC= 1.00D-01 BMatC= 1.77D-08 BMatP= 1.27D-06
 IDIUse=1 WtCom= 1.00D+00 WtEn= 0.00D+00
 Coeff-Com:  0.207D-03-0.554D-03-0.517D-03 0.957D-03 0.850D-02 0.545D-01
 Coeff-Com:  0.158D+00 0.779D+00
 Coeff:      0.207D-03-0.554D-03-0.517D-03 0.957D-03 0.850D-02 0.545D-01
 Coeff:      0.158D+00 0.779D+00
 Gap=     0.252 Goal=   None    Shift=    0.000
 RMSDP=4.75D-06 MaxDP=4.56D-04 DE=-1.19D-06 OVMax= 3.51D-05

 Cycle   9  Pass 1  IDiag  1:
 E= -1957.65393810474     Delta-E=       -0.000000016871 Rises=F Damp=F
 DIIS: error= 2.26D-06 at cycle   9 NSaved=   9.
 NSaved= 9 IEnMin= 9 EnMin= -1957.65393810474     IErMin= 9 ErrMin= 2.26D-06
 ErrMax= 2.26D-06  0.00D+00 EMaxC= 1.00D-01 BMatC= 1.81D-09 BMatP= 1.77D-08
 IDIUse=1 WtCom= 1.00D+00 WtEn= 0.00D+00
 Coeff-Com:  0.127D-03-0.269D-03-0.541D-03-0.899D-03-0.197D-02 0.507D-02
 Coeff-Com:  0.308D-01 0.297D+00 0.671D+00
 Coeff:      0.127D-03-0.269D-03-0.541D-03-0.899D-03-0.197D-02 0.507D-02
 Coeff:      0.308D-01 0.297D+00 0.671D+00
 Gap=     0.252 Goal=   None    Shift=    0.000
 RMSDP=1.05D-06 MaxDP=6.55D-05 DE=-1.69D-08 OVMax= 1.07D-05

 Cycle  10  Pass 1  IDiag  1:
 E= -1957.65393810643     Delta-E=       -0.000000001691 Rises=F Damp=F
 DIIS: error= 5.47D-07 at cycle  10 NSaved=  10.
 NSaved=10 IEnMin=10 EnMin= -1957.65393810643     IErMin=10 ErrMin= 5.47D-07
 ErrMax= 5.47D-07  0.00D+00 EMaxC= 1.00D-01 BMatC= 1.55D-10 BMatP= 1.81D-09
 IDIUse=1 WtCom= 1.00D+00 WtEn= 0.00D+00
 Coeff-Com:  0.415D-04-0.789D-04-0.204D-03-0.453D-03-0.130D-02-0.130D-02
 Coeff-Com:  0.382D-02 0.752D-01 0.281D+00 0.643D+00
 Coeff:      0.415D-04-0.789D-04-0.204D-03-0.453D-03-0.130D-02-0.130D-02
 Coeff:      0.382D-02 0.752D-01 0.281D+00 0.643D+00
 Gap=     0.252 Goal=   None    Shift=    0.000
 RMSDP=2.35D-07 MaxDP=1.39D-05 DE=-1.69D-09 OVMax= 3.73D-06

 Cycle  11  Pass 1  IDiag  1:
 E= -1957.65393810655     Delta-E=       -0.000000000120 Rises=F Damp=F
 DIIS: error= 9.78D-08 at cycle  11 NSaved=  11.
 NSaved=11 IEnMin=11 EnMin= -1957.65393810655     IErMin=11 ErrMin= 9.78D-08
 ErrMax= 9.78D-08  0.00D+00 EMaxC= 1.00D-01 BMatC= 8.74D-12 BMatP= 1.55D-10
 IDIUse=1 WtCom= 1.00D+00 WtEn= 0.00D+00
 Coeff-Com:  0.121D-04-0.222D-04-0.644D-04-0.155D-03-0.451D-03-0.759D-03
 Coeff-Com:  0.383D-03 0.189D-01 0.875D-01 0.274D+00 0.621D+00
 Coeff:      0.121D-04-0.222D-04-0.644D-04-0.155D-03-0.451D-03-0.759D-03
 Coeff:      0.383D-03 0.189D-01 0.875D-01 0.274D+00 0.621D+00
 Gap=     0.252 Goal=   None    Shift=    0.000
 RMSDP=5.11D-08 MaxDP=4.70D-06 DE=-1.20D-10 OVMax= 8.53D-07

 Cycle  12  Pass 1  IDiag  1:
 E= -1957.65393810659     Delta-E=       -0.000000000040 Rises=F Damp=F
 DIIS: error= 2.59D-08 at cycle  12 NSaved=  12.
 NSaved=12 IEnMin=12 EnMin= -1957.65393810659     IErMin=12 ErrMin= 2.59D-08
 ErrMax= 2.59D-08  0.00D+00 EMaxC= 1.00D-01 BMatC= 5.03D-13 BMatP= 8.74D-12
 IDIUse=1 WtCom= 1.00D+00 WtEn= 0.00D+00
 Coeff-Com:  0.409D-06-0.499D-06-0.391D-05-0.140D-04-0.413D-04-0.171D-03
 Coeff-Com: -0.322D-03-0.645D-03 0.352D-02 0.355D-01 0.224D+00 0.738D+00
 Coeff:      0.409D-06-0.499D-06-0.391D-05-0.140D-04-0.413D-04-0.171D-03
 Coeff:     -0.322D-03-0.645D-03 0.352D-02 0.355D-01 0.224D+00 0.738D+00
 Gap=     0.252 Goal=   None    Shift=    0.000
 RMSDP=1.32D-08 MaxDP=1.41D-06 DE=-4.00D-11 OVMax= 2.10D-07

 Cycle  13  Pass 1  IDiag  1:
 E= -1957.65393810658     Delta-E=        0.000000000011 Rises=F Damp=F
 DIIS: error= 6.45D-09 at cycle  13 NSaved=  13.
 NSaved=13 IEnMin=12 EnMin= -1957.65393810659     IErMin=13 ErrMin= 6.45D-09
 ErrMax= 6.45D-09  0.00D+00 EMaxC= 1.00D-01 BMatC= 1.96D-14 BMatP= 5.03D-13
 IDIUse=1 WtCom= 1.00D+00 WtEn= 0.00D+00
 Coeff-Com: -0.273D-06 0.543D-06 0.119D-05 0.193D-05 0.641D-05-0.140D-04
 Coeff-Com: -0.109D-03-0.882D-03-0.262D-02-0.704D-03 0.446D-01 0.239D+00
 Coeff-Com:  0.720D+00
 Coeff:     -0.273D-06 0.543D-06 0.119D-05 0.193D-05 0.641D-05-0.140D-04
 Coeff:     -0.109D-03-0.882D-03-0.262D-02-0.704D-03 0.446D-01 0.239D+00
 Coeff:      0.720D+00
 Gap=     0.252 Goal=   None    Shift=    0.000
 RMSDP=2.80D-09 MaxDP=1.93D-07 DE= 1.09D-11 OVMax= 3.60D-08

 SCF Done:  E(RB3LYP) =  -1957.65393811     A.U. after   13 cycles
            NFock= 13  Conv=0.28D-08     -V/T= 2.0024
 KE= 1.952953633405D+03 PE=-5.871332776135D+03 EE= 1.348040305270D+03
 Leave Link  502 at Thu Jun 13 12:20:56 2024, MaxMem=  1073741824 cpu:       159.9
 (Enter /apps/z_install_tree/linux-rocky8-ivybridge/gcc-12.2.0/gaussian-09-D.01-wczn3gur5lpur3omlkzwa2l5ecyxp5ef/g09/l508.exe)
 QCSCF skips out because SCF is already converged.
 Leave Link  508 at Thu Jun 13 12:20:56 2024, MaxMem=  1073741824 cpu:         0.0
 (Enter /apps/z_install_tree/linux-rocky8-ivybridge/gcc-12.2.0/gaussian-09-D.01-wczn3gur5lpur3omlkzwa2l5ecyxp5ef/g09/l601.exe)
 Copying SCF densities to generalized density rwf, IOpCl= 0 IROHF=0.

 **********************************************************************

            Population analysis using the SCF density.

 **********************************************************************

 Alpha  occ. eigenvalues -- -101.58130-101.58038-101.57678-101.55251 -10.37096
 Alpha  occ. eigenvalues --  -10.25765 -10.22958  -9.49751  -9.49531  -9.49340
 Alpha  occ. eigenvalues --   -9.46590  -7.26236  -7.26041  -7.25837  -7.25181
 Alpha  occ. eigenvalues --   -7.25153  -7.24978  -7.24975  -7.24778  -7.24736
 Alpha  occ. eigenvalues --   -7.23054  -7.22082  -7.22063  -0.98644  -0.86663
 Alpha  occ. eigenvalues --   -0.85646  -0.85370  -0.78727  -0.67261  -0.60856
 Alpha  occ. eigenvalues --   -0.53475  -0.51171  -0.50285  -0.48484  -0.42863
 Alpha  occ. eigenvalues --   -0.41020  -0.40150  -0.37852  -0.36398  -0.35049
 Alpha  occ. eigenvalues --   -0.33705  -0.32889  -0.31359  -0.31194  -0.30921
 Alpha virt. eigenvalues --   -0.05740  -0.03492  -0.00616  -0.00113   0.00113
 Alpha virt. eigenvalues --    0.01906   0.02498   0.03006   0.04924   0.05808
 Alpha virt. eigenvalues --    0.06237   0.06658   0.06819   0.08551   0.09238
 Alpha virt. eigenvalues --    0.09689   0.09973   0.10098   0.10649   0.11150
 Alpha virt. eigenvalues --    0.11538   0.12294   0.13079   0.13267   0.14349
 Alpha virt. eigenvalues --    0.15224   0.15747   0.16413   0.17599   0.18849
 Alpha virt. eigenvalues --    0.18963   0.20259   0.20803   0.21246   0.22498
 Alpha virt. eigenvalues --    0.23810   0.26805   0.29845   0.31521   0.33737
 Alpha virt. eigenvalues --    0.35076   0.36050   0.36948   0.37198   0.38135
 Alpha virt. eigenvalues --    0.39604   0.40294   0.40776   0.41141   0.42417
 Alpha virt. eigenvalues --    0.42717   0.43074   0.43586   0.43810   0.44032
 Alpha virt. eigenvalues --    0.44750   0.45682   0.45995   0.46594   0.47522
 Alpha virt. eigenvalues --    0.48028   0.48510   0.48737   0.50333   0.50629
 Alpha virt. eigenvalues --    0.51660   0.53503   0.55151   0.56409   0.58793
 Alpha virt. eigenvalues --    0.60286   0.62244   0.64947   0.65145   0.67368
 Alpha virt. eigenvalues --    0.67674   0.69416   0.70246   0.73999   0.74690
 Alpha virt. eigenvalues --    0.75625   0.79051   0.79978   0.83427   0.86856
 Alpha virt. eigenvalues --    0.90737   0.93898   0.95097   0.97302   1.01272
 Alpha virt. eigenvalues --    1.02529   1.04365   1.05938   1.06966   1.11917
 Alpha virt. eigenvalues --    1.12502   1.15101   1.16357   1.17716   1.19557
 Alpha virt. eigenvalues --    1.22098   1.23162   1.25997   1.29744   1.30584
 Alpha virt. eigenvalues --    1.32011   1.33754   1.36990   1.38308   1.40408
 Alpha virt. eigenvalues --    1.45176   1.47925   1.49006   1.52101   1.55108
 Alpha virt. eigenvalues --    1.59681   1.62589   2.23654   2.24766   2.25439
 Alpha virt. eigenvalues --    2.28813   2.29720   2.29842   2.30205   2.31627
 Alpha virt. eigenvalues --    2.33202   2.35428   2.36176   2.36611   2.37517
 Alpha virt. eigenvalues --    2.38756   2.39803   2.40837   2.41406   2.43000
 Alpha virt. eigenvalues --    2.43808   2.45681   2.46800   2.48759   2.51300
 Alpha virt. eigenvalues --    2.55577   2.55843   2.56200   2.60192   2.65068
 Alpha virt. eigenvalues --    2.68315   2.70019   2.73111   2.78163   2.79262
 Alpha virt. eigenvalues --    2.83031   2.89500   2.92604   3.00461   3.08091
 Alpha virt. eigenvalues --    3.20593   3.21621   3.23926   3.28856   3.31998
 Alpha virt. eigenvalues --    3.33653   3.35424   3.37258   3.46434   3.47365
 Alpha virt. eigenvalues --    3.50456   3.51722   3.55390   3.57991   3.59510
 Alpha virt. eigenvalues --    3.60865   3.65566   3.68083   3.73079   3.74571
 Alpha virt. eigenvalues --    3.86974   3.94304   3.95184   4.04323   4.05506
 Alpha virt. eigenvalues --    4.08129   4.13870   4.15000   4.19601   4.30443
 Alpha virt. eigenvalues --    4.62152   4.74001   5.00048   5.07565   9.77248
 Alpha virt. eigenvalues --    9.78351   9.81695   9.83371  23.44261  23.79488
 Alpha virt. eigenvalues --   23.85888  25.86961  25.92464  25.93683  25.95394
 Alpha virt. eigenvalues --   26.04373  26.08060  26.11307  26.12767  27.08129
 Alpha virt. eigenvalues --   27.35843  27.44044  27.49742 215.77156 215.77975
 Alpha virt. eigenvalues --  215.83490 215.84641
          Condensed to atoms (all electrons):
               1          2          3          4          5          6
     1  C    8.732027  -3.513827  -1.118617   0.402729   0.654687   0.515246
     2  C   -3.513827  10.615398   0.834082  -0.904434  -1.096229  -1.463382
     3  C   -1.118617   0.834082   5.794353   0.017189  -0.084896   0.073980
     4  Cl   0.402729  -0.904434   0.017189  17.306802   0.237355   0.326239
     5  Cl   0.654687  -1.096229  -0.084896   0.237355  17.382799   0.254254
     6  Cl   0.515246  -1.463382   0.073980   0.326239   0.254254  17.773287
     7  Cl   0.161573  -0.172077   0.179233   0.008446   0.006715   0.014561
     8  H    0.392047  -0.036538  -0.014131  -0.000100  -0.004871   0.019405
     9  H    0.443221  -0.046779  -0.030754   0.013910   0.000634   0.002618
    10  H   -0.067044   0.005156   0.441373  -0.005058   0.001751   0.003166
    11  H   -0.041774  -0.014527   0.440149   0.002483  -0.002959  -0.001380
               7          8          9         10         11
     1  C    0.161573   0.392047   0.443221  -0.067044  -0.041774
     2  C   -0.172077  -0.036538  -0.046779   0.005156  -0.014527
     3  C    0.179233  -0.014131  -0.030754   0.441373   0.440149
     4  Cl   0.008446  -0.000100   0.013910  -0.005058   0.002483
     5  Cl   0.006715  -0.004871   0.000634   0.001751  -0.002959
     6  Cl   0.014561   0.019405   0.002618   0.003166  -0.001380
     7  Cl  16.889417  -0.005701  -0.001571  -0.047680  -0.046805
     8  H   -0.005701   0.527894  -0.014913   0.005767  -0.006740
     9  H   -0.001571  -0.014913   0.501613  -0.003560   0.003924
    10  H   -0.047680   0.005767  -0.003560   0.556582  -0.028666
    11  H   -0.046805  -0.006740   0.003924  -0.028666   0.546068
 Mulliken charges:
               1
     1  C   -0.560267
     2  C    1.793156
     3  C   -0.531961
     4  Cl  -0.405561
     5  Cl  -0.349240
     6  Cl  -0.517994
     7  Cl   0.013888
     8  H    0.137883
     9  H    0.131657
    10  H    0.138213
    11  H    0.150227
 Sum of Mulliken charges =   0.00000
 Mulliken charges with hydrogens summed into heavy atoms:
               1
     1  C   -0.290727
     2  C    1.793156
     3  C   -0.243521
     4  Cl  -0.405561
     5  Cl  -0.349240
     6  Cl  -0.517994
     7  Cl   0.013888
 Electronic spatial extent (au):  <R**2>=        1570550.4415
 Charge=              0.0000 electrons
 Dipole moment (field-independent basis, Debye):
    X=             -0.0302    Y=             -0.0311    Z=              0.4491  Tot=              0.4512
 Quadrupole moment (field-independent basis, Debye-Ang):
   XX=            -73.1948   YY=            -70.9423   ZZ=            -48.0238
   XY=             -1.7934   XZ=             23.9797   YZ=             13.1012
 Traceless Quadrupole moment (field-independent basis, Debye-Ang):
   XX=             -9.1412   YY=             -6.8887   ZZ=             16.0299
   XY=             -1.7934   XZ=             23.9797   YZ=             13.1012
 Octapole moment (field-independent basis, Debye-Ang**2):
  XXX=         -10846.9004  YYY=          -7453.9224  ZZZ=          -6132.3119  XYY=          -3553.0756
  XXY=          -2599.1409  XXZ=          -1013.4382  XZZ=          -2310.2092  YZZ=          -1863.6508
  YYZ=          -1882.5824  XYZ=            734.6729
 Hexadecapole moment (field-independent basis, Debye-Ang**3):
 XXXX=       -1087214.0612 YYYY=        -528018.2698 ZZZZ=        -432671.9336 XXXY=        -383664.5565
 XXXZ=        -278577.3311 YYYX=        -373785.8598 YYYZ=        -230512.7707 ZZZX=        -303375.6221
 ZZZY=        -225298.1095 XXYY=        -267028.7640 XXZZ=        -185971.0430 YYZZ=        -145551.1680
 XXYZ=         -40768.8758 YYXZ=         -91206.2992 ZZXY=         -89182.5762
 N-N= 6.126848993532D+02 E-N=-5.871332773900D+03  KE= 1.952953633405D+03
 No NMR shielding tensors so no spin-rotation constants.
 Leave Link  601 at Thu Jun 13 12:20:56 2024, MaxMem=  1073741824 cpu:         6.7
 (Enter /apps/z_install_tree/linux-rocky8-ivybridge/gcc-12.2.0/gaussian-09-D.01-wczn3gur5lpur3omlkzwa2l5ecyxp5ef/g09/l701.exe)
 Compute integral first derivatives.
 ... and contract with generalized density number  0.
 R6Disp: Adding Grimme-D3 dispersion energy 1st derivatives to the gradient.
 Leave Link  701 at Thu Jun 13 12:20:57 2024, MaxMem=  1073741824 cpu:         4.5
 (Enter /apps/z_install_tree/linux-rocky8-ivybridge/gcc-12.2.0/gaussian-09-D.01-wczn3gur5lpur3omlkzwa2l5ecyxp5ef/g09/l702.exe)
 L702 exits ... SP integral derivatives will be done elsewhere.
 Leave Link  702 at Thu Jun 13 12:20:57 2024, MaxMem=  1073741824 cpu:         0.2
 (Enter /apps/z_install_tree/linux-rocky8-ivybridge/gcc-12.2.0/gaussian-09-D.01-wczn3gur5lpur3omlkzwa2l5ecyxp5ef/g09/l703.exe)
 Compute integral first derivatives, UseDBF=F ICtDFT=           0.
 Integral derivatives from FoFJK, PRISM(SPDF).
 Calling FoFJK, ICntrl=      2127 FMM=F ISym2X=0 I1Cent= 0 IOpClX= 0 NMat=1 NMatS=1 NMatT=0.
 FoFJK:  IHMeth= 1 ICntrl=    2127 DoSepK=F KAlg= 0 I1Cent=   0 FoldK=F
 IRaf=         0 NMat=   1 IRICut=       1 DoRegI=T DoRafI=F ISym2E= 0.
 FoFCou: FMM=F IPFlag=           0 FMFlag=      100000 FMFlg1=         800
         NFxFlg=           0 DoJE=F BraDBF=F KetDBF=F FulRan=T
         wScrn=  0.000000 ICntrl=    2127 IOpCl=  0 I1Cent=           0 NGrid=           0
         NMat0=    1 NMatS0=      1 NMatT0=    0 NMatD0=    1 NMtDS0=    0 NMtDT0=    0
 Symmetry not used in FoFCou.
 Leave Link  703 at Thu Jun 13 12:20:59 2024, MaxMem=  1073741824 cpu:        42.7
 (Enter /apps/z_install_tree/linux-rocky8-ivybridge/gcc-12.2.0/gaussian-09-D.01-wczn3gur5lpur3omlkzwa2l5ecyxp5ef/g09/l716.exe)
 Dipole        =-1.18918192D-02-1.22502452D-02 1.76688163D-01
 -------------------------------------------------------------------
 Center     Atomic                   Forces (Hartrees/Bohr)
 Number     Number              X              Y              Z
 -------------------------------------------------------------------
      1        6           0.017707991    0.028948718   -0.035346817
      2        6          -0.000243251    0.008387821   -0.012841431
      3        6           0.011674205   -0.013341167   -0.000182584
      4       17          -0.002039968   -0.005322451   -0.006113084
      5       17          -0.050552501    0.012927821    0.000533657
      6       17           0.051534971   -0.029285775    0.023017687
      7       17          -0.008517116    0.000022665    0.011338600
      8        1          -0.011664030   -0.014672591    0.003764468
      9        1          -0.007518654    0.009523533    0.005399530
     10        1          -0.000752842    0.012995130   -0.000022861
     11        1           0.000371195   -0.010183704    0.010452835
 -------------------------------------------------------------------
 Cartesian Forces:  Max     0.051534971 RMS     0.018184507
 Leave Link  716 at Thu Jun 13 12:20:59 2024, MaxMem=  1073741824 cpu:         0.4
 (Enter /apps/z_install_tree/linux-rocky8-ivybridge/gcc-12.2.0/gaussian-09-D.01-wczn3gur5lpur3omlkzwa2l5ecyxp5ef/g09/l103.exe)

 GradGradGradGradGradGradGradGradGradGradGradGradGradGradGradGradGradGrad
 Berny optimization.
 FormGI is forming the generalized inverse of G from B-inverse, IUseBI=4.
 Internal  Forces:  Max     0.057168119 RMS     0.015313636
 Search for a local minimum.
 Step number   1 out of a maximum of   56
 All quantities printed in internal units (Hartrees-Bohrs-Radians)
 RMS Force = .15314D-01 SwitMx=.10000D-02 MixMth= 1
 Mixed Optimization -- RFO/linear search
 Second derivative matrix not updated -- first step.
 ITU=  0
     Eigenvalues ---    0.00230   0.00524   0.03445   0.04981   0.05083
     Eigenvalues ---    0.05558   0.07642   0.08548   0.09132   0.12384
     Eigenvalues ---    0.16000   0.16000   0.21734   0.22333   0.22385
     Eigenvalues ---    0.23483   0.25000   0.25000   0.25000   0.27366
     Eigenvalues ---    0.30534   0.32498   0.33938   0.34068   0.34083
     Eigenvalues ---    0.34091   0.35633
 RFO step:  Lambda=-4.50406135D-02 EMin= 2.30000000D-03
 Linear search not attempted -- first point.
 Maximum step size (   0.300) exceeded in Quadratic search.
    -- Step size scaled by   0.829
 Iteration  1 RMS(Cart)=  0.08526525 RMS(Int)=  0.00405260
 Iteration  2 RMS(Cart)=  0.00395154 RMS(Int)=  0.00116451
 Iteration  3 RMS(Cart)=  0.00001721 RMS(Int)=  0.00116445
 Iteration  4 RMS(Cart)=  0.00000006 RMS(Int)=  0.00116445
 ITry= 1 IFail=0 DXMaxC= 3.66D-01 DCOld= 1.00D+10 DXMaxT= 3.00D-01 DXLimC= 3.00D+00 Rises=F
 Variable       Old X    -DE/DX   Delta X   Delta X   Delta X     New X
                                 (Linear)    (Quad)   (Total)
    R1        2.86911   0.00174   0.00000   0.00412   0.00412   2.87323
    R2        2.93546  -0.00969   0.00000  -0.02522  -0.02522   2.91025
    R3        2.07190  -0.00384   0.00000  -0.00825  -0.00825   2.06365
    R4        2.07435  -0.00908   0.00000  -0.01958  -0.01958   2.05477
    R5        3.46930  -0.00693   0.00000  -0.02052  -0.02052   3.44878
    R6        3.26942   0.04586   0.00000   0.10275   0.10275   3.37218
    R7        3.21660   0.05717   0.00000   0.11810   0.11810   3.33470
    R8        3.52020  -0.01129   0.00000  -0.03567  -0.03567   3.48453
    R9        2.07216  -0.00745   0.00000  -0.01600  -0.01600   2.05616
   R10        2.07178  -0.01069   0.00000  -0.02296  -0.02296   2.04881
    A1        2.01574  -0.01476   0.00000  -0.03902  -0.03894   1.97680
    A2        1.85779   0.00084   0.00000   0.00893   0.00960   1.86740
    A3        1.96102  -0.00144   0.00000  -0.03498  -0.03517   1.92585
    A4        1.73886   0.01490   0.00000   0.09395   0.09377   1.83262
    A5        1.87240   0.00811   0.00000   0.02508   0.02341   1.89580
    A6        2.01085  -0.00706   0.00000  -0.04407  -0.04614   1.96471
    A7        1.98069  -0.01275   0.00000  -0.06878  -0.07221   1.90848
    A8        1.89384  -0.00963   0.00000  -0.00849  -0.00998   1.88385
    A9        1.96216  -0.01360   0.00000  -0.02638  -0.02876   1.93340
   A10        1.93320   0.00101   0.00000  -0.02398  -0.02659   1.90661
   A11        1.93305   0.00422   0.00000  -0.01865  -0.02288   1.91017
   A12        1.74675   0.03630   0.00000   0.17469   0.17424   1.92098
   A13        1.97174  -0.02006   0.00000  -0.05629  -0.05623   1.91551
   A14        1.91420   0.01027   0.00000   0.03837   0.03881   1.95300
   A15        1.99843  -0.00333   0.00000  -0.02243  -0.02265   1.97578
   A16        1.77773   0.00729   0.00000   0.03607   0.03684   1.81457
   A17        1.76988   0.01240   0.00000   0.04481   0.04421   1.81409
   A18        2.01585  -0.00712   0.00000  -0.03858  -0.03846   1.97738
    D1        0.82531   0.00476   0.00000   0.04960   0.04959   0.87490
    D2        2.98217  -0.00990   0.00000  -0.03513  -0.03495   2.94723
    D3       -1.38560   0.02119   0.00000   0.15529   0.15387  -1.23174
    D4       -1.08598  -0.00665   0.00000  -0.05055  -0.04998  -1.13596
    D5        1.07088  -0.02131   0.00000  -0.13528  -0.13452   0.93637
    D6        2.98629   0.00978   0.00000   0.05514   0.05430   3.04059
    D7        2.98083   0.00272   0.00000   0.02290   0.02356   3.00440
    D8       -1.14549  -0.01194   0.00000  -0.06183  -0.06097  -1.20646
    D9        0.76991   0.01915   0.00000   0.12860   0.12784   0.89775
   D10        3.08596  -0.00185   0.00000  -0.02195  -0.02232   3.06364
   D11        1.11608  -0.00568   0.00000  -0.05768  -0.05749   1.05859
   D12       -1.18275  -0.00223   0.00000  -0.01903  -0.01884  -1.20159
   D13       -1.21602   0.00220   0.00000   0.02901   0.02795  -1.18807
   D14        3.09729  -0.00164   0.00000  -0.00671  -0.00722   3.09007
   D15        0.79846   0.00182   0.00000   0.03193   0.03143   0.82989
   D16        0.88449   0.00426   0.00000   0.03264   0.03296   0.91745
   D17       -1.08538   0.00042   0.00000  -0.00308  -0.00221  -1.08760
   D18        2.89897   0.00388   0.00000   0.03556   0.03644   2.93541
         Item               Value     Threshold  Converged?
 Maximum Force            0.057168     0.000450     NO 
 RMS     Force            0.015314     0.000300     NO 
 Maximum Displacement     0.365947     0.001800     NO 
 RMS     Displacement     0.086042     0.001200     NO 
 Predicted change in Energy=-2.556162D-02
 Lowest energy point so far.  Saving SCF results.
 GradGradGradGradGradGradGradGradGradGradGradGradGradGradGradGradGradGrad

 Leave Link  103 at Thu Jun 13 12:20:59 2024, MaxMem=  1073741824 cpu:         2.3
 (Enter /apps/z_install_tree/linux-rocky8-ivybridge/gcc-12.2.0/gaussian-09-D.01-wczn3gur5lpur3omlkzwa2l5ecyxp5ef/g09/l202.exe)
                          Input orientation:                          
 ---------------------------------------------------------------------
 Center     Atomic      Atomic             Coordinates (Angstroms)
 Number     Number       Type             X           Y           Z
 ---------------------------------------------------------------------
      1          6           0       50.139994   35.326874   31.939628
      2          6           0       50.048742   35.607449   33.431174
      3          6           0       51.505302   35.700383   31.332885
      4         17           0       50.602384   37.315057   33.760168
      5         17           0       48.340404   35.438935   33.918567
      6         17           0       51.052651   34.478447   34.343036
      7         17           0       51.557048   35.199125   29.559146
      8          1           0       49.421848   35.985358   31.446470
      9          1           0       49.947413   34.275453   31.740296
     10          1           0       52.318861   35.139376   31.788177
     11          1           0       51.683353   36.769544   31.307454
 ---------------------------------------------------------------------
                    Distance matrix (angstroms):
                    1          2          3          4          5
     1  C    0.000000
     2  C    1.520447   0.000000
     3  C    1.540035   2.555977   0.000000
     4  Cl   2.735148   1.825015   3.051907   0.000000
     5  Cl   2.677178   1.784479   4.095202   2.943038   0.000000
     6  Cl   2.707239   1.764645   3.280096   2.930671   2.908435
     7  Cl   2.773275   4.175442   1.843933   4.799702   5.422993
     8  H    1.092035   2.115387   2.105919   2.918041   2.753064
     9  H    1.087340   2.154889   2.150215   3.707837   2.946359
    10  H    2.192157   2.841122   1.088071   3.401268   4.522877
    11  H    2.205197   2.921063   1.084184   2.735303   4.445643
                    6          7          8          9         10
     6  Cl   0.000000
     7  Cl   4.864093   0.000000
     8  H    3.649712   2.956220   0.000000
     9  H    2.834963   2.863828   1.812822   0.000000
    10  H    2.927015   2.356376   3.037291   2.524366   0.000000
    11  H    3.855084   2.353455   2.397641   3.069419   1.814501
                   11
    11  H    0.000000
 Symmetry turned off by external request.
 Stoichiometry    C3H4Cl4
 Framework group  C1[X(C3H4Cl4)]
 Deg. of freedom    27
 Full point group                 C1      NOp   1
 Rotational constants (GHZ):      1.6655497      0.6246405      0.6195045
 Leave Link  202 at Thu Jun 13 12:21:00 2024, MaxMem=  1073741824 cpu:         1.1
 (Enter /apps/z_install_tree/linux-rocky8-ivybridge/gcc-12.2.0/gaussian-09-D.01-wczn3gur5lpur3omlkzwa2l5ecyxp5ef/g09/l301.exe)
 Basis read from rwf:  (5D, 7F)
 No pseudopotential information found on rwf file.
   257 basis functions,   406 primitive gaussians,   271 cartesian basis functions
    45 alpha electrons       45 beta electrons
       nuclear repulsion energy       610.5474347846 Hartrees.
 IExCor=  402 DFT=T Ex+Corr=B3LYP ExCW=0 ScaHFX=  0.200000
 ScaDFX=  0.800000  0.720000  1.000000  0.810000 ScalE2=  1.000000  1.000000
 IRadAn=      5 IRanWt=     -1 IRanGd=            0 ICorTp=0 IEmpDi=131
 NAtoms=   11 NActive=   11 NUniq=   11 SFac= 1.00D+00 NAtFMM=   60 NAOKFM=F Big=F
 Integral buffers will be    131072 words long.
 Raffenetti 2 integral format.
 Two-electron integral symmetry is turned off.
 R6Disp:  Grimme-D3 Dispersion energy=       -0.0126590984 Hartrees.
 Nuclear repulsion after empirical dispersion term =      610.5347756863 Hartrees.
 No density basis found on file   724.
 Leave Link  301 at Thu Jun 13 12:21:00 2024, MaxMem=  1073741824 cpu:         0.7
 (Enter /apps/z_install_tree/linux-rocky8-ivybridge/gcc-12.2.0/gaussian-09-D.01-wczn3gur5lpur3omlkzwa2l5ecyxp5ef/g09/l302.exe)
 NPDir=0 NMtPBC=     1 NCelOv=     1 NCel=       1 NClECP=     1 NCelD=      1
         NCelK=      1 NCelE2=     1 NClLst=     1 CellRange=     0.0.
 One-electron integrals computed using PRISM.
 NBasis=   257 RedAO= T EigKep=  1.06D-05  NBF=   257
 NBsUse=   257 1.00D-06 EigRej= -1.00D+00 NBFU=   257
 Precomputing XC quadrature grid using
 IXCGrd= 4 IRadAn=           5 IRanWt=          -1 IRanGd=           0 AccXCQ= 0.00D+00.
 Generated NRdTot=       0 NPtTot=           0 NUsed=           0 NTot=          32
 NSgBfM=   270   270   270   270   270 MxSgAt=    11 MxSgA2=    11.
 Leave Link  302 at Thu Jun 13 12:21:00 2024, MaxMem=  1073741824 cpu:         4.9
 (Enter /apps/z_install_tree/linux-rocky8-ivybridge/gcc-12.2.0/gaussian-09-D.01-wczn3gur5lpur3omlkzwa2l5ecyxp5ef/g09/l303.exe)
 DipDrv:  MaxL=1.
 Leave Link  303 at Thu Jun 13 12:21:00 2024, MaxMem=  1073741824 cpu:         2.5
 (Enter /apps/z_install_tree/linux-rocky8-ivybridge/gcc-12.2.0/gaussian-09-D.01-wczn3gur5lpur3omlkzwa2l5ecyxp5ef/g09/l401.exe)
 Initial guess from the checkpoint file:  "tetrachloropropane.chk"
 B after Tr=    -0.026706   -1.057774    1.217817
         Rot=    0.999980    0.003409   -0.004219   -0.003394 Ang=   0.73 deg.
 Guess basis will be translated and rotated to current coordinates.
 JPrj=2 DoOrth=T DoCkMO=T.
 Generating alternative initial guess.
 ExpMin= 4.38D-02 ExpMax= 1.06D+05 ExpMxC= 3.62D+03 IAcc=2 IRadAn=         4 AccDes= 0.00D+00
 Harris functional with IExCor=  402 and IRadAn=       4 diagonalized for initial guess.
 HarFok:  IExCor=  402 AccDes= 0.00D+00 IRadAn=         4 IDoV= 1 UseB2=F ITyADJ=14
 ICtDFT=  3500011 ScaDFX=  1.000000  1.000000  1.000000  1.000000
 FoFCou: FMM=F IPFlag=           0 FMFlag=      100000 FMFlg1=           0
         NFxFlg=           0 DoJE=T BraDBF=F KetDBF=T FulRan=T
         wScrn=  0.000000 ICntrl=     500 IOpCl=  0 I1Cent=   200000004 NGrid=           0
         NMat0=    1 NMatS0=      1 NMatT0=    0 NMatD0=    1 NMtDS0=    0 NMtDT0=    0
 Symmetry not used in FoFCou.
 Harris En= -1957.41486333260    
 Leave Link  401 at Thu Jun 13 12:21:01 2024, MaxMem=  1073741824 cpu:        12.5
 (Enter /apps/z_install_tree/linux-rocky8-ivybridge/gcc-12.2.0/gaussian-09-D.01-wczn3gur5lpur3omlkzwa2l5ecyxp5ef/g09/l502.exe)
 Closed shell SCF:
 Using DIIS extrapolation, IDIIS=  1040.
 Two-electron integral symmetry not used.
 Keep R1 ints in memory in canonical form, NReq=559877582.
 IVT=      238613 IEndB=      238613 NGot=  1073741824 MDV=   523925931
 LenX=   523925931 LenY=   523852049
 Requested convergence on RMS density matrix=1.00D-08 within  96 cycles.
 Requested convergence on MAX density matrix=1.00D-06.
 Requested convergence on             energy=1.00D-06.
 No special actions if energy rises.
 FoFCou: FMM=F IPFlag=           0 FMFlag=           0 FMFlg1=           0
         NFxFlg=           0 DoJE=F BraDBF=F KetDBF=F FulRan=T
         wScrn=  0.000000 ICntrl=     600 IOpCl=  0 I1Cent=           0 NGrid=           0
         NMat0=    1 NMatS0=  33153 NMatT0=    0 NMatD0=    1 NMtDS0=    0 NMtDT0=    0
 Symmetry not used in FoFCou.

 Cycle   1  Pass 1  IDiag  1:
 E= -1957.65661578825    
 DIIS: error= 4.69D-03 at cycle   1 NSaved=   1.
 NSaved= 1 IEnMin= 1 EnMin= -1957.65661578825     IErMin= 1 ErrMin= 4.69D-03
 ErrMax= 4.69D-03  0.00D+00 EMaxC= 1.00D-01 BMatC= 1.43D-02 BMatP= 1.43D-02
 IDIUse=3 WtCom= 9.53D-01 WtEn= 4.69D-02
 Coeff-Com:  0.100D+01
 Coeff-En:   0.100D+01
 Coeff:      0.100D+01
 Gap=     0.535 Goal=   None    Shift=    0.000
 GapD=    0.535 DampG=2.000 DampE=1.000 DampFc=2.0000 IDamp=-1.
 RMSDP=4.42D-03 MaxDP=2.59D-01              OVMax= 5.00D-02

 Cycle   2  Pass 1  IDiag  1:
 E= -1957.67273662300     Delta-E=       -0.016120834742 Rises=F Damp=F
 DIIS: error= 1.83D-03 at cycle   2 NSaved=   2.
 NSaved= 2 IEnMin= 2 EnMin= -1957.67273662300     IErMin= 2 ErrMin= 1.83D-03
 ErrMax= 1.83D-03  0.00D+00 EMaxC= 1.00D-01 BMatC= 1.21D-03 BMatP= 1.43D-02
 IDIUse=3 WtCom= 9.82D-01 WtEn= 1.83D-02
 Coeff-Com:  0.907D-01 0.909D+00
 Coeff-En:   0.000D+00 0.100D+01
 Coeff:      0.890D-01 0.911D+00
 Gap=     0.244 Goal=   None    Shift=    0.000
 RMSDP=8.29D-04 MaxDP=1.06D-01 DE=-1.61D-02 OVMax= 1.70D-02

 Cycle   3  Pass 1  IDiag  1:
 E= -1957.67184182840     Delta-E=        0.000894794597 Rises=F Damp=F
 DIIS: error= 2.47D-03 at cycle   3 NSaved=   3.
 NSaved= 3 IEnMin= 2 EnMin= -1957.67273662300     IErMin= 2 ErrMin= 1.83D-03
 ErrMax= 2.47D-03  0.00D+00 EMaxC= 1.00D-01 BMatC= 2.20D-03 BMatP= 1.21D-03
 IDIUse=3 WtCom= 1.68D-01 WtEn= 8.32D-01
 Coeff-Com: -0.106D-01 0.582D+00 0.428D+00
 Coeff-En:   0.000D+00 0.621D+00 0.379D+00
 Coeff:     -0.178D-02 0.615D+00 0.387D+00
 Gap=     0.248 Goal=   None    Shift=    0.000
 RMSDP=3.41D-04 MaxDP=2.87D-02 DE= 8.95D-04 OVMax= 9.81D-03

 Cycle   4  Pass 1  IDiag  1:
 E= -1957.67389271629     Delta-E=       -0.002050887887 Rises=F Damp=F
 DIIS: error= 4.30D-04 at cycle   4 NSaved=   4.
 NSaved= 4 IEnMin= 4 EnMin= -1957.67389271629     IErMin= 4 ErrMin= 4.30D-04
 ErrMax= 4.30D-04  0.00D+00 EMaxC= 1.00D-01 BMatC= 4.80D-05 BMatP= 1.21D-03
 IDIUse=3 WtCom= 9.96D-01 WtEn= 4.30D-03
 Coeff-Com: -0.946D-02 0.262D+00 0.187D+00 0.560D+00
 Coeff-En:   0.000D+00 0.000D+00 0.000D+00 0.100D+01
 Coeff:     -0.942D-02 0.261D+00 0.186D+00 0.562D+00
 Gap=     0.248 Goal=   None    Shift=    0.000
 RMSDP=1.34D-04 MaxDP=1.17D-02 DE=-2.05D-03 OVMax= 1.70D-03

 Cycle   5  Pass 1  IDiag  1:
 E= -1957.67393900866     Delta-E=       -0.000046292376 Rises=F Damp=F
 DIIS: error= 1.16D-04 at cycle   5 NSaved=   5.
 NSaved= 5 IEnMin= 5 EnMin= -1957.67393900866     IErMin= 5 ErrMin= 1.16D-04
 ErrMax= 1.16D-04  0.00D+00 EMaxC= 1.00D-01 BMatC= 4.89D-06 BMatP= 4.80D-05
 IDIUse=3 WtCom= 9.99D-01 WtEn= 1.16D-03
 Coeff-Com: -0.271D-02 0.470D-01 0.354D-01 0.262D+00 0.659D+00
 Coeff-En:   0.000D+00 0.000D+00 0.000D+00 0.000D+00 0.100D+01
 Coeff:     -0.271D-02 0.469D-01 0.354D-01 0.261D+00 0.659D+00
 Gap=     0.248 Goal=   None    Shift=    0.000
 RMSDP=2.67D-05 MaxDP=2.51D-03 DE=-4.63D-05 OVMax= 7.63D-04

 Cycle   6  Pass 1  IDiag  1:
 E= -1957.67394304513     Delta-E=       -0.000004036467 Rises=F Damp=F
 DIIS: error= 4.26D-05 at cycle   6 NSaved=   6.
 NSaved= 6 IEnMin= 6 EnMin= -1957.67394304513     IErMin= 6 ErrMin= 4.26D-05
 ErrMax= 4.26D-05  0.00D+00 EMaxC= 1.00D-01 BMatC= 1.02D-06 BMatP= 4.89D-06
 IDIUse=1 WtCom= 1.00D+00 WtEn= 0.00D+00
 Coeff-Com: -0.336D-03-0.117D-01-0.623D-02 0.825D-01 0.389D+00 0.546D+00
 Coeff:     -0.336D-03-0.117D-01-0.623D-02 0.825D-01 0.389D+00 0.546D+00
 Gap=     0.248 Goal=   None    Shift=    0.000
 RMSDP=9.65D-06 MaxDP=3.38D-04 DE=-4.04D-06 OVMax= 3.25D-04

 Cycle   7  Pass 1  IDiag  1:
 E= -1957.67394406994     Delta-E=       -0.000001024812 Rises=F Damp=F
 DIIS: error= 9.23D-06 at cycle   7 NSaved=   7.
 NSaved= 7 IEnMin= 7 EnMin= -1957.67394406994     IErMin= 7 ErrMin= 9.23D-06
 ErrMax= 9.23D-06  0.00D+00 EMaxC= 1.00D-01 BMatC= 1.70D-08 BMatP= 1.02D-06
 IDIUse=1 WtCom= 1.00D+00 WtEn= 0.00D+00
 Coeff-Com:  0.518D-04-0.671D-02-0.403D-02 0.145D-01 0.894D-01 0.180D+00
 Coeff-Com:  0.727D+00
 Coeff:      0.518D-04-0.671D-02-0.403D-02 0.145D-01 0.894D-01 0.180D+00
 Coeff:      0.727D+00
 Gap=     0.248 Goal=   None    Shift=    0.000
 RMSDP=2.47D-06 MaxDP=2.62D-04 DE=-1.02D-06 OVMax= 3.94D-05

 Cycle   8  Pass 1  IDiag  1:
 E= -1957.67394408465     Delta-E=       -0.000000014705 Rises=F Damp=F
 DIIS: error= 4.23D-06 at cycle   8 NSaved=   8.
 NSaved= 8 IEnMin= 8 EnMin= -1957.67394408465     IErMin= 8 ErrMin= 4.23D-06
 ErrMax= 4.23D-06  0.00D+00 EMaxC= 1.00D-01 BMatC= 2.98D-09 BMatP= 1.70D-08
 IDIUse=1 WtCom= 1.00D+00 WtEn= 0.00D+00
 Coeff-Com:  0.510D-04-0.254D-02-0.155D-02 0.251D-02 0.201D-01 0.540D-01
 Coeff-Com:  0.358D+00 0.569D+00
 Coeff:      0.510D-04-0.254D-02-0.155D-02 0.251D-02 0.201D-01 0.540D-01
 Coeff:      0.358D+00 0.569D+00
 Gap=     0.248 Goal=   None    Shift=    0.000
 RMSDP=6.10D-07 MaxDP=6.25D-05 DE=-1.47D-08 OVMax= 1.30D-05

 Cycle   9  Pass 1  IDiag  1:
 E= -1957.67394408748     Delta-E=       -0.000000002834 Rises=F Damp=F
 DIIS: error= 5.65D-07 at cycle   9 NSaved=   9.
 NSaved= 9 IEnMin= 9 EnMin= -1957.67394408748     IErMin= 9 ErrMin= 5.65D-07
 ErrMax= 5.65D-07  0.00D+00 EMaxC= 1.00D-01 BMatC= 8.79D-11 BMatP= 2.98D-09
 IDIUse=1 WtCom= 1.00D+00 WtEn= 0.00D+00
 Coeff-Com:  0.144D-04-0.435D-03-0.266D-03-0.138D-03 0.562D-03 0.485D-02
 Coeff-Com:  0.607D-01 0.185D+00 0.750D+00
 Coeff:      0.144D-04-0.435D-03-0.266D-03-0.138D-03 0.562D-03 0.485D-02
 Coeff:      0.607D-01 0.185D+00 0.750D+00
 Gap=     0.248 Goal=   None    Shift=    0.000
 RMSDP=2.90D-07 MaxDP=2.95D-05 DE=-2.83D-09 OVMax= 2.68D-06

 Cycle  10  Pass 1  IDiag  1:
 E= -1957.67394408757     Delta-E=       -0.000000000089 Rises=F Damp=F
 DIIS: error= 1.41D-07 at cycle  10 NSaved=  10.
 NSaved=10 IEnMin=10 EnMin= -1957.67394408757     IErMin=10 ErrMin= 1.41D-07
 ErrMax= 1.41D-07  0.00D+00 EMaxC= 1.00D-01 BMatC= 7.69D-12 BMatP= 8.79D-11
 IDIUse=1 WtCom= 1.00D+00 WtEn= 0.00D+00
 Coeff-Com:  0.174D-05 0.136D-04 0.931D-05-0.272D-03-0.147D-02-0.237D-02
 Coeff-Com: -0.428D-02 0.263D-01 0.283D+00 0.699D+00
 Coeff:      0.174D-05 0.136D-04 0.931D-05-0.272D-03-0.147D-02-0.237D-02
 Coeff:     -0.428D-02 0.263D-01 0.283D+00 0.699D+00
 Gap=     0.248 Goal=   None    Shift=    0.000
 RMSDP=7.67D-08 MaxDP=8.99D-06 DE=-8.91D-11 OVMax= 7.24D-07

 Cycle  11  Pass 1  IDiag  1:
 E= -1957.67394408755     Delta-E=        0.000000000022 Rises=F Damp=F
 DIIS: error= 1.86D-08 at cycle  11 NSaved=  11.
 NSaved=11 IEnMin=10 EnMin= -1957.67394408757     IErMin=11 ErrMin= 1.86D-08
 ErrMax= 1.86D-08  0.00D+00 EMaxC= 1.00D-01 BMatC= 2.38D-13 BMatP= 7.69D-12
 IDIUse=1 WtCom= 1.00D+00 WtEn= 0.00D+00
 Coeff-Com: -0.233D-07 0.214D-04 0.150D-04-0.620D-04-0.417D-03-0.827D-03
 Coeff-Com: -0.373D-02-0.555D-03 0.556D-01 0.221D+00 0.729D+00
 Coeff:     -0.233D-07 0.214D-04 0.150D-04-0.620D-04-0.417D-03-0.827D-03
 Coeff:     -0.373D-02-0.555D-03 0.556D-01 0.221D+00 0.729D+00
 Gap=     0.248 Goal=   None    Shift=    0.000
 RMSDP=1.46D-08 MaxDP=1.27D-06 DE= 2.18D-11 OVMax= 1.11D-07

 Cycle  12  Pass 1  IDiag  1:
 E= -1957.67394408758     Delta-E=       -0.000000000031 Rises=F Damp=F
 DIIS: error= 5.60D-09 at cycle  12 NSaved=  12.
 NSaved=12 IEnMin=12 EnMin= -1957.67394408758     IErMin=12 ErrMin= 5.60D-09
 ErrMax= 5.60D-09  0.00D+00 EMaxC= 1.00D-01 BMatC= 2.01D-14 BMatP= 2.38D-13
 IDIUse=1 WtCom= 1.00D+00 WtEn= 0.00D+00
 Coeff-Com: -0.949D-07 0.767D-05 0.566D-05-0.816D-05-0.855D-04-0.192D-03
 Coeff-Com: -0.117D-02-0.154D-02 0.858D-02 0.551D-01 0.290D+00 0.650D+00
 Coeff:     -0.949D-07 0.767D-05 0.566D-05-0.816D-05-0.855D-04-0.192D-03
 Coeff:     -0.117D-02-0.154D-02 0.858D-02 0.551D-01 0.290D+00 0.650D+00
 Gap=     0.248 Goal=   None    Shift=    0.000
 RMSDP=2.40D-09 MaxDP=1.78D-07 DE=-3.14D-11 OVMax= 4.59D-08

 SCF Done:  E(RB3LYP) =  -1957.67394409     A.U. after   12 cycles
            NFock= 12  Conv=0.24D-08     -V/T= 2.0025
 KE= 1.952797181684D+03 PE=-5.866913338676D+03 EE= 1.345907437219D+03
 Leave Link  502 at Thu Jun 13 12:21:16 2024, MaxMem=  1073741824 cpu:       149.8
 (Enter /apps/z_install_tree/linux-rocky8-ivybridge/gcc-12.2.0/gaussian-09-D.01-wczn3gur5lpur3omlkzwa2l5ecyxp5ef/g09/l508.exe)
 QCSCF skips out because SCF is already converged.
 Leave Link  508 at Thu Jun 13 12:21:16 2024, MaxMem=  1073741824 cpu:         0.0
 (Enter /apps/z_install_tree/linux-rocky8-ivybridge/gcc-12.2.0/gaussian-09-D.01-wczn3gur5lpur3omlkzwa2l5ecyxp5ef/g09/l701.exe)
 Compute integral first derivatives.
 ... and contract with generalized density number  0.
 R6Disp: Adding Grimme-D3 dispersion energy 1st derivatives to the gradient.
 Leave Link  701 at Thu Jun 13 12:21:17 2024, MaxMem=  1073741824 cpu:         3.6
 (Enter /apps/z_install_tree/linux-rocky8-ivybridge/gcc-12.2.0/gaussian-09-D.01-wczn3gur5lpur3omlkzwa2l5ecyxp5ef/g09/l702.exe)
 L702 exits ... SP integral derivatives will be done elsewhere.
 Leave Link  702 at Thu Jun 13 12:21:17 2024, MaxMem=  1073741824 cpu:         0.2
 (Enter /apps/z_install_tree/linux-rocky8-ivybridge/gcc-12.2.0/gaussian-09-D.01-wczn3gur5lpur3omlkzwa2l5ecyxp5ef/g09/l703.exe)
 Compute integral first derivatives, UseDBF=F ICtDFT=           0.
 Integral derivatives from FoFJK, PRISM(SPDF).
 Calling FoFJK, ICntrl=      2127 FMM=F ISym2X=0 I1Cent= 0 IOpClX= 0 NMat=1 NMatS=1 NMatT=0.
 FoFJK:  IHMeth= 1 ICntrl=    2127 DoSepK=F KAlg= 0 I1Cent=   0 FoldK=F
 IRaf=         0 NMat=   1 IRICut=       1 DoRegI=T DoRafI=F ISym2E= 0.
 FoFCou: FMM=F IPFlag=           0 FMFlag=      100000 FMFlg1=         800
         NFxFlg=           0 DoJE=F BraDBF=F KetDBF=F FulRan=T
         wScrn=  0.000000 ICntrl=    2127 IOpCl=  0 I1Cent=           0 NGrid=           0
         NMat0=    1 NMatS0=      1 NMatT0=    0 NMatD0=    1 NMtDS0=    0 NMtDT0=    0
 Symmetry not used in FoFCou.
 Leave Link  703 at Thu Jun 13 12:21:19 2024, MaxMem=  1073741824 cpu:        42.7
 (Enter /apps/z_install_tree/linux-rocky8-ivybridge/gcc-12.2.0/gaussian-09-D.01-wczn3gur5lpur3omlkzwa2l5ecyxp5ef/g09/l716.exe)
 Dipole        =-5.21799984D-03 1.68746044D-02 1.55316470D-01
 -------------------------------------------------------------------
 Center     Atomic                   Forces (Hartrees/Bohr)
 Number     Number              X              Y              Z
 -------------------------------------------------------------------
      1        6           0.013397299    0.016282600   -0.014693455
      2        6          -0.000642823    0.006817903   -0.009615815
      3        6           0.000966054   -0.011442098   -0.007591916
      4       17          -0.002982819   -0.001621799    0.003574429
      5       17          -0.005786518   -0.000354640    0.005042933
      6       17           0.007265463   -0.006954245    0.008113156
      7       17          -0.003066363    0.000667509    0.005949715
      8        1          -0.004583491   -0.008346333    0.000931425
      9        1          -0.005471616    0.001811077    0.001832682
     10        1          -0.000403552    0.005999451    0.001638217
     11        1           0.001308366   -0.002859425    0.004818627
 -------------------------------------------------------------------
 Cartesian Forces:  Max     0.016282600 RMS     0.006708174
 Leave Link  716 at Thu Jun 13 12:21:19 2024, MaxMem=  1073741824 cpu:         0.3
 (Enter /apps/z_install_tree/linux-rocky8-ivybridge/gcc-12.2.0/gaussian-09-D.01-wczn3gur5lpur3omlkzwa2l5ecyxp5ef/g09/l103.exe)

 GradGradGradGradGradGradGradGradGradGradGradGradGradGradGradGradGradGrad
 Berny optimization.
 Using GEDIIS/GDIIS optimizer.
 FormGI is forming the generalized inverse of G from B-inverse, IUseBI=4.
 Internal  Forces:  Max     0.012774101 RMS     0.004201486
 Search for a local minimum.
 Step number   2 out of a maximum of   56
 All quantities printed in internal units (Hartrees-Bohrs-Radians)
 RMS Force = .42015D-02 SwitMx=.10000D-02 MixMth= 1
 Mixed Optimization -- RFO/linear search
 Update second derivatives using D2CorX and points    1    2
 DE= -2.00D-02 DEPred=-2.56D-02 R= 7.83D-01
 TightC=F SS=  1.41D+00  RLast= 4.12D-01 DXNew= 5.0454D-01 1.2370D+00
 Trust test= 7.83D-01 RLast= 4.12D-01 DXMaxT set to 5.05D-01
 ITU=  1  0
 Use linear search instead of GDIIS.
     Eigenvalues ---    0.00230   0.00523   0.03651   0.04929   0.05118
     Eigenvalues ---    0.05719   0.08122   0.09094   0.11742   0.12158
     Eigenvalues ---    0.15978   0.16005   0.21120   0.21995   0.22402
     Eigenvalues ---    0.23459   0.24763   0.25000   0.27164   0.27990
     Eigenvalues ---    0.30178   0.33598   0.33906   0.34024   0.34075
     Eigenvalues ---    0.34220   0.35947
 RFO step:  Lambda=-7.06260002D-03 EMin= 2.30038248D-03
 Quartic linear search produced a step of  0.18756.
 Iteration  1 RMS(Cart)=  0.08719704 RMS(Int)=  0.00361813
 Iteration  2 RMS(Cart)=  0.00445719 RMS(Int)=  0.00094014
 Iteration  3 RMS(Cart)=  0.00000662 RMS(Int)=  0.00094013
 Iteration  4 RMS(Cart)=  0.00000000 RMS(Int)=  0.00094013
 ITry= 1 IFail=0 DXMaxC= 2.50D-01 DCOld= 1.00D+10 DXMaxT= 5.05D-01 DXLimC= 3.00D+00 Rises=F
 Variable       Old X    -DE/DX   Delta X   Delta X   Delta X     New X
                                 (Linear)    (Quad)   (Total)
    R1        2.87323   0.00672   0.00077   0.02489   0.02567   2.89889
    R2        2.91025  -0.00481  -0.00473  -0.01761  -0.02234   2.88790
    R3        2.06365  -0.00244  -0.00155  -0.00742  -0.00897   2.05468
    R4        2.05477  -0.00112  -0.00367  -0.00184  -0.00551   2.04926
    R5        3.44878  -0.00178  -0.00385  -0.00656  -0.01041   3.43837
    R6        3.37218   0.00695   0.01927   0.01433   0.03360   3.40578
    R7        3.33470   0.01277   0.02215   0.02955   0.05170   3.38640
    R8        3.48453  -0.00599  -0.00669  -0.02778  -0.03447   3.45006
    R9        2.05616  -0.00271  -0.00300  -0.00756  -0.01056   2.04559
   R10        2.04881  -0.00272  -0.00431  -0.00690  -0.01120   2.03761
    A1        1.97680   0.00199  -0.00730   0.02734   0.01791   1.99471
    A2        1.86740  -0.00038   0.00180   0.02295   0.02035   1.88775
    A3        1.92585  -0.00371  -0.00660  -0.06044  -0.06717   1.85868
    A4        1.83262   0.00479   0.01759   0.08232   0.09765   1.93028
    A5        1.89580   0.00068   0.00439  -0.00709  -0.00263   1.89317
    A6        1.96471  -0.00304  -0.00865  -0.05936  -0.06877   1.89595
    A7        1.90848   0.00882  -0.01354   0.04961   0.03516   1.94364
    A8        1.88385   0.00548  -0.00187   0.02350   0.02112   1.90497
    A9        1.93340   0.00162  -0.00539   0.00950   0.00352   1.93692
   A10        1.90661  -0.00687  -0.00499  -0.02802  -0.03383   1.87278
   A11        1.91017  -0.00477  -0.00429  -0.01441  -0.01964   1.89053
   A12        1.92098  -0.00418   0.03268  -0.03972  -0.00720   1.91379
   A13        1.91551  -0.00656  -0.01055  -0.01739  -0.02788   1.88763
   A14        1.95300   0.00281   0.00728   0.00923   0.01643   1.96943
   A15        1.97578  -0.00075  -0.00425  -0.01346  -0.01800   1.95779
   A16        1.81457   0.00358   0.00691   0.03650   0.04367   1.85824
   A17        1.81409   0.00444   0.00829   0.03293   0.04105   1.85514
   A18        1.97738  -0.00335  -0.00721  -0.04118  -0.04874   1.92864
    D1        0.87490   0.00374   0.00930   0.15638   0.16564   1.04054
    D2        2.94723   0.00361  -0.00655   0.16421   0.15777   3.10500
    D3       -1.23174   0.00291   0.02886   0.13605   0.16464  -1.06710
    D4       -1.13596  -0.00292  -0.00937   0.02738   0.01829  -1.11767
    D5        0.93637  -0.00304  -0.02523   0.03521   0.01043   0.94679
    D6        3.04059  -0.00374   0.01018   0.00704   0.01730   3.05788
    D7        3.00440   0.00328   0.00442   0.12184   0.12608   3.13047
    D8       -1.20646   0.00315  -0.01144   0.12966   0.11821  -1.08826
    D9        0.89775   0.00246   0.02398   0.10150   0.12508   1.02283
   D10        3.06364  -0.00177  -0.00419  -0.05082  -0.05624   3.00739
   D11        1.05859  -0.00379  -0.01078  -0.09031  -0.10205   0.95654
   D12       -1.20159  -0.00095  -0.00353  -0.02924  -0.03393  -1.23552
   D13       -1.18807   0.00172   0.00524   0.04126   0.04744  -1.14062
   D14        3.09007  -0.00029  -0.00135   0.00177   0.00163   3.09170
   D15        0.82989   0.00254   0.00590   0.06284   0.06976   0.89965
   D16        0.91745   0.00114   0.00618   0.01334   0.01946   0.93691
   D17       -1.08760  -0.00087  -0.00041  -0.02615  -0.02635  -1.11394
   D18        2.93541   0.00196   0.00683   0.03492   0.04178   2.97719
         Item               Value     Threshold  Converged?
 Maximum Force            0.012774     0.000450     NO 
 RMS     Force            0.004201     0.000300     NO 
 Maximum Displacement     0.249627     0.001800     NO 
 RMS     Displacement     0.086753     0.001200     NO 
 Predicted change in Energy=-4.069381D-03
 Lowest energy point so far.  Saving SCF results.
 GradGradGradGradGradGradGradGradGradGradGradGradGradGradGradGradGradGrad

 Leave Link  103 at Thu Jun 13 12:21:19 2024, MaxMem=  1073741824 cpu:         1.9
 (Enter /apps/z_install_tree/linux-rocky8-ivybridge/gcc-12.2.0/gaussian-09-D.01-wczn3gur5lpur3omlkzwa2l5ecyxp5ef/g09/l202.exe)
                          Input orientation:                          
 ---------------------------------------------------------------------
 Center     Atomic      Atomic             Coordinates (Angstroms)
 Number     Number       Type             X           Y           Z
 ---------------------------------------------------------------------
      1          6           0       50.147604   35.401791   31.900981
      2          6           0       50.047978   35.628953   33.414823
      3          6           0       51.534720   35.664453   31.315873
      4         17           0       50.470287   37.342623   33.857081
      5         17           0       48.349686   35.341475   33.945198
      6         17           0       51.150723   34.530099   34.302382
      7         17           0       51.526933   35.127796   29.570856
      8          1           0       49.402709   36.027009   31.414743
      9          1           0       49.893157   34.361884   31.728281
     10          1           0       52.313063   35.095769   31.808361
     11          1           0       51.781140   36.714147   31.308418
 ---------------------------------------------------------------------
                    Distance matrix (angstroms):
                    1          2          3          4          5
     1  C    0.000000
     2  C    1.534029   0.000000
     3  C    1.528213   2.572403   0.000000
     4  Cl   2.774397   1.819506   3.225990   0.000000
     5  Cl   2.723044   1.802259   4.142717   2.917071   0.000000
     6  Cl   2.744598   1.792006   3.217677   2.927725   2.937978
     7  Cl   2.721600   4.149042   1.825691   4.938996   5.410677
     8  H    1.087287   2.138958   2.164877   2.972470   2.825246
     9  H    1.084424   2.115150   2.135766   3.708055   2.873434
    10  H    2.188936   2.827652   1.082480   3.555479   4.509413
    11  H    2.177578   2.935718   1.078256   2.934110   4.540012
                    6          7          8          9         10
     6  Cl   0.000000
     7  Cl   4.783944   0.000000
     8  H    3.692526   2.953105   0.000000
     9  H    2.869802   2.812530   1.763941   0.000000
    10  H    2.809121   2.371805   3.080958   2.530009   0.000000
    11  H    3.759164   2.366485   2.477982   3.045308   1.775397
                   11
    11  H    0.000000
 Symmetry turned off by external request.
 Stoichiometry    C3H4Cl4
 Framework group  C1[X(C3H4Cl4)]
 Deg. of freedom    27
 Full point group                 C1      NOp   1
 Rotational constants (GHZ):      1.6564864      0.6190411      0.6162498
 Leave Link  202 at Thu Jun 13 12:21:20 2024, MaxMem=  1073741824 cpu:         1.0
 (Enter /apps/z_install_tree/linux-rocky8-ivybridge/gcc-12.2.0/gaussian-09-D.01-wczn3gur5lpur3omlkzwa2l5ecyxp5ef/g09/l301.exe)
 Basis read from rwf:  (5D, 7F)
 No pseudopotential information found on rwf file.
   257 basis functions,   406 primitive gaussians,   271 cartesian basis functions
    45 alpha electrons       45 beta electrons
       nuclear repulsion energy       608.3128170023 Hartrees.
 IExCor=  402 DFT=T Ex+Corr=B3LYP ExCW=0 ScaHFX=  0.200000
 ScaDFX=  0.800000  0.720000  1.000000  0.810000 ScalE2=  1.000000  1.000000
 IRadAn=      5 IRanWt=     -1 IRanGd=            0 ICorTp=0 IEmpDi=131
 NAtoms=   11 NActive=   11 NUniq=   11 SFac= 1.00D+00 NAtFMM=   60 NAOKFM=F Big=F
 Integral buffers will be    131072 words long.
 Raffenetti 2 integral format.
 Two-electron integral symmetry is turned off.
 R6Disp:  Grimme-D3 Dispersion energy=       -0.0127351405 Hartrees.
 Nuclear repulsion after empirical dispersion term =      608.3000818618 Hartrees.
 No density basis found on file   724.
 Leave Link  301 at Thu Jun 13 12:21:20 2024, MaxMem=  1073741824 cpu:         1.0
 (Enter /apps/z_install_tree/linux-rocky8-ivybridge/gcc-12.2.0/gaussian-09-D.01-wczn3gur5lpur3omlkzwa2l5ecyxp5ef/g09/l302.exe)
 NPDir=0 NMtPBC=     1 NCelOv=     1 NCel=       1 NClECP=     1 NCelD=      1
         NCelK=      1 NCelE2=     1 NClLst=     1 CellRange=     0.0.
 One-electron integrals computed using PRISM.
 NBasis=   257 RedAO= T EigKep=  1.10D-05  NBF=   257
 NBsUse=   257 1.00D-06 EigRej= -1.00D+00 NBFU=   257
 Precomputing XC quadrature grid using
 IXCGrd= 4 IRadAn=           5 IRanWt=          -1 IRanGd=           0 AccXCQ= 0.00D+00.
 Generated NRdTot=       0 NPtTot=           0 NUsed=           0 NTot=          32
 NSgBfM=   270   270   270   270   270 MxSgAt=    11 MxSgA2=    11.
 Leave Link  302 at Thu Jun 13 12:21:20 2024, MaxMem=  1073741824 cpu:         6.9
 (Enter /apps/z_install_tree/linux-rocky8-ivybridge/gcc-12.2.0/gaussian-09-D.01-wczn3gur5lpur3omlkzwa2l5ecyxp5ef/g09/l303.exe)
 DipDrv:  MaxL=1.
 Leave Link  303 at Thu Jun 13 12:21:21 2024, MaxMem=  1073741824 cpu:         2.2
 (Enter /apps/z_install_tree/linux-rocky8-ivybridge/gcc-12.2.0/gaussian-09-D.01-wczn3gur5lpur3omlkzwa2l5ecyxp5ef/g09/l401.exe)
 Initial guess from the checkpoint file:  "tetrachloropropane.chk"
 B after Tr=     2.550216   -5.006916    1.770196
         Rot=    0.999718    0.006270   -0.004630   -0.022425 Ang=   2.72 deg.
 Guess basis will be translated and rotated to current coordinates.
 JPrj=2 DoOrth=T DoCkMO=T.
 Generating alternative initial guess.
 ExpMin= 4.38D-02 ExpMax= 1.06D+05 ExpMxC= 3.62D+03 IAcc=2 IRadAn=         4 AccDes= 0.00D+00
 Harris functional with IExCor=  402 and IRadAn=       4 diagonalized for initial guess.
 HarFok:  IExCor=  402 AccDes= 0.00D+00 IRadAn=         4 IDoV= 1 UseB2=F ITyADJ=14
 ICtDFT=  3500011 ScaDFX=  1.000000  1.000000  1.000000  1.000000
 FoFCou: FMM=F IPFlag=           0 FMFlag=      100000 FMFlg1=           0
         NFxFlg=           0 DoJE=T BraDBF=F KetDBF=T FulRan=T
         wScrn=  0.000000 ICntrl=     500 IOpCl=  0 I1Cent=   200000004 NGrid=           0
         NMat0=    1 NMatS0=      1 NMatT0=    0 NMatD0=    1 NMtDS0=    0 NMtDT0=    0
 Symmetry not used in FoFCou.
 Harris En= -1957.42034973063    
 Leave Link  401 at Thu Jun 13 12:21:21 2024, MaxMem=  1073741824 cpu:        10.7
 (Enter /apps/z_install_tree/linux-rocky8-ivybridge/gcc-12.2.0/gaussian-09-D.01-wczn3gur5lpur3omlkzwa2l5ecyxp5ef/g09/l502.exe)
 Closed shell SCF:
 Using DIIS extrapolation, IDIIS=  1040.
 Two-electron integral symmetry not used.
 Keep R1 ints in memory in canonical form, NReq=559877582.
 IVT=      238613 IEndB=      238613 NGot=  1073741824 MDV=   523925931
 LenX=   523925931 LenY=   523852049
 Requested convergence on RMS density matrix=1.00D-08 within  96 cycles.
 Requested convergence on MAX density matrix=1.00D-06.
 Requested convergence on             energy=1.00D-06.
 No special actions if energy rises.
 FoFCou: FMM=F IPFlag=           0 FMFlag=           0 FMFlg1=           0
         NFxFlg=           0 DoJE=F BraDBF=F KetDBF=F FulRan=T
         wScrn=  0.000000 ICntrl=     600 IOpCl=  0 I1Cent=           0 NGrid=           0
         NMat0=    1 NMatS0=  33153 NMatT0=    0 NMatD0=    1 NMtDS0=    0 NMtDT0=    0
 Symmetry not used in FoFCou.

 Cycle   1  Pass 1  IDiag  1:
 E= -1957.66550507188    
 DIIS: error= 4.79D-03 at cycle   1 NSaved=   1.
 NSaved= 1 IEnMin= 1 EnMin= -1957.66550507188     IErMin= 1 ErrMin= 4.79D-03
 ErrMax= 4.79D-03  0.00D+00 EMaxC= 1.00D-01 BMatC= 7.17D-03 BMatP= 7.17D-03
 IDIUse=3 WtCom= 9.52D-01 WtEn= 4.79D-02
 Coeff-Com:  0.100D+01
 Coeff-En:   0.100D+01
 Coeff:      0.100D+01
 Gap=     0.522 Goal=   None    Shift=    0.000
 GapD=    0.522 DampG=2.000 DampE=1.000 DampFc=2.0000 IDamp=-1.
 RMSDP=2.70D-03 MaxDP=1.68D-01              OVMax= 2.91D-02

 Cycle   2  Pass 1  IDiag  1:
 E= -1957.67691585076     Delta-E=       -0.011410778886 Rises=F Damp=F
 DIIS: error= 6.32D-04 at cycle   2 NSaved=   2.
 NSaved= 2 IEnMin= 2 EnMin= -1957.67691585076     IErMin= 2 ErrMin= 6.32D-04
 ErrMax= 6.32D-04  0.00D+00 EMaxC= 1.00D-01 BMatC= 2.26D-04 BMatP= 7.17D-03
 IDIUse=3 WtCom= 9.94D-01 WtEn= 6.32D-03
 Coeff-Com: -0.110D-01 0.101D+01
 Coeff-En:   0.000D+00 0.100D+01
 Coeff:     -0.109D-01 0.101D+01
 Gap=     0.248 Goal=   None    Shift=    0.000
 RMSDP=4.28D-04 MaxDP=4.10D-02 DE=-1.14D-02 OVMax= 6.45D-03

 Cycle   3  Pass 1  IDiag  1:
 E= -1957.67679523328     Delta-E=        0.000120617477 Rises=F Damp=F
 DIIS: error= 1.21D-03 at cycle   3 NSaved=   3.
 NSaved= 3 IEnMin= 2 EnMin= -1957.67691585076     IErMin= 2 ErrMin= 6.32D-04
 ErrMax= 1.21D-03  0.00D+00 EMaxC= 1.00D-01 BMatC= 4.04D-04 BMatP= 2.26D-04
 IDIUse=3 WtCom= 2.23D-01 WtEn= 7.77D-01
 Coeff-Com: -0.318D-01 0.601D+00 0.430D+00
 Coeff-En:   0.000D+00 0.597D+00 0.403D+00
 Coeff:     -0.711D-02 0.598D+00 0.409D+00
 Gap=     0.250 Goal=   None    Shift=    0.000
 RMSDP=1.83D-04 MaxDP=1.52D-02 DE= 1.21D-04 OVMax= 4.67D-03

 Cycle   4  Pass 1  IDiag  1:
 E= -1957.67717072757     Delta-E=       -0.000375494284 Rises=F Damp=F
 DIIS: error= 2.63D-04 at cycle   4 NSaved=   4.
 NSaved= 4 IEnMin= 4 EnMin= -1957.67717072757     IErMin= 4 ErrMin= 2.63D-04
 ErrMax= 2.63D-04  0.00D+00 EMaxC= 1.00D-01 BMatC= 1.77D-05 BMatP= 2.26D-04
 IDIUse=3 WtCom= 9.97D-01 WtEn= 2.63D-03
 Coeff-Com: -0.157D-01 0.244D+00 0.228D+00 0.544D+00
 Coeff-En:   0.000D+00 0.000D+00 0.000D+00 0.100D+01
 Coeff:     -0.157D-01 0.243D+00 0.227D+00 0.545D+00
 Gap=     0.250 Goal=   None    Shift=    0.000
 RMSDP=4.66D-05 MaxDP=2.08D-03 DE=-3.75D-04 OVMax= 1.04D-03

 Cycle   5  Pass 1  IDiag  1:
 E= -1957.67718645926     Delta-E=       -0.000015731691 Rises=F Damp=F
 DIIS: error= 7.66D-05 at cycle   5 NSaved=   5.
 NSaved= 5 IEnMin= 5 EnMin= -1957.67718645926     IErMin= 5 ErrMin= 7.66D-05
 ErrMax= 7.66D-05  0.00D+00 EMaxC= 1.00D-01 BMatC= 2.18D-06 BMatP= 1.77D-05
 IDIUse=1 WtCom= 1.00D+00 WtEn= 0.00D+00
 Coeff-Com: -0.295D-02 0.284D-01 0.490D-01 0.291D+00 0.635D+00
 Coeff:     -0.295D-02 0.284D-01 0.490D-01 0.291D+00 0.635D+00
 Gap=     0.250 Goal=   None    Shift=    0.000
 RMSDP=1.18D-05 MaxDP=4.90D-04 DE=-1.57D-05 OVMax= 3.40D-04

 Cycle   6  Pass 1  IDiag  1:
 E= -1957.67718847547     Delta-E=       -0.000002016213 Rises=F Damp=F
 DIIS: error= 1.92D-05 at cycle   6 NSaved=   6.
 NSaved= 6 IEnMin= 6 EnMin= -1957.67718847547     IErMin= 6 ErrMin= 1.92D-05
 ErrMax= 1.92D-05  0.00D+00 EMaxC= 1.00D-01 BMatC= 1.98D-07 BMatP= 2.18D-06
 IDIUse=1 WtCom= 1.00D+00 WtEn= 0.00D+00
 Coeff-Com: -0.175D-03-0.824D-02 0.624D-02 0.113D+00 0.335D+00 0.554D+00
 Coeff:     -0.175D-03-0.824D-02 0.624D-02 0.113D+00 0.335D+00 0.554D+00
 Gap=     0.250 Goal=   None    Shift=    0.000
 RMSDP=6.16D-06 MaxDP=3.43D-04 DE=-2.02D-06 OVMax= 1.50D-04

 Cycle   7  Pass 1  IDiag  1:
 E= -1957.67718866427     Delta-E=       -0.000000188800 Rises=F Damp=F
 DIIS: error= 5.01D-06 at cycle   7 NSaved=   7.
 NSaved= 7 IEnMin= 7 EnMin= -1957.67718866427     IErMin= 7 ErrMin= 5.01D-06
 ErrMax= 5.01D-06  0.00D+00 EMaxC= 1.00D-01 BMatC= 1.02D-08 BMatP= 1.98D-07
 IDIUse=1 WtCom= 1.00D+00 WtEn= 0.00D+00
 Coeff-Com:  0.150D-03-0.651D-02-0.634D-03 0.324D-01 0.107D+00 0.256D+00
 Coeff-Com:  0.612D+00
 Coeff:      0.150D-03-0.651D-02-0.634D-03 0.324D-01 0.107D+00 0.256D+00
 Coeff:      0.612D+00
 Gap=     0.250 Goal=   None    Shift=    0.000
 RMSDP=1.24D-06 MaxDP=8.19D-05 DE=-1.89D-07 OVMax= 3.36D-05

 Cycle   8  Pass 1  IDiag  1:
 E= -1957.67718867405     Delta-E=       -0.000000009778 Rises=F Damp=F
 DIIS: error= 1.25D-06 at cycle   8 NSaved=   8.
 NSaved= 8 IEnMin= 8 EnMin= -1957.67718867405     IErMin= 8 ErrMin= 1.25D-06
 ErrMax= 1.25D-06  0.00D+00 EMaxC= 1.00D-01 BMatC= 9.29D-10 BMatP= 1.02D-08
 IDIUse=1 WtCom= 1.00D+00 WtEn= 0.00D+00
 Coeff-Com:  0.749D-04-0.218D-02-0.582D-03 0.606D-02 0.198D-01 0.686D-01
 Coeff-Com:  0.289D+00 0.619D+00
 Coeff:      0.749D-04-0.218D-02-0.582D-03 0.606D-02 0.198D-01 0.686D-01
 Coeff:      0.289D+00 0.619D+00
 Gap=     0.250 Goal=   None    Shift=    0.000
 RMSDP=4.35D-07 MaxDP=2.27D-05 DE=-9.78D-09 OVMax= 9.98D-06

 Cycle   9  Pass 1  IDiag  1:
 E= -1957.67718867503     Delta-E=       -0.000000000978 Rises=F Damp=F
 DIIS: error= 3.69D-07 at cycle   9 NSaved=   9.
 NSaved= 9 IEnMin= 9 EnMin= -1957.67718867503     IErMin= 9 ErrMin= 3.69D-07
 ErrMax= 3.69D-07  0.00D+00 EMaxC= 1.00D-01 BMatC= 4.82D-11 BMatP= 9.29D-10
 IDIUse=1 WtCom= 1.00D+00 WtEn= 0.00D+00
 Coeff-Com:  0.173D-04-0.255D-03-0.146D-03-0.453D-03-0.235D-02 0.151D-02
 Coeff-Com:  0.546D-01 0.233D+00 0.715D+00
 Coeff:      0.173D-04-0.255D-03-0.146D-03-0.453D-03-0.235D-02 0.151D-02
 Coeff:      0.546D-01 0.233D+00 0.715D+00
 Gap=     0.250 Goal=   None    Shift=    0.000
 RMSDP=1.20D-07 MaxDP=6.80D-06 DE=-9.78D-10 OVMax= 1.86D-06

 Cycle  10  Pass 1  IDiag  1:
 E= -1957.67718867505     Delta-E=       -0.000000000019 Rises=F Damp=F
 DIIS: error= 8.32D-08 at cycle  10 NSaved=  10.
 NSaved=10 IEnMin=10 EnMin= -1957.67718867505     IErMin=10 ErrMin= 8.32D-08
 ErrMax= 8.32D-08  0.00D+00 EMaxC= 1.00D-01 BMatC= 2.34D-12 BMatP= 4.82D-11
 IDIUse=1 WtCom= 1.00D+00 WtEn= 0.00D+00
 Coeff-Com:  0.109D-05 0.626D-04-0.165D-04-0.610D-03-0.221D-02-0.514D-02
 Coeff-Com: -0.488D-02 0.289D-01 0.219D+00 0.765D+00
 Coeff:      0.109D-05 0.626D-04-0.165D-04-0.610D-03-0.221D-02-0.514D-02
 Coeff:     -0.488D-02 0.289D-01 0.219D+00 0.765D+00
 Gap=     0.250 Goal=   None    Shift=    0.000
 RMSDP=3.29D-08 MaxDP=1.78D-06 DE=-1.86D-11 OVMax= 4.84D-07

 Cycle  11  Pass 1  IDiag  1:
 E= -1957.67718867503     Delta-E=        0.000000000018 Rises=F Damp=F
 DIIS: error= 1.32D-08 at cycle  11 NSaved=  11.
 NSaved=11 IEnMin=10 EnMin= -1957.67718867505     IErMin=11 ErrMin= 1.32D-08
 ErrMax= 1.32D-08  0.00D+00 EMaxC= 1.00D-01 BMatC= 1.13D-13 BMatP= 2.34D-12
 IDIUse=1 WtCom= 1.00D+00 WtEn= 0.00D+00
 Coeff-Com: -0.362D-06 0.283D-04 0.122D-05-0.158D-03-0.540D-03-0.158D-02
 Coeff-Com: -0.356D-02 0.909D-03 0.357D-01 0.232D+00 0.737D+00
 Coeff:     -0.362D-06 0.283D-04 0.122D-05-0.158D-03-0.540D-03-0.158D-02
 Coeff:     -0.356D-02 0.909D-03 0.357D-01 0.232D+00 0.737D+00
 Gap=     0.250 Goal=   None    Shift=    0.000
 RMSDP=7.53D-09 MaxDP=5.59D-07 DE= 1.82D-11 OVMax= 1.07D-07

 SCF Done:  E(RB3LYP) =  -1957.67718868     A.U. after   11 cycles
            NFock= 11  Conv=0.75D-08     -V/T= 2.0025
 KE= 1.952762739434D+03 PE=-5.862439304073D+03 EE= 1.343699294102D+03
 Leave Link  502 at Thu Jun 13 12:21:35 2024, MaxMem=  1073741824 cpu:       140.8
 (Enter /apps/z_install_tree/linux-rocky8-ivybridge/gcc-12.2.0/gaussian-09-D.01-wczn3gur5lpur3omlkzwa2l5ecyxp5ef/g09/l508.exe)
 QCSCF skips out because SCF is already converged.
 Leave Link  508 at Thu Jun 13 12:21:35 2024, MaxMem=  1073741824 cpu:         0.0
 (Enter /apps/z_install_tree/linux-rocky8-ivybridge/gcc-12.2.0/gaussian-09-D.01-wczn3gur5lpur3omlkzwa2l5ecyxp5ef/g09/l701.exe)
 Compute integral first derivatives.
 ... and contract with generalized density number  0.
 R6Disp: Adding Grimme-D3 dispersion energy 1st derivatives to the gradient.
 Leave Link  701 at Thu Jun 13 12:21:36 2024, MaxMem=  1073741824 cpu:         2.8
 (Enter /apps/z_install_tree/linux-rocky8-ivybridge/gcc-12.2.0/gaussian-09-D.01-wczn3gur5lpur3omlkzwa2l5ecyxp5ef/g09/l702.exe)
 L702 exits ... SP integral derivatives will be done elsewhere.
 Leave Link  702 at Thu Jun 13 12:21:36 2024, MaxMem=  1073741824 cpu:         0.2
 (Enter /apps/z_install_tree/linux-rocky8-ivybridge/gcc-12.2.0/gaussian-09-D.01-wczn3gur5lpur3omlkzwa2l5ecyxp5ef/g09/l703.exe)
 Compute integral first derivatives, UseDBF=F ICtDFT=           0.
 Integral derivatives from FoFJK, PRISM(SPDF).
 Calling FoFJK, ICntrl=      2127 FMM=F ISym2X=0 I1Cent= 0 IOpClX= 0 NMat=1 NMatS=1 NMatT=0.
 FoFJK:  IHMeth= 1 ICntrl=    2127 DoSepK=F KAlg= 0 I1Cent=   0 FoldK=F
 IRaf=         0 NMat=   1 IRICut=       1 DoRegI=T DoRafI=F ISym2E= 0.
 FoFCou: FMM=F IPFlag=           0 FMFlag=      100000 FMFlg1=         800
         NFxFlg=           0 DoJE=F BraDBF=F KetDBF=F FulRan=T
         wScrn=  0.000000 ICntrl=    2127 IOpCl=  0 I1Cent=           0 NGrid=           0
         NMat0=    1 NMatS0=      1 NMatT0=    0 NMatD0=    1 NMtDS0=    0 NMtDT0=    0
 Symmetry not used in FoFCou.
 Leave Link  703 at Thu Jun 13 12:21:38 2024, MaxMem=  1073741824 cpu:        43.1
 (Enter /apps/z_install_tree/linux-rocky8-ivybridge/gcc-12.2.0/gaussian-09-D.01-wczn3gur5lpur3omlkzwa2l5ecyxp5ef/g09/l716.exe)
 Dipole        = 3.20588398D-02 6.14988707D-02 5.64058549D-02
 -------------------------------------------------------------------
 Center     Atomic                   Forces (Hartrees/Bohr)
 Number     Number              X              Y              Z
 -------------------------------------------------------------------
      1        6           0.005322583   -0.000175456    0.004748918
      2        6          -0.001012578    0.006936119   -0.003179917
      3        6          -0.005732624   -0.002347237   -0.004352685
      4       17           0.000675969   -0.001783580   -0.002788438
      5       17           0.000280197   -0.002358705   -0.000409794
      6       17           0.000767133   -0.002835299    0.001890590
      7       17           0.000821357    0.001336556    0.002331894
      8        1           0.000265274    0.000395851    0.000038151
      9        1          -0.002937901   -0.002279402   -0.000288854
     10        1           0.000013187   -0.000394577    0.001003177
     11        1           0.001537404    0.003505730    0.001006957
 -------------------------------------------------------------------
 Cartesian Forces:  Max     0.006936119 RMS     0.002672933
 Leave Link  716 at Thu Jun 13 12:21:38 2024, MaxMem=  1073741824 cpu:         0.5
 (Enter /apps/z_install_tree/linux-rocky8-ivybridge/gcc-12.2.0/gaussian-09-D.01-wczn3gur5lpur3omlkzwa2l5ecyxp5ef/g09/l103.exe)

 GradGradGradGradGradGradGradGradGradGradGradGradGradGradGradGradGradGrad
 Berny optimization.
 Using GEDIIS/GDIIS optimizer.
 FormGI is forming the generalized inverse of G from B-inverse, IUseBI=4.
 Internal  Forces:  Max     0.005105496 RMS     0.001878706
 Search for a local minimum.
 Step number   3 out of a maximum of   56
 All quantities printed in internal units (Hartrees-Bohrs-Radians)
 RMS Force = .18787D-02 SwitMx=.10000D-02 MixMth= 1
 Mixed Optimization -- RFO/linear search
 Update second derivatives using D2CorX and points    2    3
 DE= -3.24D-03 DEPred=-4.07D-03 R= 7.97D-01
 TightC=F SS=  1.41D+00  RLast= 4.33D-01 DXNew= 8.4853D-01 1.2976D+00
 Trust test= 7.97D-01 RLast= 4.33D-01 DXMaxT set to 8.49D-01
 ITU=  1  1  0
 Use linear search instead of GDIIS.
     Eigenvalues ---    0.00230   0.00583   0.04087   0.04510   0.05118
     Eigenvalues ---    0.05776   0.07840   0.08716   0.11601   0.12394
     Eigenvalues ---    0.16001   0.16089   0.20159   0.22175   0.22487
     Eigenvalues ---    0.23420   0.24994   0.25557   0.26628   0.28702
     Eigenvalues ---    0.30851   0.33695   0.33868   0.34023   0.34081
     Eigenvalues ---    0.34581   0.36914
 RFO step:  Lambda=-8.85620254D-04 EMin= 2.29934582D-03
 Quartic linear search produced a step of -0.09958.
 Iteration  1 RMS(Cart)=  0.05249547 RMS(Int)=  0.00165295
 Iteration  2 RMS(Cart)=  0.00166736 RMS(Int)=  0.00008425
 Iteration  3 RMS(Cart)=  0.00000119 RMS(Int)=  0.00008424
 Iteration  4 RMS(Cart)=  0.00000000 RMS(Int)=  0.00008424
 ITry= 1 IFail=0 DXMaxC= 2.00D-01 DCOld= 1.00D+10 DXMaxT= 8.49D-01 DXLimC= 3.00D+00 Rises=F
 Variable       Old X    -DE/DX   Delta X   Delta X   Delta X     New X
                                 (Linear)    (Quad)   (Total)
    R1        2.89889  -0.00448  -0.00256  -0.00782  -0.01037   2.88852
    R2        2.88790  -0.00268   0.00222  -0.01332  -0.01109   2.87681
    R3        2.05468   0.00003   0.00089  -0.00176  -0.00087   2.05381
    R4        2.04926   0.00292   0.00055   0.00660   0.00714   2.05641
    R5        3.43837  -0.00220   0.00104  -0.01047  -0.00944   3.42893
    R6        3.40578  -0.00001  -0.00335   0.00671   0.00336   3.40914
    R7        3.38640   0.00315  -0.00515   0.01833   0.01318   3.39958
    R8        3.45006  -0.00263   0.00343  -0.01783  -0.01440   3.43566
    R9        2.04559   0.00067   0.00105  -0.00038   0.00067   2.04626
   R10        2.03761   0.00376   0.00112   0.00758   0.00870   2.04631
    A1        1.99471  -0.00188  -0.00178  -0.00365  -0.00532   1.98939
    A2        1.88775   0.00014  -0.00203  -0.00967  -0.01131   1.87644
    A3        1.85868   0.00043   0.00669  -0.00177   0.00484   1.86352
    A4        1.93028  -0.00016  -0.00972   0.00635  -0.00326   1.92702
    A5        1.89317   0.00219   0.00026   0.02629   0.02648   1.91965
    A6        1.89595  -0.00068   0.00685  -0.01901  -0.01212   1.88383
    A7        1.94364  -0.00511  -0.00350  -0.00741  -0.01088   1.93275
    A8        1.90497  -0.00132  -0.00210  -0.00114  -0.00323   1.90174
    A9        1.93692   0.00148  -0.00035   0.00354   0.00320   1.94012
   A10        1.87278   0.00421   0.00337   0.01327   0.01667   1.88945
   A11        1.89053   0.00218   0.00196   0.00521   0.00719   1.89772
   A12        1.91379  -0.00133   0.00072  -0.01338  -0.01267   1.90112
   A13        1.88763   0.00275   0.00278   0.00818   0.01095   1.89858
   A14        1.96943  -0.00166  -0.00164  -0.00762  -0.00930   1.96013
   A15        1.95779   0.00006   0.00179  -0.00428  -0.00255   1.95524
   A16        1.85824  -0.00024  -0.00435   0.01276   0.00843   1.86667
   A17        1.85514  -0.00079  -0.00409   0.01090   0.00680   1.86194
   A18        1.92864   0.00001   0.00485  -0.01700  -0.01225   1.91639
    D1        1.04054  -0.00142  -0.01649   0.00883  -0.00762   1.03292
    D2        3.10500  -0.00016  -0.01571   0.01998   0.00429   3.10929
    D3       -1.06710  -0.00174  -0.01639   0.00482  -0.01153  -1.07863
    D4       -1.11767  -0.00002  -0.00182   0.01048   0.00861  -1.10906
    D5        0.94679   0.00124  -0.00104   0.02162   0.02052   0.96732
    D6        3.05788  -0.00034  -0.00172   0.00647   0.00470   3.06258
    D7        3.13047   0.00048  -0.01255   0.03829   0.02576  -3.12695
    D8       -1.08826   0.00174  -0.01177   0.04944   0.03768  -1.05058
    D9        1.02283   0.00016  -0.01245   0.03428   0.02185   1.04468
   D10        3.00739   0.00094   0.00560   0.09195   0.09768   3.10508
   D11        0.95654   0.00044   0.01016   0.07541   0.08574   1.04227
   D12       -1.23552   0.00172   0.00338   0.10793   0.11143  -1.12409
   D13       -1.14062  -0.00037  -0.00472   0.08145   0.07660  -1.06403
   D14        3.09170  -0.00087  -0.00016   0.06490   0.06465  -3.12683
   D15        0.89965   0.00041  -0.00695   0.09742   0.09034   0.98999
   D16        0.93691   0.00005  -0.00194   0.07816   0.07619   1.01311
   D17       -1.11394  -0.00045   0.00262   0.06162   0.06425  -1.04970
   D18        2.97719   0.00083  -0.00416   0.09414   0.08994   3.06712
         Item               Value     Threshold  Converged?
 Maximum Force            0.005105     0.000450     NO 
 RMS     Force            0.001879     0.000300     NO 
 Maximum Displacement     0.199749     0.001800     NO 
 RMS     Displacement     0.052509     0.001200     NO 
 Predicted change in Energy=-5.193998D-04
 Lowest energy point so far.  Saving SCF results.
 GradGradGradGradGradGradGradGradGradGradGradGradGradGradGradGradGradGrad

 Leave Link  103 at Thu Jun 13 12:21:38 2024, MaxMem=  1073741824 cpu:         2.1
 (Enter /apps/z_install_tree/linux-rocky8-ivybridge/gcc-12.2.0/gaussian-09-D.01-wczn3gur5lpur3omlkzwa2l5ecyxp5ef/g09/l202.exe)
                          Input orientation:                          
 ---------------------------------------------------------------------
 Center     Atomic      Atomic             Coordinates (Angstroms)
 Number     Number       Type             X           Y           Z
 ---------------------------------------------------------------------
      1          6           0       50.152492   35.379358   31.903687
      2          6           0       50.051427   35.641839   33.406125
      3          6           0       51.532579   35.648100   31.320024
      4         17           0       50.464198   37.367435   33.786115
      5         17           0       48.356403   35.334959   33.942101
      6         17           0       51.159110   34.566110   34.329261
      7         17           0       51.510392   35.233499   29.549995
      8          1           0       49.406200   35.998316   31.412633
      9          1           0       49.879103   34.337652   31.747814
     10          1           0       52.299004   35.035558   31.778188
     11          1           0       51.807092   36.693175   31.391056
 ---------------------------------------------------------------------
                    Distance matrix (angstroms):
                    1          2          3          4          5
     1  C    0.000000
     2  C    1.528539   0.000000
     3  C    1.522341   2.558451   0.000000
     4  Cl   2.755566   1.814512   3.190478   0.000000
     5  Cl   2.717175   1.804037   4.130549   2.932249   0.000000
     6  Cl   2.749192   1.798981   3.219579   2.936891   2.931925
     7  Cl   2.721220   4.143075   1.818073   4.857254   5.408192
     8  H    1.086828   2.125418   2.157015   2.937220   2.817858
     9  H    1.088204   2.116742   2.152733   3.698187   2.850988
    10  H    2.177489   2.840662   1.082834   3.582726   4.507356
    11  H    2.174076   2.871964   1.082860   2.827419   4.501093
                    6          7          8          9         10
     6  Cl   0.000000
     7  Cl   4.838408   0.000000
     8  H    3.691967   2.912386   0.000000
     9  H    2.890412   2.879940   1.758916   0.000000
    10  H    2.833322   2.371905   3.070642   2.518712   0.000000
    11  H    3.684744   2.368162   2.499515   3.064785   1.771876
                   11
    11  H    0.000000
 Symmetry turned off by external request.
 Stoichiometry    C3H4Cl4
 Framework group  C1[X(C3H4Cl4)]
 Deg. of freedom    27
 Full point group                 C1      NOp   1
 Rotational constants (GHZ):      1.6520369      0.6210557      0.6192008
 Leave Link  202 at Thu Jun 13 12:21:39 2024, MaxMem=  1073741824 cpu:         1.1
 (Enter /apps/z_install_tree/linux-rocky8-ivybridge/gcc-12.2.0/gaussian-09-D.01-wczn3gur5lpur3omlkzwa2l5ecyxp5ef/g09/l301.exe)
 Basis read from rwf:  (5D, 7F)
 No pseudopotential information found on rwf file.
   257 basis functions,   406 primitive gaussians,   271 cartesian basis functions
    45 alpha electrons       45 beta electrons
       nuclear repulsion energy       608.8940649064 Hartrees.
 IExCor=  402 DFT=T Ex+Corr=B3LYP ExCW=0 ScaHFX=  0.200000
 ScaDFX=  0.800000  0.720000  1.000000  0.810000 ScalE2=  1.000000  1.000000
 IRadAn=      5 IRanWt=     -1 IRanGd=            0 ICorTp=0 IEmpDi=131
 NAtoms=   11 NActive=   11 NUniq=   11 SFac= 1.00D+00 NAtFMM=   60 NAOKFM=F Big=F
 Integral buffers will be    131072 words long.
 Raffenetti 2 integral format.
 Two-electron integral symmetry is turned off.
 R6Disp:  Grimme-D3 Dispersion energy=       -0.0128247875 Hartrees.
 Nuclear repulsion after empirical dispersion term =      608.8812401189 Hartrees.
 No density basis found on file   724.
 Leave Link  301 at Thu Jun 13 12:21:39 2024, MaxMem=  1073741824 cpu:         1.3
 (Enter /apps/z_install_tree/linux-rocky8-ivybridge/gcc-12.2.0/gaussian-09-D.01-wczn3gur5lpur3omlkzwa2l5ecyxp5ef/g09/l302.exe)
 NPDir=0 NMtPBC=     1 NCelOv=     1 NCel=       1 NClECP=     1 NCelD=      1
         NCelK=      1 NCelE2=     1 NClLst=     1 CellRange=     0.0.
 One-electron integrals computed using PRISM.
 NBasis=   257 RedAO= T EigKep=  1.05D-05  NBF=   257
 NBsUse=   257 1.00D-06 EigRej= -1.00D+00 NBFU=   257
 Precomputing XC quadrature grid using
 IXCGrd= 4 IRadAn=           5 IRanWt=          -1 IRanGd=           0 AccXCQ= 0.00D+00.
 Generated NRdTot=       0 NPtTot=           0 NUsed=           0 NTot=          32
 NSgBfM=   270   270   270   270   270 MxSgAt=    11 MxSgA2=    11.
 Leave Link  302 at Thu Jun 13 12:21:39 2024, MaxMem=  1073741824 cpu:         2.8
 (Enter /apps/z_install_tree/linux-rocky8-ivybridge/gcc-12.2.0/gaussian-09-D.01-wczn3gur5lpur3omlkzwa2l5ecyxp5ef/g09/l303.exe)
 DipDrv:  MaxL=1.
 Leave Link  303 at Thu Jun 13 12:21:39 2024, MaxMem=  1073741824 cpu:         2.8
 (Enter /apps/z_install_tree/linux-rocky8-ivybridge/gcc-12.2.0/gaussian-09-D.01-wczn3gur5lpur3omlkzwa2l5ecyxp5ef/g09/l401.exe)
 Initial guess from the checkpoint file:  "tetrachloropropane.chk"
 B after Tr=     0.703750   -1.173561    0.237621
         Rot=    0.999976   -0.000374   -0.001639   -0.006691 Ang=  -0.79 deg.
 Guess basis will be translated and rotated to current coordinates.
 JPrj=2 DoOrth=T DoCkMO=T.
 Generating alternative initial guess.
 ExpMin= 4.38D-02 ExpMax= 1.06D+05 ExpMxC= 3.62D+03 IAcc=2 IRadAn=         4 AccDes= 0.00D+00
 Harris functional with IExCor=  402 and IRadAn=       4 diagonalized for initial guess.
 HarFok:  IExCor=  402 AccDes= 0.00D+00 IRadAn=         4 IDoV= 1 UseB2=F ITyADJ=14
 ICtDFT=  3500011 ScaDFX=  1.000000  1.000000  1.000000  1.000000
 FoFCou: FMM=F IPFlag=           0 FMFlag=      100000 FMFlg1=           0
         NFxFlg=           0 DoJE=T BraDBF=F KetDBF=T FulRan=T
         wScrn=  0.000000 ICntrl=     500 IOpCl=  0 I1Cent=   200000004 NGrid=           0
         NMat0=    1 NMatS0=      1 NMatT0=    0 NMatD0=    1 NMtDS0=    0 NMtDT0=    0
 Symmetry not used in FoFCou.
 Harris En= -1957.42105904306    
 Leave Link  401 at Thu Jun 13 12:21:40 2024, MaxMem=  1073741824 cpu:         8.6
 (Enter /apps/z_install_tree/linux-rocky8-ivybridge/gcc-12.2.0/gaussian-09-D.01-wczn3gur5lpur3omlkzwa2l5ecyxp5ef/g09/l502.exe)
 Closed shell SCF:
 Using DIIS extrapolation, IDIIS=  1040.
 Two-electron integral symmetry not used.
 Keep R1 ints in memory in canonical form, NReq=559877582.
 IVT=      238613 IEndB=      238613 NGot=  1073741824 MDV=   523925931
 LenX=   523925931 LenY=   523852049
 Requested convergence on RMS density matrix=1.00D-08 within  96 cycles.
 Requested convergence on MAX density matrix=1.00D-06.
 Requested convergence on             energy=1.00D-06.
 No special actions if energy rises.
 FoFCou: FMM=F IPFlag=           0 FMFlag=           0 FMFlg1=           0
         NFxFlg=           0 DoJE=F BraDBF=F KetDBF=F FulRan=T
         wScrn=  0.000000 ICntrl=     600 IOpCl=  0 I1Cent=           0 NGrid=           0
         NMat0=    1 NMatS0=  33153 NMatT0=    0 NMatD0=    1 NMtDS0=    0 NMtDT0=    0
 Symmetry not used in FoFCou.

 Cycle   1  Pass 1  IDiag  1:
 E= -1957.67427007397    
 DIIS: error= 2.76D-03 at cycle   1 NSaved=   1.
 NSaved= 1 IEnMin= 1 EnMin= -1957.67427007397     IErMin= 1 ErrMin= 2.76D-03
 ErrMax= 2.76D-03  0.00D+00 EMaxC= 1.00D-01 BMatC= 2.13D-03 BMatP= 2.13D-03
 IDIUse=3 WtCom= 9.72D-01 WtEn= 2.76D-02
 Coeff-Com:  0.100D+01
 Coeff-En:   0.100D+01
 Coeff:      0.100D+01
 Gap=     0.523 Goal=   None    Shift=    0.000
 GapD=    0.523 DampG=2.000 DampE=1.000 DampFc=2.0000 IDamp=-1.
 RMSDP=2.07D-03 MaxDP=1.97D-01              OVMax= 1.95D-02

 Cycle   2  Pass 1  IDiag  1:
 E= -1957.67770288645     Delta-E=       -0.003432812475 Rises=F Damp=F
 DIIS: error= 4.03D-04 at cycle   2 NSaved=   2.
 NSaved= 2 IEnMin= 2 EnMin= -1957.67770288645     IErMin= 2 ErrMin= 4.03D-04
 ErrMax= 4.03D-04  0.00D+00 EMaxC= 1.00D-01 BMatC= 3.33D-05 BMatP= 2.13D-03
 IDIUse=3 WtCom= 9.96D-01 WtEn= 4.03D-03
 Coeff-Com: -0.436D-01 0.104D+01
 Coeff-En:   0.000D+00 0.100D+01
 Coeff:     -0.434D-01 0.104D+01
 Gap=     0.249 Goal=   None    Shift=    0.000
 RMSDP=1.70D-04 MaxDP=1.14D-02 DE=-3.43D-03 OVMax= 2.80D-03

 Cycle   3  Pass 1  IDiag  1:
 E= -1957.67773716604     Delta-E=       -0.000034279598 Rises=F Damp=F
 DIIS: error= 1.87D-04 at cycle   3 NSaved=   3.
 NSaved= 3 IEnMin= 3 EnMin= -1957.67773716604     IErMin= 3 ErrMin= 1.87D-04
 ErrMax= 1.87D-04  0.00D+00 EMaxC= 1.00D-01 BMatC= 1.81D-05 BMatP= 3.33D-05
 IDIUse=3 WtCom= 9.98D-01 WtEn= 1.87D-03
 Coeff-Com: -0.277D-01 0.456D+00 0.572D+00
 Coeff-En:   0.000D+00 0.000D+00 0.100D+01
 Coeff:     -0.276D-01 0.455D+00 0.573D+00
 Gap=     0.248 Goal=   None    Shift=    0.000
 RMSDP=8.63D-05 MaxDP=4.52D-03 DE=-3.43D-05 OVMax= 1.25D-03

 Cycle   4  Pass 1  IDiag  1:
 E= -1957.67775467703     Delta-E=       -0.000017510983 Rises=F Damp=F
 DIIS: error= 7.45D-05 at cycle   4 NSaved=   4.
 NSaved= 4 IEnMin= 4 EnMin= -1957.67775467703     IErMin= 4 ErrMin= 7.45D-05
 ErrMax= 7.45D-05  0.00D+00 EMaxC= 1.00D-01 BMatC= 1.93D-06 BMatP= 1.81D-05
 IDIUse=1 WtCom= 1.00D+00 WtEn= 0.00D+00
 Coeff-Com: -0.887D-02 0.127D+00 0.281D+00 0.602D+00
 Coeff:     -0.887D-02 0.127D+00 0.281D+00 0.602D+00
 Gap=     0.249 Goal=   None    Shift=    0.000
 RMSDP=1.61D-05 MaxDP=1.60D-03 DE=-1.75D-05 OVMax= 4.68D-04

 Cycle   5  Pass 1  IDiag  1:
 E= -1957.67775610971     Delta-E=       -0.000001432682 Rises=F Damp=F
 DIIS: error= 4.03D-05 at cycle   5 NSaved=   5.
 NSaved= 5 IEnMin= 5 EnMin= -1957.67775610971     IErMin= 5 ErrMin= 4.03D-05
 ErrMax= 4.03D-05  0.00D+00 EMaxC= 1.00D-01 BMatC= 5.56D-07 BMatP= 1.93D-06
 IDIUse=1 WtCom= 1.00D+00 WtEn= 0.00D+00
 Coeff-Com: -0.526D-03-0.751D-02 0.793D-01 0.393D+00 0.536D+00
 Coeff:     -0.526D-03-0.751D-02 0.793D-01 0.393D+00 0.536D+00
 Gap=     0.249 Goal=   None    Shift=    0.000
 RMSDP=7.11D-06 MaxDP=3.58D-04 DE=-1.43D-06 OVMax= 1.59D-04

 Cycle   6  Pass 1  IDiag  1:
 E= -1957.67775663203     Delta-E=       -0.000000522321 Rises=F Damp=F
 DIIS: error= 1.00D-05 at cycle   6 NSaved=   6.
 NSaved= 6 IEnMin= 6 EnMin= -1957.67775663203     IErMin= 6 ErrMin= 1.00D-05
 ErrMax= 1.00D-05  0.00D+00 EMaxC= 1.00D-01 BMatC= 3.31D-08 BMatP= 5.56D-07
 IDIUse=1 WtCom= 1.00D+00 WtEn= 0.00D+00
 Coeff-Com:  0.189D-03-0.124D-01 0.327D-01 0.204D+00 0.318D+00 0.458D+00
 Coeff:      0.189D-03-0.124D-01 0.327D-01 0.204D+00 0.318D+00 0.458D+00
 Gap=     0.249 Goal=   None    Shift=    0.000
 RMSDP=1.55D-06 MaxDP=1.04D-04 DE=-5.22D-07 OVMax= 3.95D-05

 Cycle   7  Pass 1  IDiag  1:
 E= -1957.67775666244     Delta-E=       -0.000000030407 Rises=F Damp=F
 DIIS: error= 1.66D-06 at cycle   7 NSaved=   7.
 NSaved= 7 IEnMin= 7 EnMin= -1957.67775666244     IErMin= 7 ErrMin= 1.66D-06
 ErrMax= 1.66D-06  0.00D+00 EMaxC= 1.00D-01 BMatC= 1.20D-09 BMatP= 3.31D-08
 IDIUse=1 WtCom= 1.00D+00 WtEn= 0.00D+00
 Coeff-Com:  0.148D-03-0.532D-02 0.753D-02 0.555D-01 0.924D-01 0.208D+00
 Coeff-Com:  0.642D+00
 Coeff:      0.148D-03-0.532D-02 0.753D-02 0.555D-01 0.924D-01 0.208D+00
 Coeff:      0.642D+00
 Gap=     0.249 Goal=   None    Shift=    0.000
 RMSDP=4.60D-07 MaxDP=4.98D-05 DE=-3.04D-08 OVMax= 9.31D-06

 Cycle   8  Pass 1  IDiag  1:
 E= -1957.67775666353     Delta-E=       -0.000000001095 Rises=F Damp=F
 DIIS: error= 4.73D-07 at cycle   8 NSaved=   8.
 NSaved= 8 IEnMin= 8 EnMin= -1957.67775666353     IErMin= 8 ErrMin= 4.73D-07
 ErrMax= 4.73D-07  0.00D+00 EMaxC= 1.00D-01 BMatC= 9.83D-11 BMatP= 1.20D-09
 IDIUse=1 WtCom= 1.00D+00 WtEn= 0.00D+00
 Coeff-Com:  0.492D-04-0.121D-02 0.501D-03 0.587D-02 0.109D-01 0.472D-01
 Coeff-Com:  0.278D+00 0.659D+00
 Coeff:      0.492D-04-0.121D-02 0.501D-03 0.587D-02 0.109D-01 0.472D-01
 Coeff:      0.278D+00 0.659D+00
 Gap=     0.249 Goal=   None    Shift=    0.000
 RMSDP=1.54D-07 MaxDP=1.28D-05 DE=-1.09D-09 OVMax= 2.36D-06

 Cycle   9  Pass 1  IDiag  1:
 E= -1957.67775666369     Delta-E=       -0.000000000161 Rises=F Damp=F
 DIIS: error= 1.46D-07 at cycle   9 NSaved=   9.
 NSaved= 9 IEnMin= 9 EnMin= -1957.67775666369     IErMin= 9 ErrMin= 1.46D-07
 ErrMax= 1.46D-07  0.00D+00 EMaxC= 1.00D-01 BMatC= 8.29D-12 BMatP= 9.83D-11
 IDIUse=1 WtCom= 1.00D+00 WtEn= 0.00D+00
 Coeff-Com:  0.868D-05-0.285D-04-0.464D-03-0.277D-02-0.416D-02 0.568D-03
 Coeff-Com:  0.617D-01 0.283D+00 0.662D+00
 Coeff:      0.868D-05-0.285D-04-0.464D-03-0.277D-02-0.416D-02 0.568D-03
 Coeff:      0.617D-01 0.283D+00 0.662D+00
 Gap=     0.249 Goal=   None    Shift=    0.000
 RMSDP=5.39D-08 MaxDP=4.76D-06 DE=-1.61D-10 OVMax= 7.17D-07

 Cycle  10  Pass 1  IDiag  1:
 E= -1957.67775666364     Delta-E=        0.000000000049 Rises=F Damp=F
 DIIS: error= 4.20D-08 at cycle  10 NSaved=  10.
 NSaved=10 IEnMin= 9 EnMin= -1957.67775666369     IErMin=10 ErrMin= 4.20D-08
 ErrMax= 4.20D-08  0.00D+00 EMaxC= 1.00D-01 BMatC= 4.74D-13 BMatP= 8.29D-12
 IDIUse=1 WtCom= 1.00D+00 WtEn= 0.00D+00
 Coeff-Com:  0.164D-06 0.681D-04-0.185D-03-0.139D-02-0.224D-02-0.294D-02
 Coeff-Com:  0.436D-02 0.607D-01 0.254D+00 0.688D+00
 Coeff:      0.164D-06 0.681D-04-0.185D-03-0.139D-02-0.224D-02-0.294D-02
 Coeff:      0.436D-02 0.607D-01 0.254D+00 0.688D+00
 Gap=     0.249 Goal=   None    Shift=    0.000
 RMSDP=1.20D-08 MaxDP=8.50D-07 DE= 4.87D-11 OVMax= 1.65D-07

 Cycle  11  Pass 1  IDiag  1:
 E= -1957.67775666365     Delta-E=       -0.000000000002 Rises=F Damp=F
 DIIS: error= 1.20D-08 at cycle  11 NSaved=  11.
 NSaved=11 IEnMin= 9 EnMin= -1957.67775666369     IErMin=11 ErrMin= 1.20D-08
 ErrMax= 1.20D-08  0.00D+00 EMaxC= 1.00D-01 BMatC= 2.78D-14 BMatP= 4.74D-13
 IDIUse=1 WtCom= 1.00D+00 WtEn= 0.00D+00
 Coeff-Com: -0.456D-06 0.190D-04-0.126D-04-0.179D-03-0.334D-03-0.852D-03
 Coeff-Com: -0.298D-02-0.199D-02 0.317D-01 0.232D+00 0.743D+00
 Coeff:     -0.456D-06 0.190D-04-0.126D-04-0.179D-03-0.334D-03-0.852D-03
 Coeff:     -0.298D-02-0.199D-02 0.317D-01 0.232D+00 0.743D+00
 Gap=     0.249 Goal=   None    Shift=    0.000
 RMSDP=3.00D-09 MaxDP=1.29D-07 DE=-1.82D-12 OVMax= 3.94D-08

 SCF Done:  E(RB3LYP) =  -1957.67775666     A.U. after   11 cycles
            NFock= 11  Conv=0.30D-08     -V/T= 2.0025
 KE= 1.952771014223D+03 PE=-5.863597906195D+03 EE= 1.344267895189D+03
 Leave Link  502 at Thu Jun 13 12:21:54 2024, MaxMem=  1073741824 cpu:       141.1
 (Enter /apps/z_install_tree/linux-rocky8-ivybridge/gcc-12.2.0/gaussian-09-D.01-wczn3gur5lpur3omlkzwa2l5ecyxp5ef/g09/l508.exe)
 QCSCF skips out because SCF is already converged.
 Leave Link  508 at Thu Jun 13 12:21:54 2024, MaxMem=  1073741824 cpu:         0.0
 (Enter /apps/z_install_tree/linux-rocky8-ivybridge/gcc-12.2.0/gaussian-09-D.01-wczn3gur5lpur3omlkzwa2l5ecyxp5ef/g09/l701.exe)
 Compute integral first derivatives.
 ... and contract with generalized density number  0.
 R6Disp: Adding Grimme-D3 dispersion energy 1st derivatives to the gradient.
 Leave Link  701 at Thu Jun 13 12:21:55 2024, MaxMem=  1073741824 cpu:         4.0
 (Enter /apps/z_install_tree/linux-rocky8-ivybridge/gcc-12.2.0/gaussian-09-D.01-wczn3gur5lpur3omlkzwa2l5ecyxp5ef/g09/l702.exe)
 L702 exits ... SP integral derivatives will be done elsewhere.
 Leave Link  702 at Thu Jun 13 12:21:55 2024, MaxMem=  1073741824 cpu:         0.2
 (Enter /apps/z_install_tree/linux-rocky8-ivybridge/gcc-12.2.0/gaussian-09-D.01-wczn3gur5lpur3omlkzwa2l5ecyxp5ef/g09/l703.exe)
 Compute integral first derivatives, UseDBF=F ICtDFT=           0.
 Integral derivatives from FoFJK, PRISM(SPDF).
 Calling FoFJK, ICntrl=      2127 FMM=F ISym2X=0 I1Cent= 0 IOpClX= 0 NMat=1 NMatS=1 NMatT=0.
 FoFJK:  IHMeth= 1 ICntrl=    2127 DoSepK=F KAlg= 0 I1Cent=   0 FoldK=F
 IRaf=         0 NMat=   1 IRICut=       1 DoRegI=T DoRafI=F ISym2E= 0.
 FoFCou: FMM=F IPFlag=           0 FMFlag=      100000 FMFlg1=         800
         NFxFlg=           0 DoJE=F BraDBF=F KetDBF=F FulRan=T
         wScrn=  0.000000 ICntrl=    2127 IOpCl=  0 I1Cent=           0 NGrid=           0
         NMat0=    1 NMatS0=      1 NMatT0=    0 NMatD0=    1 NMtDS0=    0 NMtDT0=    0
 Symmetry not used in FoFCou.
 Leave Link  703 at Thu Jun 13 12:21:57 2024, MaxMem=  1073741824 cpu:        43.8
 (Enter /apps/z_install_tree/linux-rocky8-ivybridge/gcc-12.2.0/gaussian-09-D.01-wczn3gur5lpur3omlkzwa2l5ecyxp5ef/g09/l716.exe)
 Dipole        = 3.49946391D-02 2.11794824D-02 6.50782905D-02
 -------------------------------------------------------------------
 Center     Atomic                   Forces (Hartrees/Bohr)
 Number     Number              X              Y              Z
 -------------------------------------------------------------------
      1        6           0.000989610   -0.001383350    0.002989056
      2        6          -0.000916639    0.003623070   -0.001236612
      3        6          -0.001984373   -0.000131768   -0.002456363
      4       17          -0.000422529   -0.001452524   -0.000213649
      5       17           0.000637111   -0.000497275   -0.000066758
      6       17           0.000596985   -0.000947445    0.000722960
      7       17           0.000623695    0.000296383    0.001071168
      8        1          -0.000094009    0.000995129   -0.000544001
      9        1          -0.000119025   -0.000339780   -0.000559444
     10        1           0.000427630   -0.000820345    0.000224851
     11        1           0.000261544    0.000657905    0.000068791
 -------------------------------------------------------------------
 Cartesian Forces:  Max     0.003623070 RMS     0.001191573
 Leave Link  716 at Thu Jun 13 12:21:57 2024, MaxMem=  1073741824 cpu:         0.3
 (Enter /apps/z_install_tree/linux-rocky8-ivybridge/gcc-12.2.0/gaussian-09-D.01-wczn3gur5lpur3omlkzwa2l5ecyxp5ef/g09/l103.exe)

 GradGradGradGradGradGradGradGradGradGradGradGradGradGradGradGradGradGrad
 Berny optimization.
 Using GEDIIS/GDIIS optimizer.
 FormGI is forming the generalized inverse of G from B-inverse, IUseBI=4.
 Internal  Forces:  Max     0.001522629 RMS     0.000562449
 Search for a local minimum.
 Step number   4 out of a maximum of   56
 All quantities printed in internal units (Hartrees-Bohrs-Radians)
 RMS Force = .56245D-03 SwitMx=.10000D-02 MixMth= 2
 Mixed Optimization -- En-DIIS/RFO-DIIS
 Update second derivatives using D2CorX and points    2    3    4
 DE= -5.68D-04 DEPred=-5.19D-04 R= 1.09D+00
 TightC=F SS=  1.41D+00  RLast= 2.68D-01 DXNew= 1.4270D+00 8.0394D-01
 Trust test= 1.09D+00 RLast= 2.68D-01 DXMaxT set to 8.49D-01
 ITU=  1  1  1  0
 Use linear search instead of GDIIS.
     Eigenvalues ---    0.00245   0.00559   0.03873   0.04553   0.05165
     Eigenvalues ---    0.05700   0.08159   0.08769   0.11085   0.12421
     Eigenvalues ---    0.15999   0.16013   0.19518   0.21675   0.22352
     Eigenvalues ---    0.23053   0.24987   0.25953   0.26565   0.28919
     Eigenvalues ---    0.30663   0.33176   0.33840   0.33991   0.34074
     Eigenvalues ---    0.34841   0.36946
 RFO step:  Lambda=-1.20233864D-04 EMin= 2.45121452D-03
 Quartic linear search produced a step of  0.18499.
 Iteration  1 RMS(Cart)=  0.02602074 RMS(Int)=  0.00030455
 Iteration  2 RMS(Cart)=  0.00035544 RMS(Int)=  0.00001562
 Iteration  3 RMS(Cart)=  0.00000007 RMS(Int)=  0.00001562
 ITry= 1 IFail=0 DXMaxC= 7.48D-02 DCOld= 1.00D+10 DXMaxT= 8.49D-01 DXLimC= 3.00D+00 Rises=F
 Variable       Old X    -DE/DX   Delta X   Delta X   Delta X     New X
                                 (Linear)    (Quad)   (Total)
    R1        2.88852  -0.00065  -0.00192  -0.00174  -0.00365   2.88487
    R2        2.87681  -0.00019  -0.00205  -0.00016  -0.00222   2.87459
    R3        2.05381   0.00088  -0.00016   0.00306   0.00290   2.05671
    R4        2.05641   0.00044   0.00132   0.00076   0.00208   2.05849
    R5        3.42893  -0.00152  -0.00175  -0.00717  -0.00891   3.42002
    R6        3.40914  -0.00053   0.00062  -0.00118  -0.00056   3.40857
    R7        3.39958   0.00130   0.00244   0.00443   0.00687   3.40645
    R8        3.43566  -0.00112  -0.00266  -0.00530  -0.00797   3.42769
    R9        2.04626   0.00086   0.00012   0.00281   0.00293   2.04919
   R10        2.04631   0.00071   0.00161   0.00156   0.00317   2.04947
    A1        1.98939   0.00070  -0.00098   0.00390   0.00288   1.99227
    A2        1.87644  -0.00023  -0.00209  -0.00192  -0.00403   1.87241
    A3        1.86352   0.00026   0.00090   0.00661   0.00747   1.87099
    A4        1.92702  -0.00048  -0.00060  -0.00616  -0.00678   1.92024
    A5        1.91965  -0.00043   0.00490  -0.00335   0.00150   1.92116
    A6        1.88383   0.00020  -0.00224   0.00127  -0.00096   1.88287
    A7        1.93275   0.00048  -0.00201   0.00370   0.00169   1.93444
    A8        1.90174  -0.00020  -0.00060  -0.00149  -0.00209   1.89965
    A9        1.94012  -0.00006   0.00059  -0.00166  -0.00107   1.93905
   A10        1.88945   0.00018   0.00308   0.00098   0.00407   1.89352
   A11        1.89772   0.00000   0.00133   0.00037   0.00170   1.89942
   A12        1.90112  -0.00041  -0.00234  -0.00192  -0.00427   1.89685
   A13        1.89858   0.00149   0.00203   0.00684   0.00886   1.90744
   A14        1.96013  -0.00057  -0.00172  -0.00371  -0.00545   1.95469
   A15        1.95524   0.00000  -0.00047   0.00101   0.00050   1.95574
   A16        1.86667  -0.00060   0.00156  -0.00484  -0.00327   1.86340
   A17        1.86194  -0.00050   0.00126  -0.00005   0.00117   1.86311
   A18        1.91639   0.00018  -0.00227   0.00076  -0.00154   1.91486
    D1        1.03292  -0.00002  -0.00141   0.02854   0.02713   1.06004
    D2        3.10929   0.00036   0.00079   0.03105   0.03183   3.14112
    D3       -1.07863  -0.00031  -0.00213   0.02668   0.02455  -1.05408
    D4       -1.10906   0.00031   0.00159   0.03525   0.03684  -1.07222
    D5        0.96732   0.00069   0.00380   0.03776   0.04154   1.00886
    D6        3.06258   0.00002   0.00087   0.03339   0.03426   3.09684
    D7       -3.12695   0.00006   0.00477   0.03144   0.03622  -3.09073
    D8       -1.05058   0.00045   0.00697   0.03395   0.04093  -1.00966
    D9        1.04468  -0.00023   0.00404   0.02958   0.03364   1.07833
   D10        3.10508   0.00011   0.01807   0.00826   0.02632   3.13140
   D11        1.04227   0.00024   0.01586   0.01208   0.02796   1.07024
   D12       -1.12409   0.00044   0.02061   0.01314   0.03376  -1.09033
   D13       -1.06403  -0.00006   0.01417   0.00391   0.01807  -1.04595
   D14       -3.12683   0.00007   0.01196   0.00773   0.01971  -3.10712
   D15        0.98999   0.00027   0.01671   0.00879   0.02551   1.01550
   D16        1.01311  -0.00038   0.01409  -0.00045   0.01363   1.02673
   D17       -1.04970  -0.00025   0.01188   0.00337   0.01526  -1.03443
   D18        3.06712  -0.00006   0.01664   0.00443   0.02106   3.08818
         Item               Value     Threshold  Converged?
 Maximum Force            0.001523     0.000450     NO 
 RMS     Force            0.000562     0.000300     NO 
 Maximum Displacement     0.074847     0.001800     NO 
 RMS     Displacement     0.026028     0.001200     NO 
 Predicted change in Energy=-7.627713D-05
 Lowest energy point so far.  Saving SCF results.
 GradGradGradGradGradGradGradGradGradGradGradGradGradGradGradGradGradGrad

 Leave Link  103 at Thu Jun 13 12:21:58 2024, MaxMem=  1073741824 cpu:         5.2
 (Enter /apps/z_install_tree/linux-rocky8-ivybridge/gcc-12.2.0/gaussian-09-D.01-wczn3gur5lpur3omlkzwa2l5ecyxp5ef/g09/l202.exe)
                          Input orientation:                          
 ---------------------------------------------------------------------
 Center     Atomic      Atomic             Coordinates (Angstroms)
 Number     Number       Type             X           Y           Z
 ---------------------------------------------------------------------
      1          6           0       50.152213   35.380886   31.905874
      2          6           0       50.050812   35.650960   33.404974
      3          6           0       51.532699   35.635114   31.319716
      4         17           0       50.430135   37.381570   33.774378
      5         17           0       48.364970   35.306717   33.946186
      6         17           0       51.181501   34.596811   34.332195
      7         17           0       51.508952   35.258512   29.545545
      8          1           0       49.415928   36.012909   31.412961
      9          1           0       49.863172   34.342976   31.745281
     10          1           0       52.287030   34.995951   31.765078
     11          1           0       51.830587   36.673592   31.414812
 ---------------------------------------------------------------------
                    Distance matrix (angstroms):
                    1          2          3          4          5
     1  C    0.000000
     2  C    1.526605   0.000000
     3  C    1.521169   2.558230   0.000000
     4  Cl   2.751597   1.809795   3.207978   0.000000
     5  Cl   2.713414   1.803740   4.128038   2.932480   0.000000
     6  Cl   2.749772   1.802617   3.205689   2.937787   2.930157
     7  Cl   2.725229   4.144319   1.813857   4.853272   5.408567
     8  H    1.088362   2.121839   2.152242   2.911724   2.832040
     9  H    1.089308   2.121464   2.153613   3.697531   2.831499
    10  H    2.173809   2.849380   1.084386   3.629949   4.498485
    11  H    2.174665   2.859042   1.084535   2.833734   4.504076
                    6          7          8          9         10
     6  Cl   0.000000
     7  Cl   4.843253   0.000000
     8  H    3.693848   2.904670   0.000000
     9  H    2.914541   2.895797   1.760437   0.000000
    10  H    2.823402   2.366574   3.066173   2.510350   0.000000
    11  H    3.639431   2.366444   2.503414   3.067850   1.773558
                   11
    11  H    0.000000
 Symmetry turned off by external request.
 Stoichiometry    C3H4Cl4
 Framework group  C1[X(C3H4Cl4)]
 Deg. of freedom    27
 Full point group                 C1      NOp   1
 Rotational constants (GHZ):      1.6528334      0.6210084      0.6191787
 Leave Link  202 at Thu Jun 13 12:21:58 2024, MaxMem=  1073741824 cpu:         1.3
 (Enter /apps/z_install_tree/linux-rocky8-ivybridge/gcc-12.2.0/gaussian-09-D.01-wczn3gur5lpur3omlkzwa2l5ecyxp5ef/g09/l301.exe)
 Basis read from rwf:  (5D, 7F)
 No pseudopotential information found on rwf file.
   257 basis functions,   406 primitive gaussians,   271 cartesian basis functions
    45 alpha electrons       45 beta electrons
       nuclear repulsion energy       609.0240807920 Hartrees.
 IExCor=  402 DFT=T Ex+Corr=B3LYP ExCW=0 ScaHFX=  0.200000
 ScaDFX=  0.800000  0.720000  1.000000  0.810000 ScalE2=  1.000000  1.000000
 IRadAn=      5 IRanWt=     -1 IRanGd=            0 ICorTp=0 IEmpDi=131
 NAtoms=   11 NActive=   11 NUniq=   11 SFac= 1.00D+00 NAtFMM=   60 NAOKFM=F Big=F
 Integral buffers will be    131072 words long.
 Raffenetti 2 integral format.
 Two-electron integral symmetry is turned off.
 R6Disp:  Grimme-D3 Dispersion energy=       -0.0128174775 Hartrees.
 Nuclear repulsion after empirical dispersion term =      609.0112633146 Hartrees.
 No density basis found on file   724.
 Leave Link  301 at Thu Jun 13 12:21:58 2024, MaxMem=  1073741824 cpu:         0.8
 (Enter /apps/z_install_tree/linux-rocky8-ivybridge/gcc-12.2.0/gaussian-09-D.01-wczn3gur5lpur3omlkzwa2l5ecyxp5ef/g09/l302.exe)
 NPDir=0 NMtPBC=     1 NCelOv=     1 NCel=       1 NClECP=     1 NCelD=      1
         NCelK=      1 NCelE2=     1 NClLst=     1 CellRange=     0.0.
 One-electron integrals computed using PRISM.
 NBasis=   257 RedAO= T EigKep=  1.04D-05  NBF=   257
 NBsUse=   257 1.00D-06 EigRej= -1.00D+00 NBFU=   257
 Precomputing XC quadrature grid using
 IXCGrd= 4 IRadAn=           5 IRanWt=          -1 IRanGd=           0 AccXCQ= 0.00D+00.
 Generated NRdTot=       0 NPtTot=           0 NUsed=           0 NTot=          32
 NSgBfM=   270   270   270   270   270 MxSgAt=    11 MxSgA2=    11.
 Leave Link  302 at Thu Jun 13 12:21:59 2024, MaxMem=  1073741824 cpu:        13.6
 (Enter /apps/z_install_tree/linux-rocky8-ivybridge/gcc-12.2.0/gaussian-09-D.01-wczn3gur5lpur3omlkzwa2l5ecyxp5ef/g09/l303.exe)
 DipDrv:  MaxL=1.
 Leave Link  303 at Thu Jun 13 12:21:59 2024, MaxMem=  1073741824 cpu:         2.6
 (Enter /apps/z_install_tree/linux-rocky8-ivybridge/gcc-12.2.0/gaussian-09-D.01-wczn3gur5lpur3omlkzwa2l5ecyxp5ef/g09/l401.exe)
 Initial guess from the checkpoint file:  "tetrachloropropane.chk"
 B after Tr=     1.057075   -1.842103    0.423287
         Rot=    0.999961    0.001808   -0.000948   -0.008615 Ang=   1.01 deg.
 Guess basis will be translated and rotated to current coordinates.
 JPrj=2 DoOrth=T DoCkMO=T.
 Generating alternative initial guess.
 ExpMin= 4.38D-02 ExpMax= 1.06D+05 ExpMxC= 3.62D+03 IAcc=2 IRadAn=         4 AccDes= 0.00D+00
 Harris functional with IExCor=  402 and IRadAn=       4 diagonalized for initial guess.
 HarFok:  IExCor=  402 AccDes= 0.00D+00 IRadAn=         4 IDoV= 1 UseB2=F ITyADJ=14
 ICtDFT=  3500011 ScaDFX=  1.000000  1.000000  1.000000  1.000000
 FoFCou: FMM=F IPFlag=           0 FMFlag=      100000 FMFlg1=           0
         NFxFlg=           0 DoJE=T BraDBF=F KetDBF=T FulRan=T
         wScrn=  0.000000 ICntrl=     500 IOpCl=  0 I1Cent=   200000004 NGrid=           0
         NMat0=    1 NMatS0=      1 NMatT0=    0 NMatD0=    1 NMtDS0=    0 NMtDT0=    0
 Symmetry not used in FoFCou.
 Harris En= -1957.42091172417    
 Leave Link  401 at Thu Jun 13 12:22:00 2024, MaxMem=  1073741824 cpu:         7.3
 (Enter /apps/z_install_tree/linux-rocky8-ivybridge/gcc-12.2.0/gaussian-09-D.01-wczn3gur5lpur3omlkzwa2l5ecyxp5ef/g09/l502.exe)
 Closed shell SCF:
 Using DIIS extrapolation, IDIIS=  1040.
 Two-electron integral symmetry not used.
 Keep R1 ints in memory in canonical form, NReq=559877582.
 IVT=      238613 IEndB=      238613 NGot=  1073741824 MDV=   523925931
 LenX=   523925931 LenY=   523852049
 Requested convergence on RMS density matrix=1.00D-08 within  96 cycles.
 Requested convergence on MAX density matrix=1.00D-06.
 Requested convergence on             energy=1.00D-06.
 No special actions if energy rises.
 FoFCou: FMM=F IPFlag=           0 FMFlag=           0 FMFlg1=           0
         NFxFlg=           0 DoJE=F BraDBF=F KetDBF=F FulRan=T
         wScrn=  0.000000 ICntrl=     600 IOpCl=  0 I1Cent=           0 NGrid=           0
         NMat0=    1 NMatS0=  33153 NMatT0=    0 NMatD0=    1 NMtDS0=    0 NMtDT0=    0
 Symmetry not used in FoFCou.

 Cycle   1  Pass 1  IDiag  1:
 E= -1957.67686371526    
 DIIS: error= 2.11D-03 at cycle   1 NSaved=   1.
 NSaved= 1 IEnMin= 1 EnMin= -1957.67686371526     IErMin= 1 ErrMin= 2.11D-03
 ErrMax= 2.11D-03  0.00D+00 EMaxC= 1.00D-01 BMatC= 6.24D-04 BMatP= 6.24D-04
 IDIUse=3 WtCom= 9.79D-01 WtEn= 2.11D-02
 Coeff-Com:  0.100D+01
 Coeff-En:   0.100D+01
 Coeff:      0.100D+01
 Gap=     0.523 Goal=   None    Shift=    0.000
 GapD=    0.523 DampG=2.000 DampE=1.000 DampFc=2.0000 IDamp=-1.
 RMSDP=6.07D-04 MaxDP=3.36D-02              OVMax= 9.48D-03

 Cycle   2  Pass 1  IDiag  1:
 E= -1957.67782386438     Delta-E=       -0.000960149125 Rises=F Damp=F
 DIIS: error= 1.51D-04 at cycle   2 NSaved=   2.
 NSaved= 2 IEnMin= 2 EnMin= -1957.67782386438     IErMin= 2 ErrMin= 1.51D-04
 ErrMax= 1.51D-04  0.00D+00 EMaxC= 1.00D-01 BMatC= 7.03D-06 BMatP= 6.24D-04
 IDIUse=3 WtCom= 9.98D-01 WtEn= 1.51D-03
 Coeff-Com: -0.567D-01 0.106D+01
 Coeff-En:   0.000D+00 0.100D+01
 Coeff:     -0.566D-01 0.106D+01
 Gap=     0.249 Goal=   None    Shift=    0.000
 RMSDP=5.89D-05 MaxDP=2.42D-03 DE=-9.60D-04 OVMax= 1.27D-03

 Cycle   3  Pass 1  IDiag  1:
 E= -1957.67783145078     Delta-E=       -0.000007586395 Rises=F Damp=F
 DIIS: error= 7.79D-05 at cycle   3 NSaved=   3.
 NSaved= 3 IEnMin= 3 EnMin= -1957.67783145078     IErMin= 3 ErrMin= 7.79D-05
 ErrMax= 7.79D-05  0.00D+00 EMaxC= 1.00D-01 BMatC= 4.32D-06 BMatP= 7.03D-06
 IDIUse=1 WtCom= 1.00D+00 WtEn= 0.00D+00
 Coeff-Com: -0.326D-01 0.502D+00 0.530D+00
 Coeff:     -0.326D-01 0.502D+00 0.530D+00
 Gap=     0.249 Goal=   None    Shift=    0.000
 RMSDP=2.43D-05 MaxDP=9.69D-04 DE=-7.59D-06 OVMax= 5.54D-04

 Cycle   4  Pass 1  IDiag  1:
 E= -1957.67783547700     Delta-E=       -0.000004026224 Rises=F Damp=F
 DIIS: error= 4.43D-05 at cycle   4 NSaved=   4.
 NSaved= 4 IEnMin= 4 EnMin= -1957.67783547700     IErMin= 4 ErrMin= 4.43D-05
 ErrMax= 4.43D-05  0.00D+00 EMaxC= 1.00D-01 BMatC= 4.77D-07 BMatP= 4.32D-06
 IDIUse=1 WtCom= 1.00D+00 WtEn= 0.00D+00
 Coeff-Com: -0.104D-01 0.144D+00 0.271D+00 0.595D+00
 Coeff:     -0.104D-01 0.144D+00 0.271D+00 0.595D+00
 Gap=     0.249 Goal=   None    Shift=    0.000
 RMSDP=7.60D-06 MaxDP=4.96D-04 DE=-4.03D-06 OVMax= 2.01D-04

 Cycle   5  Pass 1  IDiag  1:
 E= -1957.67783580066     Delta-E=       -0.000000323659 Rises=F Damp=F
 DIIS: error= 2.45D-05 at cycle   5 NSaved=   5.
 NSaved= 5 IEnMin= 5 EnMin= -1957.67783580066     IErMin= 5 ErrMin= 2.45D-05
 ErrMax= 2.45D-05  0.00D+00 EMaxC= 1.00D-01 BMatC= 1.46D-07 BMatP= 4.77D-07
 IDIUse=1 WtCom= 1.00D+00 WtEn= 0.00D+00
 Coeff-Com: -0.107D-02 0.352D-02 0.854D-01 0.396D+00 0.516D+00
 Coeff:     -0.107D-02 0.352D-02 0.854D-01 0.396D+00 0.516D+00
 Gap=     0.249 Goal=   None    Shift=    0.000
 RMSDP=3.16D-06 MaxDP=2.02D-04 DE=-3.24D-07 OVMax= 8.09D-05

 Cycle   6  Pass 1  IDiag  1:
 E= -1957.67783593857     Delta-E=       -0.000000137913 Rises=F Damp=F
 DIIS: error= 2.52D-06 at cycle   6 NSaved=   6.
 NSaved= 6 IEnMin= 6 EnMin= -1957.67783593857     IErMin= 6 ErrMin= 2.52D-06
 ErrMax= 2.52D-06  0.00D+00 EMaxC= 1.00D-01 BMatC= 4.59D-09 BMatP= 1.46D-07
 IDIUse=1 WtCom= 1.00D+00 WtEn= 0.00D+00
 Coeff-Com:  0.146D-03-0.829D-02 0.269D-01 0.163D+00 0.256D+00 0.562D+00
 Coeff:      0.146D-03-0.829D-02 0.269D-01 0.163D+00 0.256D+00 0.562D+00
 Gap=     0.249 Goal=   None    Shift=    0.000
 RMSDP=1.01D-06 MaxDP=5.37D-05 DE=-1.38D-07 OVMax= 1.36D-05

 Cycle   7  Pass 1  IDiag  1:
 E= -1957.67783594309     Delta-E=       -0.000000004514 Rises=F Damp=F
 DIIS: error= 6.18D-07 at cycle   7 NSaved=   7.
 NSaved= 7 IEnMin= 7 EnMin= -1957.67783594309     IErMin= 7 ErrMin= 6.18D-07
 ErrMax= 6.18D-07  0.00D+00 EMaxC= 1.00D-01 BMatC= 1.42D-10 BMatP= 4.59D-09
 IDIUse=1 WtCom= 1.00D+00 WtEn= 0.00D+00
 Coeff-Com:  0.117D-03-0.319D-02 0.389D-02 0.289D-01 0.508D-01 0.202D+00
 Coeff-Com:  0.717D+00
 Coeff:      0.117D-03-0.319D-02 0.389D-02 0.289D-01 0.508D-01 0.202D+00
 Coeff:      0.717D+00
 Gap=     0.249 Goal=   None    Shift=    0.000
 RMSDP=2.45D-07 MaxDP=1.18D-05 DE=-4.51D-09 OVMax= 3.01D-06

 Cycle   8  Pass 1  IDiag  1:
 E= -1957.67783594320     Delta-E=       -0.000000000114 Rises=F Damp=F
 DIIS: error= 1.65D-07 at cycle   8 NSaved=   8.
 NSaved= 8 IEnMin= 8 EnMin= -1957.67783594320     IErMin= 8 ErrMin= 1.65D-07
 ErrMax= 1.65D-07  0.00D+00 EMaxC= 1.00D-01 BMatC= 8.80D-12 BMatP= 1.42D-10
 IDIUse=1 WtCom= 1.00D+00 WtEn= 0.00D+00
 Coeff-Com:  0.381D-04-0.851D-03 0.387D-03 0.387D-02 0.809D-02 0.540D-01
 Coeff-Com:  0.287D+00 0.648D+00
 Coeff:      0.381D-04-0.851D-03 0.387D-03 0.387D-02 0.809D-02 0.540D-01
 Coeff:      0.287D+00 0.648D+00
 Gap=     0.249 Goal=   None    Shift=    0.000
 RMSDP=4.27D-08 MaxDP=2.84D-06 DE=-1.14D-10 OVMax= 9.14D-07

 Cycle   9  Pass 1  IDiag  1:
 E= -1957.67783594324     Delta-E=       -0.000000000040 Rises=F Damp=F
 DIIS: error= 6.06D-08 at cycle   9 NSaved=   9.
 NSaved= 9 IEnMin= 9 EnMin= -1957.67783594324     IErMin= 9 ErrMin= 6.06D-08
 ErrMax= 6.06D-08  0.00D+00 EMaxC= 1.00D-01 BMatC= 1.40D-12 BMatP= 8.80D-12
 IDIUse=1 WtCom= 1.00D+00 WtEn= 0.00D+00
 Coeff-Com:  0.877D-05-0.131D-03-0.180D-03-0.851D-03-0.824D-03 0.790D-02
 Coeff-Com:  0.799D-01 0.332D+00 0.582D+00
 Coeff:      0.877D-05-0.131D-03-0.180D-03-0.851D-03-0.824D-03 0.790D-02
 Coeff:      0.799D-01 0.332D+00 0.582D+00
 Gap=     0.249 Goal=   None    Shift=    0.000
 RMSDP=1.22D-08 MaxDP=8.14D-07 DE=-4.05D-11 OVMax= 4.27D-07

 Cycle  10  Pass 1  IDiag  1:
 E= -1957.67783594324     Delta-E=        0.000000000004 Rises=F Damp=F
 DIIS: error= 1.60D-08 at cycle  10 NSaved=  10.
 NSaved=10 IEnMin= 9 EnMin= -1957.67783594324     IErMin=10 ErrMin= 1.60D-08
 ErrMax= 1.60D-08  0.00D+00 EMaxC= 1.00D-01 BMatC= 1.20D-13 BMatP= 1.40D-12
 IDIUse=1 WtCom= 1.00D+00 WtEn= 0.00D+00
 Coeff-Com: -0.326D-06 0.439D-04-0.147D-03-0.947D-03-0.148D-02-0.320D-02
 Coeff-Com:  0.347D-02 0.864D-01 0.283D+00 0.633D+00
 Coeff:     -0.326D-06 0.439D-04-0.147D-03-0.947D-03-0.148D-02-0.320D-02
 Coeff:      0.347D-02 0.864D-01 0.283D+00 0.633D+00
 Gap=     0.249 Goal=   None    Shift=    0.000
 RMSDP=5.37D-09 MaxDP=3.31D-07 DE= 4.09D-12 OVMax= 1.07D-07

 SCF Done:  E(RB3LYP) =  -1957.67783594     A.U. after   10 cycles
            NFock= 10  Conv=0.54D-08     -V/T= 2.0025
 KE= 1.952774049202D+03 PE=-5.863857786754D+03 EE= 1.344394638294D+03
 Leave Link  502 at Thu Jun 13 12:22:13 2024, MaxMem=  1073741824 cpu:       131.3
 (Enter /apps/z_install_tree/linux-rocky8-ivybridge/gcc-12.2.0/gaussian-09-D.01-wczn3gur5lpur3omlkzwa2l5ecyxp5ef/g09/l508.exe)
 QCSCF skips out because SCF is already converged.
 Leave Link  508 at Thu Jun 13 12:22:13 2024, MaxMem=  1073741824 cpu:         0.0
 (Enter /apps/z_install_tree/linux-rocky8-ivybridge/gcc-12.2.0/gaussian-09-D.01-wczn3gur5lpur3omlkzwa2l5ecyxp5ef/g09/l701.exe)
 Compute integral first derivatives.
 ... and contract with generalized density number  0.
 R6Disp: Adding Grimme-D3 dispersion energy 1st derivatives to the gradient.
 Leave Link  701 at Thu Jun 13 12:22:13 2024, MaxMem=  1073741824 cpu:         6.4
 (Enter /apps/z_install_tree/linux-rocky8-ivybridge/gcc-12.2.0/gaussian-09-D.01-wczn3gur5lpur3omlkzwa2l5ecyxp5ef/g09/l702.exe)
 L702 exits ... SP integral derivatives will be done elsewhere.
 Leave Link  702 at Thu Jun 13 12:22:13 2024, MaxMem=  1073741824 cpu:         0.2
 (Enter /apps/z_install_tree/linux-rocky8-ivybridge/gcc-12.2.0/gaussian-09-D.01-wczn3gur5lpur3omlkzwa2l5ecyxp5ef/g09/l703.exe)
 Compute integral first derivatives, UseDBF=F ICtDFT=           0.
 Integral derivatives from FoFJK, PRISM(SPDF).
 Calling FoFJK, ICntrl=      2127 FMM=F ISym2X=0 I1Cent= 0 IOpClX= 0 NMat=1 NMatS=1 NMatT=0.
 FoFJK:  IHMeth= 1 ICntrl=    2127 DoSepK=F KAlg= 0 I1Cent=   0 FoldK=F
 IRaf=         0 NMat=   1 IRICut=       1 DoRegI=T DoRafI=F ISym2E= 0.
 FoFCou: FMM=F IPFlag=           0 FMFlag=      100000 FMFlg1=         800
         NFxFlg=           0 DoJE=F BraDBF=F KetDBF=F FulRan=T
         wScrn=  0.000000 ICntrl=    2127 IOpCl=  0 I1Cent=           0 NGrid=           0
         NMat0=    1 NMatS0=      1 NMatT0=    0 NMatD0=    1 NMtDS0=    0 NMtDT0=    0
 Symmetry not used in FoFCou.
 Leave Link  703 at Thu Jun 13 12:22:16 2024, MaxMem=  1073741824 cpu:        43.0
 (Enter /apps/z_install_tree/linux-rocky8-ivybridge/gcc-12.2.0/gaussian-09-D.01-wczn3gur5lpur3omlkzwa2l5ecyxp5ef/g09/l716.exe)
 Dipole        = 3.53775197D-02 1.71303857D-02 6.30384876D-02
 -------------------------------------------------------------------
 Center     Atomic                   Forces (Hartrees/Bohr)
 Number     Number              X              Y              Z
 -------------------------------------------------------------------
      1        6          -0.000617073   -0.000566084    0.000343907
      2        6          -0.000548916    0.001333820   -0.000543095
      3        6           0.000624826    0.000079695   -0.000219821
      4       17          -0.000136898   -0.000741707   -0.000012173
      5       17           0.000260216    0.000014335    0.000080179
      6       17           0.000341856   -0.000442593    0.000494629
      7       17          -0.000050864    0.000022689    0.000023344
      8        1          -0.000063421    0.000127479   -0.000082475
      9        1           0.000330043    0.000317449   -0.000020391
     10        1          -0.000033720    0.000079047   -0.000113466
     11        1          -0.000106049   -0.000224131    0.000049362
 -------------------------------------------------------------------
 Cartesian Forces:  Max     0.001333820 RMS     0.000395647
 Leave Link  716 at Thu Jun 13 12:22:16 2024, MaxMem=  1073741824 cpu:         0.4
 (Enter /apps/z_install_tree/linux-rocky8-ivybridge/gcc-12.2.0/gaussian-09-D.01-wczn3gur5lpur3omlkzwa2l5ecyxp5ef/g09/l103.exe)

 GradGradGradGradGradGradGradGradGradGradGradGradGradGradGradGradGradGrad
 Berny optimization.
 Using GEDIIS/GDIIS optimizer.
 FormGI is forming the generalized inverse of G from B-inverse, IUseBI=4.
 Internal  Forces:  Max     0.000740949 RMS     0.000217888
 Search for a local minimum.
 Step number   5 out of a maximum of   56
 All quantities printed in internal units (Hartrees-Bohrs-Radians)
 RMS Force = .21789D-03 SwitMx=.10000D-02 MixMth= 2
 Mixed Optimization -- En-DIIS/RFO-DIIS
 Swapping is turned off.
 Update second derivatives using D2CorX and points    3    4    5
 DE= -7.93D-05 DEPred=-7.63D-05 R= 1.04D+00
 TightC=F SS=  1.41D+00  RLast= 1.27D-01 DXNew= 1.4270D+00 3.8074D-01
 Trust test= 1.04D+00 RLast= 1.27D-01 DXMaxT set to 8.49D-01
 ITU=  1  1  1  1  0
     Eigenvalues ---    0.00224   0.00630   0.03746   0.04572   0.05156
     Eigenvalues ---    0.05691   0.08167   0.08730   0.10692   0.12469
     Eigenvalues ---    0.15989   0.16145   0.18490   0.21389   0.22352
     Eigenvalues ---    0.23209   0.24984   0.26035   0.26685   0.28889
     Eigenvalues ---    0.30923   0.32667   0.33979   0.34067   0.34353
     Eigenvalues ---    0.35207   0.37954
 En-DIIS/RFO-DIIS IScMMF=        0 using points:     5    4
 RFO step:  Lambda=-4.57331562D-06.
 NNeg= 0 NP= 2 Switch=  2.50D-03 Rises=F DC=  7.93D-05 SmlDif=  1.00D-05
 RMS Error=  0.5537784465D-03 NUsed= 2 EDIIS=F
 DidBck=F Rises=F RFO-DIIS coefs:    1.06308   -0.06308
 Iteration  1 RMS(Cart)=  0.00795613 RMS(Int)=  0.00003809
 Iteration  2 RMS(Cart)=  0.00003908 RMS(Int)=  0.00000094
 Iteration  3 RMS(Cart)=  0.00000000 RMS(Int)=  0.00000094
 ITry= 1 IFail=0 DXMaxC= 3.00D-02 DCOld= 1.00D+10 DXMaxT= 8.49D-01 DXLimC= 3.00D+00 Rises=F
 Variable       Old X    -DE/DX   Delta X   Delta X   Delta X     New X
                                 (Linear)    (Quad)   (Total)
    R1        2.88487   0.00005  -0.00023   0.00008  -0.00015   2.88471
    R2        2.87459   0.00049  -0.00014   0.00154   0.00140   2.87600
    R3        2.05671   0.00015   0.00018   0.00050   0.00068   2.05739
    R4        2.05849  -0.00039   0.00013  -0.00113  -0.00100   2.05750
    R5        3.42002  -0.00074  -0.00056  -0.00384  -0.00440   3.41562
    R6        3.40857  -0.00022  -0.00004  -0.00034  -0.00037   3.40820
    R7        3.40645   0.00073   0.00043   0.00302   0.00345   3.40991
    R8        3.42769  -0.00003  -0.00050  -0.00079  -0.00130   3.42640
    R9        2.04919  -0.00012   0.00018  -0.00035  -0.00017   2.04903
   R10        2.04947  -0.00024   0.00020  -0.00064  -0.00044   2.04903
    A1        1.99227   0.00022   0.00018   0.00100   0.00118   1.99344
    A2        1.87241  -0.00009  -0.00025  -0.00059  -0.00085   1.87157
    A3        1.87099   0.00007   0.00047   0.00110   0.00157   1.87257
    A4        1.92024  -0.00008  -0.00043  -0.00041  -0.00084   1.91940
    A5        1.92116  -0.00021   0.00009  -0.00132  -0.00122   1.91993
    A6        1.88287   0.00009  -0.00006   0.00024   0.00018   1.88305
    A7        1.93444   0.00027   0.00011   0.00134   0.00144   1.93589
    A8        1.89965   0.00023  -0.00013   0.00086   0.00073   1.90038
    A9        1.93905   0.00019  -0.00007   0.00060   0.00053   1.93959
   A10        1.89352  -0.00019   0.00026  -0.00035  -0.00010   1.89342
   A11        1.89942  -0.00021   0.00011  -0.00073  -0.00062   1.89880
   A12        1.89685  -0.00031  -0.00027  -0.00180  -0.00207   1.89478
   A13        1.90744  -0.00011   0.00056  -0.00038   0.00018   1.90762
   A14        1.95469   0.00015  -0.00034   0.00103   0.00068   1.95537
   A15        1.95574  -0.00011   0.00003  -0.00107  -0.00104   1.95470
   A16        1.86340   0.00000  -0.00021   0.00052   0.00031   1.86371
   A17        1.86311   0.00007   0.00007   0.00049   0.00056   1.86367
   A18        1.91486  -0.00001  -0.00010  -0.00052  -0.00062   1.91424
    D1        1.06004  -0.00002   0.00171  -0.00383  -0.00212   1.05793
    D2        3.14112   0.00006   0.00201  -0.00291  -0.00091   3.14022
    D3       -1.05408  -0.00006   0.00155  -0.00422  -0.00267  -1.05675
    D4       -1.07222   0.00000   0.00232  -0.00353  -0.00120  -1.07342
    D5        1.00886   0.00008   0.00262  -0.00261   0.00001   1.00886
    D6        3.09684  -0.00004   0.00216  -0.00392  -0.00176   3.09508
    D7       -3.09073  -0.00009   0.00228  -0.00406  -0.00177  -3.09251
    D8       -1.00966  -0.00001   0.00258  -0.00314  -0.00056  -1.01022
    D9        1.07833  -0.00014   0.00212  -0.00445  -0.00233   1.07600
   D10        3.13140   0.00009   0.00166   0.01433   0.01599  -3.13579
   D11        1.07024   0.00006   0.00176   0.01331   0.01508   1.08531
   D12       -1.09033   0.00004   0.00213   0.01403   0.01616  -1.07417
   D13       -1.04595   0.00007   0.00114   0.01395   0.01509  -1.03086
   D14       -3.10712   0.00004   0.00124   0.01293   0.01418  -3.09294
   D15        1.01550   0.00002   0.00161   0.01365   0.01526   1.03076
   D16        1.02673   0.00000   0.00086   0.01319   0.01405   1.04078
   D17       -1.03443  -0.00003   0.00096   0.01217   0.01313  -1.02130
   D18        3.08818  -0.00005   0.00133   0.01289   0.01422   3.10240
         Item               Value     Threshold  Converged?
 Maximum Force            0.000741     0.000450     NO 
 RMS     Force            0.000218     0.000300     YES
 Maximum Displacement     0.030029     0.001800     NO 
 RMS     Displacement     0.007955     0.001200     NO 
 Predicted change in Energy=-7.053725D-06
 Lowest energy point so far.  Saving SCF results.
 GradGradGradGradGradGradGradGradGradGradGradGradGradGradGradGradGradGrad

 Leave Link  103 at Thu Jun 13 12:22:17 2024, MaxMem=  1073741824 cpu:        10.1
 (Enter /apps/z_install_tree/linux-rocky8-ivybridge/gcc-12.2.0/gaussian-09-D.01-wczn3gur5lpur3omlkzwa2l5ecyxp5ef/g09/l202.exe)
                          Input orientation:                          
 ---------------------------------------------------------------------
 Center     Atomic      Atomic             Coordinates (Angstroms)
 Number     Number       Type             X           Y           Z
 ---------------------------------------------------------------------
      1          6           0       50.153320   35.377799   31.906717
      2          6           0       50.049828   35.653699   33.404530
      3          6           0       51.533816   35.632669   31.318936
      4         17           0       50.427127   37.383212   33.769718
      5         17           0       48.364431   35.309358   33.946408
      6         17           0       51.179852   34.602312   34.339223
      7         17           0       51.503899   35.274403   29.541764
      8          1           0       49.416102   36.007242   31.411110
      9          1           0       49.867037   34.339325   31.748422
     10          1           0       52.287485   34.987058   31.755826
     11          1           0       51.835102   36.668924   31.424347
 ---------------------------------------------------------------------
                    Distance matrix (angstroms):
                    1          2          3          4          5
     1  C    0.000000
     2  C    1.526524   0.000000
     3  C    1.521911   2.559758   0.000000
     4  Cl   2.750895   1.807466   3.208658   0.000000
     5  Cl   2.713881   1.803542   4.129544   2.930325   0.000000
     6  Cl   2.751769   1.804445   3.210772   2.936722   2.929303
     7  Cl   2.725391   4.144773   1.813172   4.845834   5.409101
     8  H    1.088722   2.121397   2.152560   2.911786   2.832100
     9  H    1.088781   2.122189   2.152986   3.696564   2.833714
    10  H    2.174881   2.858276   1.084298   3.641187   4.504762
    11  H    2.174414   2.852895   1.084302   2.827253   4.500530
                    6          7          8          9         10
     6  Cl   0.000000
     7  Cl   4.855134   0.000000
     8  H    3.695740   2.896619   0.000000
     9  H    2.916315   2.902245   1.760418   0.000000
    10  H    2.837044   2.366145   3.066667   2.505629   0.000000
    11  H    3.632732   2.366116   2.507900   3.066813   1.772908
                   11
    11  H    0.000000
 Symmetry turned off by external request.
 Stoichiometry    C3H4Cl4
 Framework group  C1[X(C3H4Cl4)]
 Deg. of freedom    27
 Full point group                 C1      NOp   1
 Rotational constants (GHZ):      1.6539719      0.6206403      0.6188722
 Leave Link  202 at Thu Jun 13 12:22:17 2024, MaxMem=  1073741824 cpu:         1.3
 (Enter /apps/z_install_tree/linux-rocky8-ivybridge/gcc-12.2.0/gaussian-09-D.01-wczn3gur5lpur3omlkzwa2l5ecyxp5ef/g09/l301.exe)
 Basis read from rwf:  (5D, 7F)
 No pseudopotential information found on rwf file.
   257 basis functions,   406 primitive gaussians,   271 cartesian basis functions
    45 alpha electrons       45 beta electrons
       nuclear repulsion energy       609.0126454316 Hartrees.
 IExCor=  402 DFT=T Ex+Corr=B3LYP ExCW=0 ScaHFX=  0.200000
 ScaDFX=  0.800000  0.720000  1.000000  0.810000 ScalE2=  1.000000  1.000000
 IRadAn=      5 IRanWt=     -1 IRanGd=            0 ICorTp=0 IEmpDi=131
 NAtoms=   11 NActive=   11 NUniq=   11 SFac= 1.00D+00 NAtFMM=   60 NAOKFM=F Big=F
 Integral buffers will be    131072 words long.
 Raffenetti 2 integral format.
 Two-electron integral symmetry is turned off.
 R6Disp:  Grimme-D3 Dispersion energy=       -0.0128089661 Hartrees.
 Nuclear repulsion after empirical dispersion term =      608.9998364655 Hartrees.
 No density basis found on file   724.
 Leave Link  301 at Thu Jun 13 12:22:17 2024, MaxMem=  1073741824 cpu:         1.0
 (Enter /apps/z_install_tree/linux-rocky8-ivybridge/gcc-12.2.0/gaussian-09-D.01-wczn3gur5lpur3omlkzwa2l5ecyxp5ef/g09/l302.exe)
 NPDir=0 NMtPBC=     1 NCelOv=     1 NCel=       1 NClECP=     1 NCelD=      1
         NCelK=      1 NCelE2=     1 NClLst=     1 CellRange=     0.0.
 One-electron integrals computed using PRISM.
 NBasis=   257 RedAO= T EigKep=  1.04D-05  NBF=   257
 NBsUse=   257 1.00D-06 EigRej= -1.00D+00 NBFU=   257
 Precomputing XC quadrature grid using
 IXCGrd= 4 IRadAn=           5 IRanWt=          -1 IRanGd=           0 AccXCQ= 0.00D+00.
 Generated NRdTot=       0 NPtTot=           0 NUsed=           0 NTot=          32
 NSgBfM=   270   270   270   270   270 MxSgAt=    11 MxSgA2=    11.
 Leave Link  302 at Thu Jun 13 12:22:17 2024, MaxMem=  1073741824 cpu:         4.5
 (Enter /apps/z_install_tree/linux-rocky8-ivybridge/gcc-12.2.0/gaussian-09-D.01-wczn3gur5lpur3omlkzwa2l5ecyxp5ef/g09/l303.exe)
 DipDrv:  MaxL=1.
 Leave Link  303 at Thu Jun 13 12:22:17 2024, MaxMem=  1073741824 cpu:         1.7
 (Enter /apps/z_install_tree/linux-rocky8-ivybridge/gcc-12.2.0/gaussian-09-D.01-wczn3gur5lpur3omlkzwa2l5ecyxp5ef/g09/l401.exe)
 Initial guess from the checkpoint file:  "tetrachloropropane.chk"
 B after Tr=     0.050339   -0.063138   -0.005285
         Rot=    1.000000   -0.000287   -0.000177   -0.000561 Ang=  -0.07 deg.
 Guess basis will be translated and rotated to current coordinates.
 JPrj=2 DoOrth=T DoCkMO=T.
 Generating alternative initial guess.
 ExpMin= 4.38D-02 ExpMax= 1.06D+05 ExpMxC= 3.62D+03 IAcc=2 IRadAn=         4 AccDes= 0.00D+00
 Harris functional with IExCor=  402 and IRadAn=       4 diagonalized for initial guess.
 HarFok:  IExCor=  402 AccDes= 0.00D+00 IRadAn=         4 IDoV= 1 UseB2=F ITyADJ=14
 ICtDFT=  3500011 ScaDFX=  1.000000  1.000000  1.000000  1.000000
 FoFCou: FMM=F IPFlag=           0 FMFlag=      100000 FMFlg1=           0
         NFxFlg=           0 DoJE=T BraDBF=F KetDBF=T FulRan=T
         wScrn=  0.000000 ICntrl=     500 IOpCl=  0 I1Cent=   200000004 NGrid=           0
         NMat0=    1 NMatS0=      1 NMatT0=    0 NMatD0=    1 NMtDS0=    0 NMtDT0=    0
 Symmetry not used in FoFCou.
 Harris En= -1957.42088167337    
 Leave Link  401 at Thu Jun 13 12:22:18 2024, MaxMem=  1073741824 cpu:        16.7
 (Enter /apps/z_install_tree/linux-rocky8-ivybridge/gcc-12.2.0/gaussian-09-D.01-wczn3gur5lpur3omlkzwa2l5ecyxp5ef/g09/l502.exe)
 Closed shell SCF:
 Using DIIS extrapolation, IDIIS=  1040.
 Two-electron integral symmetry not used.
 Keep R1 ints in memory in canonical form, NReq=559877582.
 IVT=      238613 IEndB=      238613 NGot=  1073741824 MDV=   523925931
 LenX=   523925931 LenY=   523852049
 Requested convergence on RMS density matrix=1.00D-08 within  96 cycles.
 Requested convergence on MAX density matrix=1.00D-06.
 Requested convergence on             energy=1.00D-06.
 No special actions if energy rises.
 FoFCou: FMM=F IPFlag=           0 FMFlag=           0 FMFlg1=           0
         NFxFlg=           0 DoJE=F BraDBF=F KetDBF=F FulRan=T
         wScrn=  0.000000 ICntrl=     600 IOpCl=  0 I1Cent=           0 NGrid=           0
         NMat0=    1 NMatS0=  33153 NMatT0=    0 NMatD0=    1 NMtDS0=    0 NMtDT0=    0
 Symmetry not used in FoFCou.

 Cycle   1  Pass 1  IDiag  1:
 E= -1957.67776344033    
 DIIS: error= 4.09D-04 at cycle   1 NSaved=   1.
 NSaved= 1 IEnMin= 1 EnMin= -1957.67776344033     IErMin= 1 ErrMin= 4.09D-04
 ErrMax= 4.09D-04  0.00D+00 EMaxC= 1.00D-01 BMatC= 4.94D-05 BMatP= 4.94D-05
 IDIUse=3 WtCom= 9.96D-01 WtEn= 4.09D-03
 Coeff-Com:  0.100D+01
 Coeff-En:   0.100D+01
 Coeff:      0.100D+01
 Gap=     0.523 Goal=   None    Shift=    0.000
 RMSDP=1.82D-04 MaxDP=7.56D-03              OVMax= 2.97D-03

 Cycle   2  Pass 1  IDiag  1:
 E= -1957.67784111839     Delta-E=       -0.000077678062 Rises=F Damp=F
 DIIS: error= 5.90D-05 at cycle   2 NSaved=   2.
 NSaved= 2 IEnMin= 2 EnMin= -1957.67784111839     IErMin= 2 ErrMin= 5.90D-05
 ErrMax= 5.90D-05  0.00D+00 EMaxC= 1.00D-01 BMatC= 7.60D-07 BMatP= 4.94D-05
 IDIUse=1 WtCom= 1.00D+00 WtEn= 0.00D+00
 Coeff-Com: -0.400D-01 0.104D+01
 Coeff:     -0.400D-01 0.104D+01
 Gap=     0.249 Goal=   None    Shift=    0.000
 RMSDP=2.12D-05 MaxDP=1.26D-03 DE=-7.77D-05 OVMax= 4.45D-04

 Cycle   3  Pass 1  IDiag  1:
 E= -1957.67784173284     Delta-E=       -0.000000614450 Rises=F Damp=F
 DIIS: error= 3.54D-05 at cycle   3 NSaved=   3.
 NSaved= 3 IEnMin= 3 EnMin= -1957.67784173284     IErMin= 3 ErrMin= 3.54D-05
 ErrMax= 3.54D-05  0.00D+00 EMaxC= 1.00D-01 BMatC= 5.91D-07 BMatP= 7.60D-07
 IDIUse=1 WtCom= 1.00D+00 WtEn= 0.00D+00
 Coeff-Com: -0.284D-01 0.503D+00 0.525D+00
 Coeff:     -0.284D-01 0.503D+00 0.525D+00
 Gap=     0.249 Goal=   None    Shift=    0.000
 RMSDP=9.57D-06 MaxDP=4.78D-04 DE=-6.14D-07 OVMax= 1.88D-04

 Cycle   4  Pass 1  IDiag  1:
 E= -1957.67784225275     Delta-E=       -0.000000519904 Rises=F Damp=F
 DIIS: error= 2.08D-05 at cycle   4 NSaved=   4.
 NSaved= 4 IEnMin= 4 EnMin= -1957.67784225275     IErMin= 4 ErrMin= 2.08D-05
 ErrMax= 2.08D-05  0.00D+00 EMaxC= 1.00D-01 BMatC= 9.58D-08 BMatP= 5.91D-07
 IDIUse=1 WtCom= 1.00D+00 WtEn= 0.00D+00
 Coeff-Com: -0.118D-01 0.181D+00 0.312D+00 0.519D+00
 Coeff:     -0.118D-01 0.181D+00 0.312D+00 0.519D+00
 Gap=     0.249 Goal=   None    Shift=    0.000
 RMSDP=2.77D-06 MaxDP=1.98D-04 DE=-5.20D-07 OVMax= 7.97D-05

 Cycle   5  Pass 1  IDiag  1:
 E= -1957.67784233353     Delta-E=       -0.000000080780 Rises=F Damp=F
 DIIS: error= 6.60D-06 at cycle   5 NSaved=   5.
 NSaved= 5 IEnMin= 5 EnMin= -1957.67784233353     IErMin= 5 ErrMin= 6.60D-06
 ErrMax= 6.60D-06  0.00D+00 EMaxC= 1.00D-01 BMatC= 1.26D-08 BMatP= 9.58D-08
 IDIUse=1 WtCom= 1.00D+00 WtEn= 0.00D+00
 Coeff-Com: -0.981D-03-0.137D-02 0.793D-01 0.307D+00 0.616D+00
 Coeff:     -0.981D-03-0.137D-02 0.793D-01 0.307D+00 0.616D+00
 Gap=     0.249 Goal=   None    Shift=    0.000
 RMSDP=1.30D-06 MaxDP=1.37D-04 DE=-8.08D-08 OVMax= 2.40D-05

 Cycle   6  Pass 1  IDiag  1:
 E= -1957.67784234569     Delta-E=       -0.000000012165 Rises=F Damp=F
 DIIS: error= 8.65D-07 at cycle   6 NSaved=   6.
 NSaved= 6 IEnMin= 6 EnMin= -1957.67784234569     IErMin= 6 ErrMin= 8.65D-07
 ErrMax= 8.65D-07  0.00D+00 EMaxC= 1.00D-01 BMatC= 5.00D-10 BMatP= 1.26D-08
 IDIUse=1 WtCom= 1.00D+00 WtEn= 0.00D+00
 Coeff-Com:  0.173D-03-0.116D-01 0.227D-01 0.123D+00 0.298D+00 0.568D+00
 Coeff:      0.173D-03-0.116D-01 0.227D-01 0.123D+00 0.298D+00 0.568D+00
 Gap=     0.249 Goal=   None    Shift=    0.000
 RMSDP=2.94D-07 MaxDP=2.16D-05 DE=-1.22D-08 OVMax= 5.18D-06

 Cycle   7  Pass 1  IDiag  1:
 E= -1957.67784234614     Delta-E=       -0.000000000445 Rises=F Damp=F
 DIIS: error= 1.93D-07 at cycle   7 NSaved=   7.
 NSaved= 7 IEnMin= 7 EnMin= -1957.67784234614     IErMin= 7 ErrMin= 1.93D-07
 ErrMax= 1.93D-07  0.00D+00 EMaxC= 1.00D-01 BMatC= 1.62D-11 BMatP= 5.00D-10
 IDIUse=1 WtCom= 1.00D+00 WtEn= 0.00D+00
 Coeff-Com:  0.123D-03-0.452D-02 0.436D-02 0.298D-01 0.795D-01 0.220D+00
 Coeff-Com:  0.671D+00
 Coeff:      0.123D-03-0.452D-02 0.436D-02 0.298D-01 0.795D-01 0.220D+00
 Coeff:      0.671D+00
 Gap=     0.249 Goal=   None    Shift=    0.000
 RMSDP=7.33D-08 MaxDP=2.92D-06 DE=-4.45D-10 OVMax= 1.04D-06

 Cycle   8  Pass 1  IDiag  1:
 E= -1957.67784234614     Delta-E=        0.000000000001 Rises=F Damp=F
 DIIS: error= 5.55D-08 at cycle   8 NSaved=   8.
 NSaved= 8 IEnMin= 7 EnMin= -1957.67784234614     IErMin= 8 ErrMin= 5.55D-08
 ErrMax= 5.55D-08  0.00D+00 EMaxC= 1.00D-01 BMatC= 1.10D-12 BMatP= 1.62D-11
 IDIUse=1 WtCom= 1.00D+00 WtEn= 0.00D+00
 Coeff-Com:  0.369D-04-0.898D-03 0.106D-03 0.268D-02 0.869D-02 0.400D-01
 Coeff-Com:  0.252D+00 0.697D+00
 Coeff:      0.369D-04-0.898D-03 0.106D-03 0.268D-02 0.869D-02 0.400D-01
 Coeff:      0.252D+00 0.697D+00
 Gap=     0.249 Goal=   None    Shift=    0.000
 RMSDP=2.25D-08 MaxDP=1.46D-06 DE= 9.09D-13 OVMax= 3.38D-07

 Cycle   9  Pass 1  IDiag  1:
 E= -1957.67784234617     Delta-E=       -0.000000000030 Rises=F Damp=F
 DIIS: error= 1.96D-08 at cycle   9 NSaved=   9.
 NSaved= 9 IEnMin= 9 EnMin= -1957.67784234617     IErMin= 9 ErrMin= 1.96D-08
 ErrMax= 1.96D-08  0.00D+00 EMaxC= 1.00D-01 BMatC= 1.67D-13 BMatP= 1.10D-12
 IDIUse=1 WtCom= 1.00D+00 WtEn= 0.00D+00
 Coeff-Com:  0.777D-05-0.439D-04-0.323D-03-0.135D-02-0.295D-02 0.526D-03
 Coeff-Com:  0.690D-01 0.337D+00 0.598D+00
 Coeff:      0.777D-05-0.439D-04-0.323D-03-0.135D-02-0.295D-02 0.526D-03
 Coeff:      0.690D-01 0.337D+00 0.598D+00
 Gap=     0.249 Goal=   None    Shift=    0.000
 RMSDP=4.94D-09 MaxDP=3.14D-07 DE=-3.05D-11 OVMax= 1.48D-07

 SCF Done:  E(RB3LYP) =  -1957.67784235     A.U. after    9 cycles
            NFock=  9  Conv=0.49D-08     -V/T= 2.0025
 KE= 1.952775376263D+03 PE=-5.863836972861D+03 EE= 1.344383917786D+03
 Leave Link  502 at Thu Jun 13 12:22:30 2024, MaxMem=  1073741824 cpu:       118.8
 (Enter /apps/z_install_tree/linux-rocky8-ivybridge/gcc-12.2.0/gaussian-09-D.01-wczn3gur5lpur3omlkzwa2l5ecyxp5ef/g09/l508.exe)
 QCSCF skips out because SCF is already converged.
 Leave Link  508 at Thu Jun 13 12:22:30 2024, MaxMem=  1073741824 cpu:         0.0
 (Enter /apps/z_install_tree/linux-rocky8-ivybridge/gcc-12.2.0/gaussian-09-D.01-wczn3gur5lpur3omlkzwa2l5ecyxp5ef/g09/l701.exe)
 Compute integral first derivatives.
 ... and contract with generalized density number  0.
 R6Disp: Adding Grimme-D3 dispersion energy 1st derivatives to the gradient.
 Leave Link  701 at Thu Jun 13 12:22:31 2024, MaxMem=  1073741824 cpu:         3.3
 (Enter /apps/z_install_tree/linux-rocky8-ivybridge/gcc-12.2.0/gaussian-09-D.01-wczn3gur5lpur3omlkzwa2l5ecyxp5ef/g09/l702.exe)
 L702 exits ... SP integral derivatives will be done elsewhere.
 Leave Link  702 at Thu Jun 13 12:22:31 2024, MaxMem=  1073741824 cpu:         0.2
 (Enter /apps/z_install_tree/linux-rocky8-ivybridge/gcc-12.2.0/gaussian-09-D.01-wczn3gur5lpur3omlkzwa2l5ecyxp5ef/g09/l703.exe)
 Compute integral first derivatives, UseDBF=F ICtDFT=           0.
 Integral derivatives from FoFJK, PRISM(SPDF).
 Calling FoFJK, ICntrl=      2127 FMM=F ISym2X=0 I1Cent= 0 IOpClX= 0 NMat=1 NMatS=1 NMatT=0.
 FoFJK:  IHMeth= 1 ICntrl=    2127 DoSepK=F KAlg= 0 I1Cent=   0 FoldK=F
 IRaf=         0 NMat=   1 IRICut=       1 DoRegI=T DoRafI=F ISym2E= 0.
 FoFCou: FMM=F IPFlag=           0 FMFlag=      100000 FMFlg1=         800
         NFxFlg=           0 DoJE=F BraDBF=F KetDBF=F FulRan=T
         wScrn=  0.000000 ICntrl=    2127 IOpCl=  0 I1Cent=           0 NGrid=           0
         NMat0=    1 NMatS0=      1 NMatT0=    0 NMatD0=    1 NMtDS0=    0 NMtDT0=    0
 Symmetry not used in FoFCou.
 Leave Link  703 at Thu Jun 13 12:22:33 2024, MaxMem=  1073741824 cpu:        43.0
 (Enter /apps/z_install_tree/linux-rocky8-ivybridge/gcc-12.2.0/gaussian-09-D.01-wczn3gur5lpur3omlkzwa2l5ecyxp5ef/g09/l716.exe)
 Dipole        = 3.77770927D-02 1.35194851D-02 6.15869382D-02
 -------------------------------------------------------------------
 Center     Atomic                   Forces (Hartrees/Bohr)
 Number     Number              X              Y              Z
 -------------------------------------------------------------------
      1        6          -0.000401203   -0.000177312    0.000047550
      2        6          -0.000322921    0.000560134   -0.000182269
      3        6           0.000322247    0.000140689    0.000221859
      4       17          -0.000003292   -0.000147933    0.000007653
      5       17           0.000059134   -0.000037217   -0.000046627
      6       17           0.000295684   -0.000268796    0.000043697
      7       17          -0.000051382   -0.000070743   -0.000118018
      8        1           0.000090152    0.000021947    0.000019140
      9        1           0.000106785    0.000037162    0.000034819
     10        1          -0.000062117   -0.000010750    0.000011521
     11        1          -0.000033086   -0.000047182   -0.000039326
 -------------------------------------------------------------------
 Cartesian Forces:  Max     0.000560134 RMS     0.000179468
 Leave Link  716 at Thu Jun 13 12:22:33 2024, MaxMem=  1073741824 cpu:         0.3
 (Enter /apps/z_install_tree/linux-rocky8-ivybridge/gcc-12.2.0/gaussian-09-D.01-wczn3gur5lpur3omlkzwa2l5ecyxp5ef/g09/l103.exe)

 GradGradGradGradGradGradGradGradGradGradGradGradGradGradGradGradGradGrad
 Berny optimization.
 Using GEDIIS/GDIIS optimizer.
 FormGI is forming the generalized inverse of G from B-inverse, IUseBI=4.
 Internal  Forces:  Max     0.000436690 RMS     0.000115703
 Search for a local minimum.
 Step number   6 out of a maximum of   56
 All quantities printed in internal units (Hartrees-Bohrs-Radians)
 RMS Force = .11570D-03 SwitMx=.10000D-02 MixMth= 2
 Mixed Optimization -- En-DIIS/RFO-DIIS
 Swapping is turned off.
 Update second derivatives using D2CorX and points    3    4    5    6
 DE= -6.40D-06 DEPred=-7.05D-06 R= 9.08D-01
 TightC=F SS=  1.41D+00  RLast= 4.54D-02 DXNew= 1.4270D+00 1.3607D-01
 Trust test= 9.08D-01 RLast= 4.54D-02 DXMaxT set to 8.49D-01
 ITU=  1  1  1  1  1  0
     Eigenvalues ---    0.00261   0.00657   0.03964   0.04596   0.05073
     Eigenvalues ---    0.05723   0.07901   0.08490   0.09618   0.12492
     Eigenvalues ---    0.15922   0.16170   0.18016   0.21244   0.22379
     Eigenvalues ---    0.22918   0.25159   0.26455   0.27814   0.28347
     Eigenvalues ---    0.30824   0.31821   0.33997   0.34161   0.34312
     Eigenvalues ---    0.34470   0.38910
 En-DIIS/RFO-DIIS IScMMF=        0 using points:     6    5    4
 RFO step:  Lambda=-1.37231501D-06.
 NNeg= 0 NP= 3 Switch=  2.50D-03 Rises=F DC=  7.93D-05 SmlDif=  1.00D-05
 RMS Error=  0.2796248025D-03 NUsed= 3 EDIIS=F
 DidBck=F Rises=F RFO-DIIS coefs:    0.89429    0.14358   -0.03786
 Iteration  1 RMS(Cart)=  0.00206314 RMS(Int)=  0.00000216
 Iteration  2 RMS(Cart)=  0.00000242 RMS(Int)=  0.00000055
 Iteration  3 RMS(Cart)=  0.00000000 RMS(Int)=  0.00000055
 ITry= 1 IFail=0 DXMaxC= 7.02D-03 DCOld= 1.00D+10 DXMaxT= 8.49D-01 DXLimC= 3.00D+00 Rises=F
 Variable       Old X    -DE/DX   Delta X   Delta X   Delta X     New X
                                 (Linear)    (Quad)   (Total)
    R1        2.88471  -0.00016  -0.00012  -0.00052  -0.00064   2.88407
    R2        2.87600   0.00013  -0.00023   0.00086   0.00063   2.87663
    R3        2.05739  -0.00006   0.00004  -0.00004  -0.00001   2.05738
    R4        2.05750  -0.00007   0.00018  -0.00048  -0.00030   2.05720
    R5        3.41562  -0.00014   0.00013  -0.00160  -0.00148   3.41414
    R6        3.40820  -0.00006   0.00002  -0.00025  -0.00024   3.40797
    R7        3.40991   0.00036  -0.00011   0.00174   0.00164   3.41154
    R8        3.42640   0.00013  -0.00016   0.00034   0.00018   3.42658
    R9        2.04903  -0.00003   0.00013  -0.00023  -0.00010   2.04893
   R10        2.04903  -0.00006   0.00017  -0.00030  -0.00013   2.04890
    A1        1.99344  -0.00016  -0.00002  -0.00068  -0.00070   1.99274
    A2        1.87157   0.00009  -0.00006   0.00052   0.00046   1.87202
    A3        1.87257   0.00003   0.00012   0.00002   0.00013   1.87270
    A4        1.91940   0.00003  -0.00017   0.00012  -0.00005   1.91936
    A5        1.91993  -0.00001   0.00019  -0.00081  -0.00062   1.91931
    A6        1.88305   0.00002  -0.00006   0.00096   0.00090   1.88396
    A7        1.93589   0.00018  -0.00009   0.00095   0.00086   1.93675
    A8        1.90038  -0.00003  -0.00016   0.00020   0.00004   1.90042
    A9        1.93959  -0.00044  -0.00010  -0.00155  -0.00165   1.93794
   A10        1.89342   0.00003   0.00016   0.00073   0.00089   1.89431
   A11        1.89880   0.00010   0.00013   0.00002   0.00015   1.89895
   A12        1.89478   0.00017   0.00006  -0.00032  -0.00026   1.89452
   A13        1.90762  -0.00014   0.00032  -0.00075  -0.00044   1.90718
   A14        1.95537  -0.00006  -0.00028  -0.00007  -0.00035   1.95502
   A15        1.95470   0.00004   0.00013   0.00002   0.00015   1.95485
   A16        1.86371   0.00006  -0.00016   0.00017   0.00001   1.86372
   A17        1.86367   0.00005  -0.00001   0.00038   0.00036   1.86403
   A18        1.91424   0.00004   0.00001   0.00027   0.00027   1.91451
    D1        1.05793  -0.00002   0.00125  -0.00023   0.00102   1.05895
    D2        3.14022   0.00011   0.00130   0.00137   0.00267  -3.14030
    D3       -1.05675   0.00003   0.00121   0.00016   0.00137  -1.05538
    D4       -1.07342  -0.00002   0.00152  -0.00031   0.00121  -1.07222
    D5        1.00886   0.00011   0.00157   0.00128   0.00285   1.01172
    D6        3.09508   0.00003   0.00148   0.00007   0.00155   3.09663
    D7       -3.09251  -0.00010   0.00156  -0.00169  -0.00013  -3.09264
    D8       -1.01022   0.00003   0.00161  -0.00009   0.00152  -1.00870
    D9        1.07600  -0.00005   0.00152  -0.00131   0.00021   1.07621
   D10       -3.13579  -0.00007  -0.00069  -0.00210  -0.00279  -3.13859
   D11        1.08531  -0.00002  -0.00054  -0.00178  -0.00232   1.08299
   D12       -1.07417  -0.00006  -0.00043  -0.00210  -0.00253  -1.07670
   D13       -1.03086  -0.00004  -0.00091  -0.00181  -0.00272  -1.03358
   D14       -3.09294   0.00001  -0.00075  -0.00149  -0.00225  -3.09519
   D15        1.03076  -0.00003  -0.00065  -0.00181  -0.00246   1.02830
   D16        1.04078   0.00000  -0.00097  -0.00105  -0.00202   1.03876
   D17       -1.02130   0.00005  -0.00081  -0.00073  -0.00154  -1.02285
   D18        3.10240   0.00001  -0.00071  -0.00105  -0.00176   3.10064
         Item               Value     Threshold  Converged?
 Maximum Force            0.000437     0.000450     YES
 RMS     Force            0.000116     0.000300     YES
 Maximum Displacement     0.007023     0.001800     NO 
 RMS     Displacement     0.002064     0.001200     NO 
 Predicted change in Energy=-1.793437D-06
 Lowest energy point so far.  Saving SCF results.
 GradGradGradGradGradGradGradGradGradGradGradGradGradGradGradGradGradGrad

 Leave Link  103 at Thu Jun 13 12:22:33 2024, MaxMem=  1073741824 cpu:         3.7
 (Enter /apps/z_install_tree/linux-rocky8-ivybridge/gcc-12.2.0/gaussian-09-D.01-wczn3gur5lpur3omlkzwa2l5ecyxp5ef/g09/l202.exe)
                          Input orientation:                          
 ---------------------------------------------------------------------
 Center     Atomic      Atomic             Coordinates (Angstroms)
 Number     Number       Type             X           Y           Z
 ---------------------------------------------------------------------
      1          6           0       50.152443   35.378949   31.906506
      2          6           0       50.049466   35.654501   33.404075
      3          6           0       51.533781   35.632888   31.319438
      4         17           0       50.426540   37.382914   33.770830
      5         17           0       48.365088   35.307493   33.947005
      6         17           0       51.181648   34.601553   34.336070
      7         17           0       51.504925   35.270686   29.542949
      8          1           0       49.416083   36.009241   31.410712
      9          1           0       49.866268   34.340642   31.748001
     10          1           0       52.286746   34.987872   31.758283
     11          1           0       51.835012   36.669261   31.423132
 ---------------------------------------------------------------------
                    Distance matrix (angstroms):
                    1          2          3          4          5
     1  C    0.000000
     2  C    1.526186   0.000000
     3  C    1.522245   2.559174   0.000000
     4  Cl   2.750765   1.806684   3.209034   0.000000
     5  Cl   2.713555   1.803418   4.129238   2.930528   0.000000
     6  Cl   2.750707   1.805312   3.207448   2.936947   2.929629
     7  Cl   2.725313   4.144149   1.813267   4.847618   5.408849
     8  H    1.088718   2.121440   2.152817   2.911727   2.833695
     9  H    1.088624   2.121878   2.152712   3.696101   2.832659
    10  H    2.174893   2.856300   1.084245   3.639635   4.502451
    11  H    2.174763   2.853428   1.084233   2.829272   4.501635
                    6          7          8          9         10
     6  Cl   0.000000
     7  Cl   4.850388   0.000000
     8  H    3.695474   2.897804   0.000000
     9  H    2.914859   2.900420   1.760867   0.000000
    10  H    2.831161   2.366206   3.066710   2.505540   0.000000
    11  H    3.631461   2.366444   2.507389   3.066588   1.772981
                   11
    11  H    0.000000
 Symmetry turned off by external request.
 Stoichiometry    C3H4Cl4
 Framework group  C1[X(C3H4Cl4)]
 Deg. of freedom    27
 Full point group                 C1      NOp   1
 Rotational constants (GHZ):      1.6539203      0.6208712      0.6190775
 Leave Link  202 at Thu Jun 13 12:22:34 2024, MaxMem=  1073741824 cpu:         1.2
 (Enter /apps/z_install_tree/linux-rocky8-ivybridge/gcc-12.2.0/gaussian-09-D.01-wczn3gur5lpur3omlkzwa2l5ecyxp5ef/g09/l301.exe)
 Basis read from rwf:  (5D, 7F)
 No pseudopotential information found on rwf file.
   257 basis functions,   406 primitive gaussians,   271 cartesian basis functions
    45 alpha electrons       45 beta electrons
       nuclear repulsion energy       609.0599348899 Hartrees.
 IExCor=  402 DFT=T Ex+Corr=B3LYP ExCW=0 ScaHFX=  0.200000
 ScaDFX=  0.800000  0.720000  1.000000  0.810000 ScalE2=  1.000000  1.000000
 IRadAn=      5 IRanWt=     -1 IRanGd=            0 ICorTp=0 IEmpDi=131
 NAtoms=   11 NActive=   11 NUniq=   11 SFac= 1.00D+00 NAtFMM=   60 NAOKFM=F Big=F
 Integral buffers will be    131072 words long.
 Raffenetti 2 integral format.
 Two-electron integral symmetry is turned off.
 R6Disp:  Grimme-D3 Dispersion energy=       -0.0128126942 Hartrees.
 Nuclear repulsion after empirical dispersion term =      609.0471221956 Hartrees.
 No density basis found on file   724.
 Leave Link  301 at Thu Jun 13 12:22:34 2024, MaxMem=  1073741824 cpu:         1.3
 (Enter /apps/z_install_tree/linux-rocky8-ivybridge/gcc-12.2.0/gaussian-09-D.01-wczn3gur5lpur3omlkzwa2l5ecyxp5ef/g09/l302.exe)
 NPDir=0 NMtPBC=     1 NCelOv=     1 NCel=       1 NClECP=     1 NCelD=      1
         NCelK=      1 NCelE2=     1 NClLst=     1 CellRange=     0.0.
 One-electron integrals computed using PRISM.
 NBasis=   257 RedAO= T EigKep=  1.04D-05  NBF=   257
 NBsUse=   257 1.00D-06 EigRej= -1.00D+00 NBFU=   257
 Precomputing XC quadrature grid using
 IXCGrd= 4 IRadAn=           5 IRanWt=          -1 IRanGd=           0 AccXCQ= 0.00D+00.
 Generated NRdTot=       0 NPtTot=           0 NUsed=           0 NTot=          32
 NSgBfM=   270   270   270   270   270 MxSgAt=    11 MxSgA2=    11.
 Leave Link  302 at Thu Jun 13 12:22:34 2024, MaxMem=  1073741824 cpu:         6.4
 (Enter /apps/z_install_tree/linux-rocky8-ivybridge/gcc-12.2.0/gaussian-09-D.01-wczn3gur5lpur3omlkzwa2l5ecyxp5ef/g09/l303.exe)
 DipDrv:  MaxL=1.
 Leave Link  303 at Thu Jun 13 12:22:35 2024, MaxMem=  1073741824 cpu:         2.3
 (Enter /apps/z_install_tree/linux-rocky8-ivybridge/gcc-12.2.0/gaussian-09-D.01-wczn3gur5lpur3omlkzwa2l5ecyxp5ef/g09/l401.exe)
 Initial guess from the checkpoint file:  "tetrachloropropane.chk"
 B after Tr=     0.016133   -0.046149    0.024414
         Rot=    1.000000    0.000110   -0.000051   -0.000160 Ang=   0.02 deg.
 Guess basis will be translated and rotated to current coordinates.
 JPrj=2 DoOrth=T DoCkMO=T.
 Leave Link  401 at Thu Jun 13 12:22:35 2024, MaxMem=  1073741824 cpu:         3.8
 (Enter /apps/z_install_tree/linux-rocky8-ivybridge/gcc-12.2.0/gaussian-09-D.01-wczn3gur5lpur3omlkzwa2l5ecyxp5ef/g09/l502.exe)
 Closed shell SCF:
 Using DIIS extrapolation, IDIIS=  1040.
 Two-electron integral symmetry not used.
 Keep R1 ints in memory in canonical form, NReq=559877582.
 IVT=      238613 IEndB=      238613 NGot=  1073741824 MDV=   523925931
 LenX=   523925931 LenY=   523852049
 Requested convergence on RMS density matrix=1.00D-08 within  96 cycles.
 Requested convergence on MAX density matrix=1.00D-06.
 Requested convergence on             energy=1.00D-06.
 No special actions if energy rises.
 FoFCou: FMM=F IPFlag=           0 FMFlag=           0 FMFlg1=           0
         NFxFlg=           0 DoJE=F BraDBF=F KetDBF=F FulRan=T
         wScrn=  0.000000 ICntrl=     600 IOpCl=  0 I1Cent=           0 NGrid=           0
         NMat0=    1 NMatS0=  33153 NMatT0=    0 NMatD0=    1 NMtDS0=    0 NMtDT0=    0
 Symmetry not used in FoFCou.

 Cycle   1  Pass 1  IDiag  1:
 E= -1957.67783832806    
 DIIS: error= 9.42D-05 at cycle   1 NSaved=   1.
 NSaved= 1 IEnMin= 1 EnMin= -1957.67783832806     IErMin= 1 ErrMin= 9.42D-05
 ErrMax= 9.42D-05  0.00D+00 EMaxC= 1.00D-01 BMatC= 3.85D-06 BMatP= 3.85D-06
 IDIUse=1 WtCom= 1.00D+00 WtEn= 0.00D+00
 Coeff-Com:  0.100D+01
 Coeff:      0.100D+01
 Gap=     0.523 Goal=   None    Shift=    0.000
 RMSDP=5.35D-05 MaxDP=3.61D-03              OVMax= 6.97D-04

 Cycle   2  Pass 1  IDiag  1:
 E= -1957.67784430085     Delta-E=       -0.000005972784 Rises=F Damp=F
 DIIS: error= 1.78D-05 at cycle   2 NSaved=   2.
 NSaved= 2 IEnMin= 2 EnMin= -1957.67784430085     IErMin= 2 ErrMin= 1.78D-05
 ErrMax= 1.78D-05  0.00D+00 EMaxC= 1.00D-01 BMatC= 9.27D-08 BMatP= 3.85D-06
 IDIUse=1 WtCom= 1.00D+00 WtEn= 0.00D+00
 Coeff-Com: -0.198D-01 0.102D+01
 Coeff:     -0.198D-01 0.102D+01
 Gap=     0.249 Goal=   None    Shift=    0.000
 RMSDP=1.07D-05 MaxDP=6.21D-04 DE=-5.97D-06 OVMax= 1.62D-04

 Cycle   3  Pass 1  IDiag  1:
 E= -1957.67784432475     Delta-E=       -0.000000023900 Rises=F Damp=F
 DIIS: error= 1.54D-05 at cycle   3 NSaved=   3.
 NSaved= 3 IEnMin= 3 EnMin= -1957.67784432475     IErMin= 3 ErrMin= 1.54D-05
 ErrMax= 1.54D-05  0.00D+00 EMaxC= 1.00D-01 BMatC= 9.54D-08 BMatP= 9.27D-08
 IDIUse=1 WtCom= 1.00D+00 WtEn= 0.00D+00
 Coeff-Com: -0.259D-01 0.527D+00 0.499D+00
 Coeff:     -0.259D-01 0.527D+00 0.499D+00
 Gap=     0.249 Goal=   None    Shift=    0.000
 RMSDP=5.20D-06 MaxDP=3.32D-04 DE=-2.39D-08 OVMax= 7.77D-05

 Cycle   4  Pass 1  IDiag  1:
 E= -1957.67784442523     Delta-E=       -0.000000100485 Rises=F Damp=F
 DIIS: error= 4.60D-06 at cycle   4 NSaved=   4.
 NSaved= 4 IEnMin= 4 EnMin= -1957.67784442523     IErMin= 4 ErrMin= 4.60D-06
 ErrMax= 4.60D-06  0.00D+00 EMaxC= 1.00D-01 BMatC= 6.03D-09 BMatP= 9.27D-08
 IDIUse=1 WtCom= 1.00D+00 WtEn= 0.00D+00
 Coeff-Com: -0.103D-01 0.179D+00 0.248D+00 0.584D+00
 Coeff:     -0.103D-01 0.179D+00 0.248D+00 0.584D+00
 Gap=     0.249 Goal=   None    Shift=    0.000
 RMSDP=7.14D-07 MaxDP=2.56D-05 DE=-1.00D-07 OVMax= 2.18D-05

 Cycle   5  Pass 1  IDiag  1:
 E= -1957.67784442942     Delta-E=       -0.000000004191 Rises=F Damp=F
 DIIS: error= 2.62D-06 at cycle   5 NSaved=   5.
 NSaved= 5 IEnMin= 5 EnMin= -1957.67784442942     IErMin= 5 ErrMin= 2.62D-06
 ErrMax= 2.62D-06  0.00D+00 EMaxC= 1.00D-01 BMatC= 1.76D-09 BMatP= 6.03D-09
 IDIUse=1 WtCom= 1.00D+00 WtEn= 0.00D+00
 Coeff-Com: -0.217D-02 0.212D-01 0.772D-01 0.382D+00 0.521D+00
 Coeff:     -0.217D-02 0.212D-01 0.772D-01 0.382D+00 0.521D+00
 Gap=     0.249 Goal=   None    Shift=    0.000
 RMSDP=3.98D-07 MaxDP=2.74D-05 DE=-4.19D-09 OVMax= 9.53D-06

 Cycle   6  Pass 1  IDiag  1:
 E= -1957.67784443107     Delta-E=       -0.000000001647 Rises=F Damp=F
 DIIS: error= 4.37D-07 at cycle   6 NSaved=   6.
 NSaved= 6 IEnMin= 6 EnMin= -1957.67784443107     IErMin= 6 ErrMin= 4.37D-07
 ErrMax= 4.37D-07  0.00D+00 EMaxC= 1.00D-01 BMatC= 9.41D-11 BMatP= 1.76D-09
 IDIUse=1 WtCom= 1.00D+00 WtEn= 0.00D+00
 Coeff-Com:  0.176D-03-0.132D-01 0.122D-01 0.134D+00 0.265D+00 0.602D+00
 Coeff:      0.176D-03-0.132D-01 0.122D-01 0.134D+00 0.265D+00 0.602D+00
 Gap=     0.249 Goal=   None    Shift=    0.000
 RMSDP=8.80D-08 MaxDP=5.69D-06 DE=-1.65D-09 OVMax= 1.77D-06

 Cycle   7  Pass 1  IDiag  1:
 E= -1957.67784443120     Delta-E=       -0.000000000127 Rises=F Damp=F
 DIIS: error= 5.28D-08 at cycle   7 NSaved=   7.
 NSaved= 7 IEnMin= 7 EnMin= -1957.67784443120     IErMin= 7 ErrMin= 5.28D-08
 ErrMax= 5.28D-08  0.00D+00 EMaxC= 1.00D-01 BMatC= 1.76D-12 BMatP= 9.41D-11
 IDIUse=1 WtCom= 1.00D+00 WtEn= 0.00D+00
 Coeff-Com:  0.123D-03-0.530D-02 0.249D-02 0.336D-01 0.726D-01 0.215D+00
 Coeff-Com:  0.681D+00
 Coeff:      0.123D-03-0.530D-02 0.249D-02 0.336D-01 0.726D-01 0.215D+00
 Coeff:      0.681D+00
 Gap=     0.249 Goal=   None    Shift=    0.000
 RMSDP=2.21D-08 MaxDP=1.36D-06 DE=-1.27D-10 OVMax= 4.23D-07

 Cycle   8  Pass 1  IDiag  1:
 E= -1957.67784443118     Delta-E=        0.000000000014 Rises=F Damp=F
 DIIS: error= 3.26D-08 at cycle   8 NSaved=   8.
 NSaved= 8 IEnMin= 7 EnMin= -1957.67784443120     IErMin= 8 ErrMin= 3.26D-08
 ErrMax= 3.26D-08  0.00D+00 EMaxC= 1.00D-01 BMatC= 3.63D-13 BMatP= 1.76D-12
 IDIUse=1 WtCom= 1.00D+00 WtEn= 0.00D+00
 Coeff-Com:  0.480D-04-0.133D-02 0.218D-04 0.248D-02 0.739D-02 0.445D-01
 Coeff-Com:  0.351D+00 0.596D+00
 Coeff:      0.480D-04-0.133D-02 0.218D-04 0.248D-02 0.739D-02 0.445D-01
 Coeff:      0.351D+00 0.596D+00
 Gap=     0.249 Goal=   None    Shift=    0.000
 RMSDP=6.91D-09 MaxDP=2.65D-07 DE= 1.41D-11 OVMax= 2.15D-07

 SCF Done:  E(RB3LYP) =  -1957.67784443     A.U. after    8 cycles
            NFock=  8  Conv=0.69D-08     -V/T= 2.0025
 KE= 1.952775934979D+03 PE=-5.863931878134D+03 EE= 1.344430976528D+03
 Leave Link  502 at Thu Jun 13 12:22:45 2024, MaxMem=  1073741824 cpu:       110.0
 (Enter /apps/z_install_tree/linux-rocky8-ivybridge/gcc-12.2.0/gaussian-09-D.01-wczn3gur5lpur3omlkzwa2l5ecyxp5ef/g09/l508.exe)
 QCSCF skips out because SCF is already converged.
 Leave Link  508 at Thu Jun 13 12:22:46 2024, MaxMem=  1073741824 cpu:         0.0
 (Enter /apps/z_install_tree/linux-rocky8-ivybridge/gcc-12.2.0/gaussian-09-D.01-wczn3gur5lpur3omlkzwa2l5ecyxp5ef/g09/l701.exe)
 Compute integral first derivatives.
 ... and contract with generalized density number  0.
 R6Disp: Adding Grimme-D3 dispersion energy 1st derivatives to the gradient.
 Leave Link  701 at Thu Jun 13 12:22:46 2024, MaxMem=  1073741824 cpu:         6.7
 (Enter /apps/z_install_tree/linux-rocky8-ivybridge/gcc-12.2.0/gaussian-09-D.01-wczn3gur5lpur3omlkzwa2l5ecyxp5ef/g09/l702.exe)
 L702 exits ... SP integral derivatives will be done elsewhere.
 Leave Link  702 at Thu Jun 13 12:22:46 2024, MaxMem=  1073741824 cpu:         0.2
 (Enter /apps/z_install_tree/linux-rocky8-ivybridge/gcc-12.2.0/gaussian-09-D.01-wczn3gur5lpur3omlkzwa2l5ecyxp5ef/g09/l703.exe)
 Compute integral first derivatives, UseDBF=F ICtDFT=           0.
 Integral derivatives from FoFJK, PRISM(SPDF).
 Calling FoFJK, ICntrl=      2127 FMM=F ISym2X=0 I1Cent= 0 IOpClX= 0 NMat=1 NMatS=1 NMatT=0.
 FoFJK:  IHMeth= 1 ICntrl=    2127 DoSepK=F KAlg= 0 I1Cent=   0 FoldK=F
 IRaf=         0 NMat=   1 IRICut=       1 DoRegI=T DoRafI=F ISym2E= 0.
 FoFCou: FMM=F IPFlag=           0 FMFlag=      100000 FMFlg1=         800
         NFxFlg=           0 DoJE=F BraDBF=F KetDBF=F FulRan=T
         wScrn=  0.000000 ICntrl=    2127 IOpCl=  0 I1Cent=           0 NGrid=           0
         NMat0=    1 NMatS0=      1 NMatT0=    0 NMatD0=    1 NMtDS0=    0 NMtDT0=    0
 Symmetry not used in FoFCou.
 Leave Link  703 at Thu Jun 13 12:22:48 2024, MaxMem=  1073741824 cpu:        42.9
 (Enter /apps/z_install_tree/linux-rocky8-ivybridge/gcc-12.2.0/gaussian-09-D.01-wczn3gur5lpur3omlkzwa2l5ecyxp5ef/g09/l716.exe)
 Dipole        = 3.60104364D-02 1.78773752D-02 6.12918968D-02
 -------------------------------------------------------------------
 Center     Atomic                   Forces (Hartrees/Bohr)
 Number     Number              X              Y              Z
 -------------------------------------------------------------------
      1        6          -0.000127837    0.000007161   -0.000087972
      2        6          -0.000202852    0.000174171   -0.000052146
      3        6           0.000120827    0.000058715    0.000154339
      4       17          -0.000009099   -0.000038262    0.000020446
      5       17           0.000038822    0.000033718   -0.000016068
      6       17           0.000172358   -0.000158994    0.000122786
      7       17          -0.000023140   -0.000025574   -0.000101628
      8        1           0.000058926   -0.000026089    0.000007401
      9        1           0.000021743   -0.000017221    0.000013527
     10        1          -0.000032653   -0.000002777   -0.000011894
     11        1          -0.000017095   -0.000004849   -0.000048791
 -------------------------------------------------------------------
 Cartesian Forces:  Max     0.000202852 RMS     0.000084517
 Leave Link  716 at Thu Jun 13 12:22:49 2024, MaxMem=  1073741824 cpu:         0.4
 (Enter /apps/z_install_tree/linux-rocky8-ivybridge/gcc-12.2.0/gaussian-09-D.01-wczn3gur5lpur3omlkzwa2l5ecyxp5ef/g09/l103.exe)

 GradGradGradGradGradGradGradGradGradGradGradGradGradGradGradGradGradGrad
 Berny optimization.
 Using GEDIIS/GDIIS optimizer.
 FormGI is forming the generalized inverse of G from B-inverse, IUseBI=4.
 Internal  Forces:  Max     0.000263897 RMS     0.000050726
 Search for a local minimum.
 Step number   7 out of a maximum of   56
 All quantities printed in internal units (Hartrees-Bohrs-Radians)
 RMS Force = .50726D-04 SwitMx=.10000D-02 MixMth= 2
 Mixed Optimization -- En-DIIS/RFO-DIIS
 Swapping is turned off.
 Update second derivatives using D2CorX and points    3    4    5    6    7
 DE= -2.09D-06 DEPred=-1.79D-06 R= 1.16D+00
 TightC=F SS=  1.41D+00  RLast= 9.21D-03 DXNew= 1.4270D+00 2.7620D-02
 Trust test= 1.16D+00 RLast= 9.21D-03 DXMaxT set to 8.49D-01
 ITU=  1  1  1  1  1  1  0
     Eigenvalues ---    0.00264   0.00702   0.03923   0.04477   0.05246
     Eigenvalues ---    0.05729   0.07255   0.08492   0.09295   0.12591
     Eigenvalues ---    0.15537   0.16071   0.17353   0.20253   0.21906
     Eigenvalues ---    0.22702   0.25188   0.25915   0.26843   0.28478
     Eigenvalues ---    0.31179   0.32190   0.33938   0.34015   0.34268
     Eigenvalues ---    0.35217   0.40514
 En-DIIS/RFO-DIIS IScMMF=        0 using points:     7    6    5    4
 RFO step:  Lambda=-2.99335577D-07.
 NNeg= 0 NP= 4 Switch=  2.50D-03 Rises=F DC=  7.93D-05 SmlDif=  1.00D-05
 RMS Error=  0.1494138802D-03 NUsed= 4 EDIIS=F
 DidBck=F Rises=F RFO-DIIS coefs:    1.37469   -0.30955   -0.10249    0.03735
 Iteration  1 RMS(Cart)=  0.00223819 RMS(Int)=  0.00000288
 Iteration  2 RMS(Cart)=  0.00000302 RMS(Int)=  0.00000043
 Iteration  3 RMS(Cart)=  0.00000000 RMS(Int)=  0.00000043
 ITry= 1 IFail=0 DXMaxC= 7.03D-03 DCOld= 1.00D+10 DXMaxT= 8.49D-01 DXLimC= 3.00D+00 Rises=F
 Variable       Old X    -DE/DX   Delta X   Delta X   Delta X     New X
                                 (Linear)    (Quad)   (Total)
    R1        2.88407   0.00007  -0.00011   0.00027   0.00015   2.88423
    R2        2.87663   0.00005   0.00041   0.00003   0.00044   2.87706
    R3        2.05738  -0.00006  -0.00007  -0.00013  -0.00019   2.05719
    R4        2.05720   0.00001  -0.00025   0.00019  -0.00006   2.05714
    R5        3.41414  -0.00003  -0.00051  -0.00028  -0.00078   3.41336
    R6        3.40797  -0.00005  -0.00009  -0.00016  -0.00025   3.40771
    R7        3.41154   0.00026   0.00058   0.00098   0.00157   3.41311
    R8        3.42658   0.00010   0.00028   0.00029   0.00057   3.42715
    R9        2.04893  -0.00003  -0.00016   0.00003  -0.00013   2.04880
   R10        2.04890  -0.00001  -0.00020   0.00012  -0.00007   2.04883
    A1        1.99274   0.00003  -0.00029   0.00032   0.00003   1.99277
    A2        1.87202   0.00002   0.00027   0.00017   0.00044   1.87246
    A3        1.87270  -0.00003  -0.00013  -0.00004  -0.00017   1.87253
    A4        1.91936  -0.00003   0.00018  -0.00056  -0.00038   1.91898
    A5        1.91931   0.00000  -0.00037   0.00008  -0.00029   1.91902
    A6        1.88396   0.00001   0.00039   0.00004   0.00042   1.88438
    A7        1.93675   0.00007   0.00035   0.00022   0.00058   1.93732
    A8        1.90042   0.00000   0.00014  -0.00012   0.00002   1.90044
    A9        1.93794  -0.00005  -0.00054   0.00002  -0.00052   1.93742
   A10        1.89431  -0.00004   0.00018  -0.00014   0.00004   1.89435
   A11        1.89895  -0.00001  -0.00005   0.00002  -0.00003   1.89892
   A12        1.89452   0.00002  -0.00007  -0.00001  -0.00008   1.89443
   A13        1.90718  -0.00006  -0.00048  -0.00003  -0.00052   1.90666
   A14        1.95502  -0.00001   0.00012  -0.00019  -0.00007   1.95495
   A15        1.95485   0.00003  -0.00003   0.00027   0.00024   1.95509
   A16        1.86372   0.00002   0.00015  -0.00015   0.00000   1.86372
   A17        1.86403   0.00000   0.00013  -0.00030  -0.00017   1.86387
   A18        1.91451   0.00002   0.00012   0.00037   0.00049   1.91500
    D1        1.05895  -0.00001  -0.00077  -0.00093  -0.00169   1.05726
    D2       -3.14030  -0.00001  -0.00025  -0.00104  -0.00129  -3.14158
    D3       -1.05538  -0.00001  -0.00058  -0.00112  -0.00170  -1.05708
    D4       -1.07222   0.00000  -0.00100  -0.00055  -0.00155  -1.07376
    D5        1.01172   0.00000  -0.00048  -0.00066  -0.00114   1.01058
    D6        3.09663   0.00000  -0.00081  -0.00074  -0.00155   3.09509
    D7       -3.09264  -0.00001  -0.00152  -0.00065  -0.00217  -3.09480
    D8       -1.00870  -0.00002  -0.00100  -0.00076  -0.00176  -1.01046
    D9        1.07621  -0.00001  -0.00133  -0.00084  -0.00217   1.07404
   D10       -3.13859  -0.00002  -0.00099  -0.00215  -0.00314   3.14147
   D11        1.08299   0.00000  -0.00093  -0.00183  -0.00276   1.08024
   D12       -1.07670  -0.00004  -0.00116  -0.00237  -0.00353  -1.08023
   D13       -1.03358   0.00000  -0.00071  -0.00212  -0.00283  -1.03642
   D14       -3.09519   0.00002  -0.00065  -0.00180  -0.00245  -3.09764
   D15        1.02830  -0.00002  -0.00088  -0.00235  -0.00323   1.02507
   D16        1.03876   0.00000  -0.00035  -0.00237  -0.00272   1.03604
   D17       -1.02285   0.00002  -0.00029  -0.00205  -0.00234  -1.02519
   D18        3.10064  -0.00002  -0.00052  -0.00259  -0.00311   3.09753
         Item               Value     Threshold  Converged?
 Maximum Force            0.000264     0.000450     YES
 RMS     Force            0.000051     0.000300     YES
 Maximum Displacement     0.007031     0.001800     NO 
 RMS     Displacement     0.002238     0.001200     NO 
 Predicted change in Energy=-5.120359D-07
 Lowest energy point so far.  Saving SCF results.
 GradGradGradGradGradGradGradGradGradGradGradGradGradGradGradGradGradGrad

 Leave Link  103 at Thu Jun 13 12:22:49 2024, MaxMem=  1073741824 cpu:         6.5
 (Enter /apps/z_install_tree/linux-rocky8-ivybridge/gcc-12.2.0/gaussian-09-D.01-wczn3gur5lpur3omlkzwa2l5ecyxp5ef/g09/l202.exe)
                          Input orientation:                          
 ---------------------------------------------------------------------
 Center     Atomic      Atomic             Coordinates (Angstroms)
 Number     Number       Type             X           Y           Z
 ---------------------------------------------------------------------
      1          6           0       50.152323   35.379328   31.906486
      2          6           0       50.049309   35.654381   33.404226
      3          6           0       51.533731   35.634009   31.319305
      4         17           0       50.428255   37.381576   33.772750
      5         17           0       48.364662   35.308669   33.946703
      6         17           0       51.180716   34.598704   34.335681
      7         17           0       51.505341   35.266966   29.543494
      8          1           0       49.416003   36.009371   31.410540
      9          1           0       49.866986   34.340834   31.747913
     10          1           0       52.287355   34.991053   31.759869
     11          1           0       51.833320   36.671109   31.420032
 ---------------------------------------------------------------------
                    Distance matrix (angstroms):
                    1          2          3          4          5
     1  C    0.000000
     2  C    1.526267   0.000000
     3  C    1.522476   2.559457   0.000000
     4  Cl   2.751014   1.806270   3.208654   0.000000
     5  Cl   2.713523   1.803284   4.129415   2.930123   0.000000
     6  Cl   2.750992   1.806141   3.208583   2.937255   2.930105
     7  Cl   2.725255   4.144318   1.813569   4.849566   5.408683
     8  H    1.088615   2.121763   2.152671   2.913354   2.833447
     9  H    1.088592   2.121797   2.152684   3.696093   2.833436
    10  H    2.174998   2.855305   1.084176   3.636281   4.502293
    11  H    2.175106   2.855425   1.084194   2.830945   4.502432
                    6          7          8          9         10
     6  Cl   0.000000
     7  Cl   4.849435   0.000000
     8  H    3.696030   2.898683   0.000000
     9  H    2.913577   2.898515   1.761029   0.000000
    10  H    2.830794   2.366431   3.066539   2.506216   0.000000
    11  H    3.636174   2.366556   2.506274   3.066620   1.773196
                   11
    11  H    0.000000
 Symmetry turned off by external request.
 Stoichiometry    C3H4Cl4
 Framework group  C1[X(C3H4Cl4)]
 Deg. of freedom    27
 Full point group                 C1      NOp   1
 Rotational constants (GHZ):      1.6536250      0.6208156      0.6190149
 Leave Link  202 at Thu Jun 13 12:22:49 2024, MaxMem=  1073741824 cpu:         0.8
 (Enter /apps/z_install_tree/linux-rocky8-ivybridge/gcc-12.2.0/gaussian-09-D.01-wczn3gur5lpur3omlkzwa2l5ecyxp5ef/g09/l301.exe)
 Basis read from rwf:  (5D, 7F)
 No pseudopotential information found on rwf file.
   257 basis functions,   406 primitive gaussians,   271 cartesian basis functions
    45 alpha electrons       45 beta electrons
       nuclear repulsion energy       609.0228188101 Hartrees.
 IExCor=  402 DFT=T Ex+Corr=B3LYP ExCW=0 ScaHFX=  0.200000
 ScaDFX=  0.800000  0.720000  1.000000  0.810000 ScalE2=  1.000000  1.000000
 IRadAn=      5 IRanWt=     -1 IRanGd=            0 ICorTp=0 IEmpDi=131
 NAtoms=   11 NActive=   11 NUniq=   11 SFac= 1.00D+00 NAtFMM=   60 NAOKFM=F Big=F
 Integral buffers will be    131072 words long.
 Raffenetti 2 integral format.
 Two-electron integral symmetry is turned off.
 R6Disp:  Grimme-D3 Dispersion energy=       -0.0128130190 Hartrees.
 Nuclear repulsion after empirical dispersion term =      609.0100057911 Hartrees.
 No density basis found on file   724.
 Leave Link  301 at Thu Jun 13 12:22:49 2024, MaxMem=  1073741824 cpu:         1.1
 (Enter /apps/z_install_tree/linux-rocky8-ivybridge/gcc-12.2.0/gaussian-09-D.01-wczn3gur5lpur3omlkzwa2l5ecyxp5ef/g09/l302.exe)
 NPDir=0 NMtPBC=     1 NCelOv=     1 NCel=       1 NClECP=     1 NCelD=      1
         NCelK=      1 NCelE2=     1 NClLst=     1 CellRange=     0.0.
 One-electron integrals computed using PRISM.
 NBasis=   257 RedAO= T EigKep=  1.04D-05  NBF=   257
 NBsUse=   257 1.00D-06 EigRej= -1.00D+00 NBFU=   257
 Precomputing XC quadrature grid using
 IXCGrd= 4 IRadAn=           5 IRanWt=          -1 IRanGd=           0 AccXCQ= 0.00D+00.
 Generated NRdTot=       0 NPtTot=           0 NUsed=           0 NTot=          32
 NSgBfM=   270   270   270   270   270 MxSgAt=    11 MxSgA2=    11.
 Leave Link  302 at Thu Jun 13 12:22:50 2024, MaxMem=  1073741824 cpu:         3.8
 (Enter /apps/z_install_tree/linux-rocky8-ivybridge/gcc-12.2.0/gaussian-09-D.01-wczn3gur5lpur3omlkzwa2l5ecyxp5ef/g09/l303.exe)
 DipDrv:  MaxL=1.
 Leave Link  303 at Thu Jun 13 12:22:50 2024, MaxMem=  1073741824 cpu:         4.6
 (Enter /apps/z_install_tree/linux-rocky8-ivybridge/gcc-12.2.0/gaussian-09-D.01-wczn3gur5lpur3omlkzwa2l5ecyxp5ef/g09/l401.exe)
 Initial guess from the checkpoint file:  "tetrachloropropane.chk"
 B after Tr=    -0.063602    0.110256   -0.023222
         Rot=    1.000000   -0.000076    0.000072    0.000540 Ang=  -0.06 deg.
 Guess basis will be translated and rotated to current coordinates.
 JPrj=2 DoOrth=T DoCkMO=T.
 Leave Link  401 at Thu Jun 13 12:22:51 2024, MaxMem=  1073741824 cpu:         4.3
 (Enter /apps/z_install_tree/linux-rocky8-ivybridge/gcc-12.2.0/gaussian-09-D.01-wczn3gur5lpur3omlkzwa2l5ecyxp5ef/g09/l502.exe)
 Closed shell SCF:
 Using DIIS extrapolation, IDIIS=  1040.
 Two-electron integral symmetry not used.
 Keep R1 ints in memory in canonical form, NReq=559877582.
 IVT=      238613 IEndB=      238613 NGot=  1073741824 MDV=   523925931
 LenX=   523925931 LenY=   523852049
 Requested convergence on RMS density matrix=1.00D-08 within  96 cycles.
 Requested convergence on MAX density matrix=1.00D-06.
 Requested convergence on             energy=1.00D-06.
 No special actions if energy rises.
 FoFCou: FMM=F IPFlag=           0 FMFlag=           0 FMFlg1=           0
         NFxFlg=           0 DoJE=F BraDBF=F KetDBF=F FulRan=T
         wScrn=  0.000000 ICntrl=     600 IOpCl=  0 I1Cent=           0 NGrid=           0
         NMat0=    1 NMatS0=  33153 NMatT0=    0 NMatD0=    1 NMtDS0=    0 NMtDT0=    0
 Symmetry not used in FoFCou.

 Cycle   1  Pass 1  IDiag  1:
 E= -1957.67783780169    
 DIIS: error= 1.66D-04 at cycle   1 NSaved=   1.
 NSaved= 1 IEnMin= 1 EnMin= -1957.67783780169     IErMin= 1 ErrMin= 1.66D-04
 ErrMax= 1.66D-04  0.00D+00 EMaxC= 1.00D-01 BMatC= 4.53D-06 BMatP= 4.53D-06
 IDIUse=3 WtCom= 9.98D-01 WtEn= 1.66D-03
 Coeff-Com:  0.100D+01
 Coeff-En:   0.100D+01
 Coeff:      0.100D+01
 Gap=     0.523 Goal=   None    Shift=    0.000
 RMSDP=4.83D-05 MaxDP=1.92D-03              OVMax= 8.44D-04

 Cycle   2  Pass 1  IDiag  1:
 E= -1957.67784491959     Delta-E=       -0.000007117900 Rises=F Damp=F
 DIIS: error= 1.64D-05 at cycle   2 NSaved=   2.
 NSaved= 2 IEnMin= 2 EnMin= -1957.67784491959     IErMin= 2 ErrMin= 1.64D-05
 ErrMax= 1.64D-05  0.00D+00 EMaxC= 1.00D-01 BMatC= 5.93D-08 BMatP= 4.53D-06
 IDIUse=1 WtCom= 1.00D+00 WtEn= 0.00D+00
 Coeff-Com: -0.480D-01 0.105D+01
 Coeff:     -0.480D-01 0.105D+01
 Gap=     0.249 Goal=   None    Shift=    0.000
 RMSDP=6.65D-06 MaxDP=3.72D-04 DE=-7.12D-06 OVMax= 1.28D-04

 Cycle   3  Pass 1  IDiag  1:
 E= -1957.67784496615     Delta-E=       -0.000000046562 Rises=F Damp=F
 DIIS: error= 1.03D-05 at cycle   3 NSaved=   3.
 NSaved= 3 IEnMin= 3 EnMin= -1957.67784496615     IErMin= 3 ErrMin= 1.03D-05
 ErrMax= 1.03D-05  0.00D+00 EMaxC= 1.00D-01 BMatC= 5.12D-08 BMatP= 5.93D-08
 IDIUse=1 WtCom= 1.00D+00 WtEn= 0.00D+00
 Coeff-Com: -0.316D-01 0.533D+00 0.499D+00
 Coeff:     -0.316D-01 0.533D+00 0.499D+00
 Gap=     0.249 Goal=   None    Shift=    0.000
 RMSDP=3.26D-06 MaxDP=1.50D-04 DE=-4.66D-08 OVMax= 5.85D-05

 Cycle   4  Pass 1  IDiag  1:
 E= -1957.67784501204     Delta-E=       -0.000000045884 Rises=F Damp=F
 DIIS: error= 6.32D-06 at cycle   4 NSaved=   4.
 NSaved= 4 IEnMin= 4 EnMin= -1957.67784501204     IErMin= 4 ErrMin= 6.32D-06
 ErrMax= 6.32D-06  0.00D+00 EMaxC= 1.00D-01 BMatC= 8.55D-09 BMatP= 5.12D-08
 IDIUse=1 WtCom= 1.00D+00 WtEn= 0.00D+00
 Coeff-Com: -0.123D-01 0.182D+00 0.305D+00 0.525D+00
 Coeff:     -0.123D-01 0.182D+00 0.305D+00 0.525D+00
 Gap=     0.249 Goal=   None    Shift=    0.000
 RMSDP=9.26D-07 MaxDP=6.17D-05 DE=-4.59D-08 OVMax= 2.28D-05

 Cycle   5  Pass 1  IDiag  1:
 E= -1957.67784501953     Delta-E=       -0.000000007494 Rises=F Damp=F
 DIIS: error= 1.64D-06 at cycle   5 NSaved=   5.
 NSaved= 5 IEnMin= 5 EnMin= -1957.67784501953     IErMin= 5 ErrMin= 1.64D-06
 ErrMax= 1.64D-06  0.00D+00 EMaxC= 1.00D-01 BMatC= 8.15D-10 BMatP= 8.55D-09
 IDIUse=1 WtCom= 1.00D+00 WtEn= 0.00D+00
 Coeff-Com: -0.833D-03-0.282D-02 0.763D-01 0.284D+00 0.644D+00
 Coeff:     -0.833D-03-0.282D-02 0.763D-01 0.284D+00 0.644D+00
 Gap=     0.249 Goal=   None    Shift=    0.000
 RMSDP=4.16D-07 MaxDP=2.07D-05 DE=-7.49D-09 OVMax= 6.30D-06

 Cycle   6  Pass 1  IDiag  1:
 E= -1957.67784502034     Delta-E=       -0.000000000806 Rises=F Damp=F
 DIIS: error= 3.05D-07 at cycle   6 NSaved=   6.
 NSaved= 6 IEnMin= 6 EnMin= -1957.67784502034     IErMin= 6 ErrMin= 3.05D-07
 ErrMax= 3.05D-07  0.00D+00 EMaxC= 1.00D-01 BMatC= 4.48D-11 BMatP= 8.15D-10
 IDIUse=1 WtCom= 1.00D+00 WtEn= 0.00D+00
 Coeff-Com:  0.185D-03-0.109D-01 0.269D-01 0.125D+00 0.327D+00 0.532D+00
 Coeff:      0.185D-03-0.109D-01 0.269D-01 0.125D+00 0.327D+00 0.532D+00
 Gap=     0.249 Goal=   None    Shift=    0.000
 RMSDP=6.01D-08 MaxDP=2.91D-06 DE=-8.06D-10 OVMax= 1.56D-06

 Cycle   7  Pass 1  IDiag  1:
 E= -1957.67784502039     Delta-E=       -0.000000000050 Rises=F Damp=F
 DIIS: error= 4.35D-08 at cycle   7 NSaved=   7.
 NSaved= 7 IEnMin= 7 EnMin= -1957.67784502039     IErMin= 7 ErrMin= 4.35D-08
 ErrMax= 4.35D-08  0.00D+00 EMaxC= 1.00D-01 BMatC= 8.44D-13 BMatP= 4.48D-11
 IDIUse=1 WtCom= 1.00D+00 WtEn= 0.00D+00
 Coeff-Com:  0.931D-04-0.300D-02 0.372D-02 0.193D-01 0.522D-01 0.162D+00
 Coeff-Com:  0.765D+00
 Coeff:      0.931D-04-0.300D-02 0.372D-02 0.193D-01 0.522D-01 0.162D+00
 Coeff:      0.765D+00
 Gap=     0.249 Goal=   None    Shift=    0.000
 RMSDP=1.47D-08 MaxDP=8.10D-07 DE=-5.05D-11 OVMax= 2.97D-07

 Cycle   8  Pass 1  IDiag  1:
 E= -1957.67784502038     Delta-E=        0.000000000005 Rises=F Damp=F
 DIIS: error= 1.91D-08 at cycle   8 NSaved=   8.
 NSaved= 8 IEnMin= 7 EnMin= -1957.67784502039     IErMin= 8 ErrMin= 1.91D-08
 ErrMax= 1.91D-08  0.00D+00 EMaxC= 1.00D-01 BMatC= 1.53D-13 BMatP= 8.44D-13
 IDIUse=1 WtCom= 1.00D+00 WtEn= 0.00D+00
 Coeff-Com:  0.360D-04-0.816D-03 0.765D-04 0.138D-02 0.407D-02 0.456D-01
 Coeff-Com:  0.391D+00 0.559D+00
 Coeff:      0.360D-04-0.816D-03 0.765D-04 0.138D-02 0.407D-02 0.456D-01
 Coeff:      0.391D+00 0.559D+00
 Gap=     0.249 Goal=   None    Shift=    0.000
 RMSDP=3.79D-09 MaxDP=2.27D-07 DE= 5.00D-12 OVMax= 1.37D-07

 SCF Done:  E(RB3LYP) =  -1957.67784502     A.U. after    8 cycles
            NFock=  8  Conv=0.38D-08     -V/T= 2.0025
 KE= 1.952774962962D+03 PE=-5.863857082282D+03 EE= 1.344394268509D+03
 Leave Link  502 at Thu Jun 13 12:23:01 2024, MaxMem=  1073741824 cpu:       110.0
 (Enter /apps/z_install_tree/linux-rocky8-ivybridge/gcc-12.2.0/gaussian-09-D.01-wczn3gur5lpur3omlkzwa2l5ecyxp5ef/g09/l508.exe)
 QCSCF skips out because SCF is already converged.
 Leave Link  508 at Thu Jun 13 12:23:02 2024, MaxMem=  1073741824 cpu:         0.0
 (Enter /apps/z_install_tree/linux-rocky8-ivybridge/gcc-12.2.0/gaussian-09-D.01-wczn3gur5lpur3omlkzwa2l5ecyxp5ef/g09/l701.exe)
 Compute integral first derivatives.
 ... and contract with generalized density number  0.
 R6Disp: Adding Grimme-D3 dispersion energy 1st derivatives to the gradient.
 Leave Link  701 at Thu Jun 13 12:23:02 2024, MaxMem=  1073741824 cpu:         5.4
 (Enter /apps/z_install_tree/linux-rocky8-ivybridge/gcc-12.2.0/gaussian-09-D.01-wczn3gur5lpur3omlkzwa2l5ecyxp5ef/g09/l702.exe)
 L702 exits ... SP integral derivatives will be done elsewhere.
 Leave Link  702 at Thu Jun 13 12:23:02 2024, MaxMem=  1073741824 cpu:         0.2
 (Enter /apps/z_install_tree/linux-rocky8-ivybridge/gcc-12.2.0/gaussian-09-D.01-wczn3gur5lpur3omlkzwa2l5ecyxp5ef/g09/l703.exe)
 Compute integral first derivatives, UseDBF=F ICtDFT=           0.
 Integral derivatives from FoFJK, PRISM(SPDF).
 Calling FoFJK, ICntrl=      2127 FMM=F ISym2X=0 I1Cent= 0 IOpClX= 0 NMat=1 NMatS=1 NMatT=0.
 FoFJK:  IHMeth= 1 ICntrl=    2127 DoSepK=F KAlg= 0 I1Cent=   0 FoldK=F
 IRaf=         0 NMat=   1 IRICut=       1 DoRegI=T DoRafI=F ISym2E= 0.
 FoFCou: FMM=F IPFlag=           0 FMFlag=      100000 FMFlg1=         800
         NFxFlg=           0 DoJE=F BraDBF=F KetDBF=F FulRan=T
         wScrn=  0.000000 ICntrl=    2127 IOpCl=  0 I1Cent=           0 NGrid=           0
         NMat0=    1 NMatS0=      1 NMatT0=    0 NMatD0=    1 NMtDS0=    0 NMtDT0=    0
 Symmetry not used in FoFCou.
 Leave Link  703 at Thu Jun 13 12:23:04 2024, MaxMem=  1073741824 cpu:        42.8
 (Enter /apps/z_install_tree/linux-rocky8-ivybridge/gcc-12.2.0/gaussian-09-D.01-wczn3gur5lpur3omlkzwa2l5ecyxp5ef/g09/l716.exe)
 Dipole        = 3.48918533D-02 2.15474514D-02 6.06705150D-02
 -------------------------------------------------------------------
 Center     Atomic                   Forces (Hartrees/Bohr)
 Number     Number              X              Y              Z
 -------------------------------------------------------------------
      1        6           0.000075554    0.000040844   -0.000047458
      2        6          -0.000101036   -0.000006469   -0.000015278
      3        6          -0.000044563   -0.000010545    0.000072684
      4       17           0.000025114    0.000022130    0.000002581
      5       17           0.000024671    0.000007667   -0.000005172
      6       17           0.000039998   -0.000027586    0.000021797
      7       17           0.000001112    0.000003047   -0.000025708
      8        1          -0.000013688   -0.000005648    0.000008699
      9        1          -0.000013416   -0.000015242    0.000005929
     10        1           0.000013697   -0.000008786   -0.000001523
     11        1          -0.000007444    0.000000586   -0.000016551
 -------------------------------------------------------------------
 Cartesian Forces:  Max     0.000101036 RMS     0.000032174
 Leave Link  716 at Thu Jun 13 12:23:05 2024, MaxMem=  1073741824 cpu:         0.3
 (Enter /apps/z_install_tree/linux-rocky8-ivybridge/gcc-12.2.0/gaussian-09-D.01-wczn3gur5lpur3omlkzwa2l5ecyxp5ef/g09/l103.exe)

 GradGradGradGradGradGradGradGradGradGradGradGradGradGradGradGradGradGrad
 Berny optimization.
 Using GEDIIS/GDIIS optimizer.
 FormGI is forming the generalized inverse of G from B-inverse, IUseBI=4.
 Internal  Forces:  Max     0.000052087 RMS     0.000014963
 Search for a local minimum.
 Step number   8 out of a maximum of   56
 All quantities printed in internal units (Hartrees-Bohrs-Radians)
 RMS Force = .14963D-04 SwitMx=.10000D-02 MixMth= 2
 Mixed Optimization -- En-DIIS/RFO-DIIS
 Swapping is turned off.
 Update second derivatives using D2CorX and points    3    4    5    6    7
                                                      8
 DE= -5.89D-07 DEPred=-5.12D-07 R= 1.15D+00
 Trust test= 1.15D+00 RLast= 1.04D-02 DXMaxT set to 8.49D-01
 ITU=  0  1  1  1  1  1  1  0
     Eigenvalues ---    0.00245   0.00669   0.04015   0.04460   0.05222
     Eigenvalues ---    0.05765   0.06990   0.08325   0.09740   0.12592
     Eigenvalues ---    0.15810   0.16178   0.17135   0.19972   0.22096
     Eigenvalues ---    0.22737   0.25090   0.25846   0.27244   0.28569
     Eigenvalues ---    0.31040   0.32047   0.33954   0.34062   0.34491
     Eigenvalues ---    0.35773   0.40782
 En-DIIS/RFO-DIIS IScMMF=        0 using points:     8    7    6    5    4
 RFO step:  Lambda=-2.40423593D-08.
 NNeg= 0 NP= 5 Switch=  2.50D-03 Rises=F DC=  7.93D-05 SmlDif=  1.00D-05
 RMS Error=  0.4140151831D-04 NUsed= 5 EDIIS=F
 DidBck=F Rises=F RFO-DIIS coefs:    1.07370   -0.05769   -0.02050   -0.00405    0.00855
 Iteration  1 RMS(Cart)=  0.00055113 RMS(Int)=  0.00000018
 Iteration  2 RMS(Cart)=  0.00000017 RMS(Int)=  0.00000009
 ITry= 1 IFail=0 DXMaxC= 1.50D-03 DCOld= 1.00D+10 DXMaxT= 8.49D-01 DXLimC= 3.00D+00 Rises=F
 Variable       Old X    -DE/DX   Delta X   Delta X   Delta X     New X
                                 (Linear)    (Quad)   (Total)
    R1        2.88423   0.00000   0.00003   0.00000   0.00003   2.88426
    R2        2.87706  -0.00005   0.00005  -0.00019  -0.00013   2.87693
    R3        2.05719   0.00000  -0.00004   0.00004  -0.00001   2.05718
    R4        2.05714   0.00002  -0.00002   0.00006   0.00004   2.05718
    R5        3.41336   0.00003   0.00001   0.00003   0.00004   3.41340
    R6        3.40771  -0.00003  -0.00002  -0.00009  -0.00011   3.40761
    R7        3.41311   0.00005   0.00007   0.00021   0.00028   3.41339
    R8        3.42715   0.00002   0.00012   0.00003   0.00015   3.42730
    R9        2.04880   0.00001  -0.00004   0.00007   0.00003   2.04883
   R10        2.04883   0.00000  -0.00003   0.00001  -0.00003   2.04880
    A1        1.99277  -0.00001  -0.00004  -0.00001  -0.00005   1.99272
    A2        1.87246   0.00000   0.00008  -0.00008   0.00000   1.87246
    A3        1.87253   0.00000  -0.00008  -0.00004  -0.00012   1.87241
    A4        1.91898   0.00001   0.00003   0.00010   0.00013   1.91911
    A5        1.91902   0.00001  -0.00004   0.00008   0.00004   1.91906
    A6        1.88438  -0.00001   0.00005  -0.00006  -0.00001   1.88437
    A7        1.93732  -0.00001   0.00004  -0.00001   0.00003   1.93735
    A8        1.90044   0.00001   0.00002   0.00011   0.00013   1.90057
    A9        1.93742  -0.00001  -0.00006  -0.00010  -0.00016   1.93726
   A10        1.89435   0.00001  -0.00002   0.00012   0.00011   1.89445
   A11        1.89892   0.00000  -0.00001  -0.00011  -0.00012   1.89880
   A12        1.89443   0.00001   0.00004  -0.00002   0.00002   1.89445
   A13        1.90666   0.00001  -0.00012   0.00008  -0.00004   1.90662
   A14        1.95495   0.00001   0.00003   0.00011   0.00015   1.95510
   A15        1.95509  -0.00001   0.00002  -0.00006  -0.00004   1.95505
   A16        1.86372  -0.00001   0.00003  -0.00002   0.00001   1.86373
   A17        1.86387  -0.00001  -0.00002  -0.00017  -0.00019   1.86368
   A18        1.91500   0.00000   0.00006   0.00005   0.00010   1.91510
    D1        1.05726  -0.00001  -0.00033  -0.00036  -0.00069   1.05657
    D2       -3.14158   0.00000  -0.00032  -0.00014  -0.00046   3.14114
    D3       -1.05708   0.00001  -0.00030  -0.00015  -0.00045  -1.05753
    D4       -1.07376  -0.00002  -0.00040  -0.00042  -0.00082  -1.07459
    D5        1.01058  -0.00001  -0.00039  -0.00020  -0.00059   1.00999
    D6        3.09509   0.00000  -0.00037  -0.00021  -0.00058   3.09450
    D7       -3.09480  -0.00001  -0.00046  -0.00029  -0.00075  -3.09556
    D8       -1.01046   0.00000  -0.00045  -0.00007  -0.00052  -1.01098
    D9        1.07404   0.00001  -0.00043  -0.00008  -0.00051   1.07353
   D10        3.14147   0.00001  -0.00057   0.00005  -0.00052   3.14094
   D11        1.08024   0.00000  -0.00055  -0.00005  -0.00060   1.07964
   D12       -1.08023  -0.00001  -0.00066  -0.00015  -0.00081  -1.08105
   D13       -1.03642   0.00000  -0.00047   0.00001  -0.00046  -1.03687
   D14       -3.09764   0.00000  -0.00045  -0.00008  -0.00053  -3.09818
   D15        1.02507  -0.00001  -0.00056  -0.00019  -0.00075   1.02432
   D16        1.03604   0.00001  -0.00041   0.00005  -0.00036   1.03567
   D17       -1.02519   0.00000  -0.00039  -0.00005  -0.00044  -1.02563
   D18        3.09753   0.00000  -0.00050  -0.00015  -0.00066   3.09687
         Item               Value     Threshold  Converged?
 Maximum Force            0.000052     0.000450     YES
 RMS     Force            0.000015     0.000300     YES
 Maximum Displacement     0.001495     0.001800     YES
 RMS     Displacement     0.000551     0.001200     YES
 Predicted change in Energy=-3.941479D-08
 Optimization completed.
    -- Stationary point found.
                           ----------------------------
                           !   Optimized Parameters   !
                           ! (Angstroms and Degrees)  !
 --------------------------                            --------------------------
 ! Name  Definition              Value          Derivative Info.                !
 --------------------------------------------------------------------------------
 ! R1    R(1,2)                  1.5263         -DE/DX =    0.0                 !
 ! R2    R(1,3)                  1.5225         -DE/DX =    0.0                 !
 ! R3    R(1,8)                  1.0886         -DE/DX =    0.0                 !
 ! R4    R(1,9)                  1.0886         -DE/DX =    0.0                 !
 ! R5    R(2,4)                  1.8063         -DE/DX =    0.0                 !
 ! R6    R(2,5)                  1.8033         -DE/DX =    0.0                 !
 ! R7    R(2,6)                  1.8061         -DE/DX =    0.0001              !
 ! R8    R(3,7)                  1.8136         -DE/DX =    0.0                 !
 ! R9    R(3,10)                 1.0842         -DE/DX =    0.0                 !
 ! R10   R(3,11)                 1.0842         -DE/DX =    0.0                 !
 ! A1    A(2,1,3)              114.1772         -DE/DX =    0.0                 !
 ! A2    A(2,1,8)              107.284          -DE/DX =    0.0                 !
 ! A3    A(2,1,9)              107.288          -DE/DX =    0.0                 !
 ! A4    A(3,1,8)              109.9495         -DE/DX =    0.0                 !
 ! A5    A(3,1,9)              109.9519         -DE/DX =    0.0                 !
 ! A6    A(8,1,9)              107.967          -DE/DX =    0.0                 !
 ! A7    A(1,2,4)              111.0004         -DE/DX =    0.0                 !
 ! A8    A(1,2,5)              108.8873         -DE/DX =    0.0                 !
 ! A9    A(1,2,6)              111.0059         -DE/DX =    0.0                 !
 ! A10   A(4,2,5)              108.5382         -DE/DX =    0.0                 !
 ! A11   A(4,2,6)              108.8001         -DE/DX =    0.0                 !
 ! A12   A(5,2,6)              108.5429         -DE/DX =    0.0                 !
 ! A13   A(1,3,7)              109.2437         -DE/DX =    0.0                 !
 ! A14   A(1,3,10)             112.0107         -DE/DX =    0.0                 !
 ! A15   A(1,3,11)             112.0184         -DE/DX =    0.0                 !
 ! A16   A(7,3,10)             106.7836         -DE/DX =    0.0                 !
 ! A17   A(7,3,11)             106.7917         -DE/DX =    0.0                 !
 ! A18   A(10,3,11)            109.7214         -DE/DX =    0.0                 !
 ! D1    D(3,1,2,4)             60.5763         -DE/DX =    0.0                 !
 ! D2    D(3,1,2,5)            180.0005         -DE/DX =    0.0                 !
 ! D3    D(3,1,2,6)            -60.5662         -DE/DX =    0.0                 !
 ! D4    D(8,1,2,4)            -61.5221         -DE/DX =    0.0                 !
 ! D5    D(8,1,2,5)             57.902          -DE/DX =    0.0                 !
 ! D6    D(8,1,2,6)            177.3353         -DE/DX =    0.0                 !
 ! D7    D(9,1,2,4)           -177.3193         -DE/DX =    0.0                 !
 ! D8    D(9,1,2,5)            -57.8951         -DE/DX =    0.0                 !
 ! D9    D(9,1,2,6)             61.5382         -DE/DX =    0.0                 !
 ! D10   D(2,1,3,7)            179.9927         -DE/DX =    0.0                 !
 ! D11   D(2,1,3,10)            61.8929         -DE/DX =    0.0                 !
 ! D12   D(2,1,3,11)           -61.8927         -DE/DX =    0.0                 !
 ! D13   D(8,1,3,7)            -59.3822         -DE/DX =    0.0                 !
 ! D14   D(8,1,3,10)          -177.482          -DE/DX =    0.0                 !
 ! D15   D(8,1,3,11)            58.7324         -DE/DX =    0.0                 !
 ! D16   D(9,1,3,7)             59.3607         -DE/DX =    0.0                 !
 ! D17   D(9,1,3,10)           -58.7391         -DE/DX =    0.0                 !
 ! D18   D(9,1,3,11)           177.4753         -DE/DX =    0.0                 !
 --------------------------------------------------------------------------------
 Lowest energy point so far.  Saving SCF results.
 GradGradGradGradGradGradGradGradGradGradGradGradGradGradGradGradGradGrad

 Largest change from initial coordinates is atom    6       0.289 Angstoms.
 Leave Link  103 at Thu Jun 13 12:23:05 2024, MaxMem=  1073741824 cpu:         7.4
 (Enter /apps/z_install_tree/linux-rocky8-ivybridge/gcc-12.2.0/gaussian-09-D.01-wczn3gur5lpur3omlkzwa2l5ecyxp5ef/g09/l202.exe)
                          Input orientation:                          
 ---------------------------------------------------------------------
 Center     Atomic      Atomic             Coordinates (Angstroms)
 Number     Number       Type             X           Y           Z
 ---------------------------------------------------------------------
      1          6           0       50.152323   35.379328   31.906486
      2          6           0       50.049309   35.654381   33.404226
      3          6           0       51.533731   35.634009   31.319305
      4         17           0       50.428255   37.381576   33.772750
      5         17           0       48.364662   35.308669   33.946703
      6         17           0       51.180716   34.598704   34.335681
      7         17           0       51.505341   35.266966   29.543494
      8          1           0       49.416003   36.009371   31.410540
      9          1           0       49.866986   34.340834   31.747913
     10          1           0       52.287355   34.991053   31.759869
     11          1           0       51.833320   36.671109   31.420032
 ---------------------------------------------------------------------
                    Distance matrix (angstroms):
                    1          2          3          4          5
     1  C    0.000000
     2  C    1.526267   0.000000
     3  C    1.522476   2.559457   0.000000
     4  Cl   2.751014   1.806270   3.208654   0.000000
     5  Cl   2.713523   1.803284   4.129415   2.930123   0.000000
     6  Cl   2.750992   1.806141   3.208583   2.937255   2.930105
     7  Cl   2.725255   4.144318   1.813569   4.849566   5.408683
     8  H    1.088615   2.121763   2.152671   2.913354   2.833447
     9  H    1.088592   2.121797   2.152684   3.696093   2.833436
    10  H    2.174998   2.855305   1.084176   3.636281   4.502293
    11  H    2.175106   2.855425   1.084194   2.830945   4.502432
                    6          7          8          9         10
     6  Cl   0.000000
     7  Cl   4.849435   0.000000
     8  H    3.696030   2.898683   0.000000
     9  H    2.913577   2.898515   1.761029   0.000000
    10  H    2.830794   2.366431   3.066539   2.506216   0.000000
    11  H    3.636174   2.366556   2.506274   3.066620   1.773196
                   11
    11  H    0.000000
 Symmetry turned off by external request.
 Stoichiometry    C3H4Cl4
 Framework group  C1[X(C3H4Cl4)]
 Deg. of freedom    27
 Full point group                 C1      NOp   1
 Rotational constants (GHZ):      1.6536250      0.6208156      0.6190149
 Leave Link  202 at Thu Jun 13 12:23:05 2024, MaxMem=  1073741824 cpu:         0.8
 (Enter /apps/z_install_tree/linux-rocky8-ivybridge/gcc-12.2.0/gaussian-09-D.01-wczn3gur5lpur3omlkzwa2l5ecyxp5ef/g09/l601.exe)
 Copying SCF densities to generalized density rwf, IOpCl= 0 IROHF=0.

 **********************************************************************

            Population analysis using the SCF density.

 **********************************************************************

 Alpha  occ. eigenvalues -- -101.58232-101.58231-101.58081-101.55533 -10.37738
 Alpha  occ. eigenvalues --  -10.25159 -10.22554  -9.49672  -9.49670  -9.49515
 Alpha  occ. eigenvalues --   -9.46933  -7.26180  -7.26178  -7.26033  -7.25118
 Alpha  occ. eigenvalues --   -7.25116  -7.25110  -7.25108  -7.24956  -7.24949
 Alpha  occ. eigenvalues --   -7.23398  -7.22413  -7.22400  -0.96010  -0.87655
 Alpha  occ. eigenvalues --   -0.85203  -0.85086  -0.78681  -0.67626  -0.61017
 Alpha  occ. eigenvalues --   -0.52758  -0.50456  -0.49665  -0.47806  -0.42981
 Alpha  occ. eigenvalues --   -0.41702  -0.40477  -0.36781  -0.36676  -0.34887
 Alpha  occ. eigenvalues --   -0.33517  -0.33431  -0.32158  -0.31498  -0.31310
 Alpha virt. eigenvalues --   -0.06432  -0.03180  -0.02299  -0.00462   0.00463
 Alpha virt. eigenvalues --    0.01827   0.02590   0.03080   0.05229   0.06026
 Alpha virt. eigenvalues --    0.06282   0.06821   0.06914   0.08934   0.09262
 Alpha virt. eigenvalues --    0.09776   0.09809   0.10346   0.10509   0.10872
 Alpha virt. eigenvalues --    0.11251   0.12165   0.12827   0.13179   0.14246
 Alpha virt. eigenvalues --    0.15551   0.16158   0.16552   0.17574   0.17953
 Alpha virt. eigenvalues --    0.19912   0.20360   0.21027   0.21969   0.22571
 Alpha virt. eigenvalues --    0.23883   0.26382   0.29994   0.31916   0.34038
 Alpha virt. eigenvalues --    0.35264   0.35663   0.36695   0.37185   0.37769
 Alpha virt. eigenvalues --    0.40386   0.40587   0.40662   0.41272   0.42655
 Alpha virt. eigenvalues --    0.42851   0.43521   0.43550   0.43625   0.43871
 Alpha virt. eigenvalues --    0.44417   0.44829   0.45856   0.46485   0.47491
 Alpha virt. eigenvalues --    0.48176   0.48804   0.49167   0.49723   0.50395
 Alpha virt. eigenvalues --    0.51165   0.51763   0.55062   0.57263   0.58682
 Alpha virt. eigenvalues --    0.59780   0.63661   0.64124   0.65600   0.67250
 Alpha virt. eigenvalues --    0.67701   0.67944   0.70084   0.71756   0.75350
 Alpha virt. eigenvalues --    0.77607   0.79261   0.79282   0.82976   0.86458
 Alpha virt. eigenvalues --    0.90479   0.94768   0.96092   0.98310   1.01259
 Alpha virt. eigenvalues --    1.03867   1.06007   1.07135   1.07820   1.08833
 Alpha virt. eigenvalues --    1.12057   1.13437   1.15535   1.17543   1.19163
 Alpha virt. eigenvalues --    1.21378   1.22974   1.28752   1.30387   1.31428
 Alpha virt. eigenvalues --    1.33110   1.34543   1.36996   1.39773   1.39858
 Alpha virt. eigenvalues --    1.45825   1.49372   1.49536   1.53488   1.56192
 Alpha virt. eigenvalues --    1.60037   1.63025   2.23194   2.23547   2.24196
 Alpha virt. eigenvalues --    2.26664   2.29456   2.30057   2.30165   2.30470
 Alpha virt. eigenvalues --    2.34483   2.35054   2.35815   2.36872   2.37041
 Alpha virt. eigenvalues --    2.38251   2.38522   2.40977   2.41116   2.42394
 Alpha virt. eigenvalues --    2.44805   2.45086   2.46555   2.48245   2.51744
 Alpha virt. eigenvalues --    2.54440   2.56617   2.56656   2.57048   2.60385
 Alpha virt. eigenvalues --    2.66059   2.69240   2.74235   2.78740   2.80333
 Alpha virt. eigenvalues --    2.82977   2.88556   2.91881   3.00985   3.10853
 Alpha virt. eigenvalues --    3.20560   3.21902   3.23373   3.26116   3.30782
 Alpha virt. eigenvalues --    3.34515   3.39824   3.40713   3.45693   3.47792
 Alpha virt. eigenvalues --    3.50232   3.50511   3.54839   3.56769   3.60637
 Alpha virt. eigenvalues --    3.61944   3.65020   3.67113   3.73228   3.75063
 Alpha virt. eigenvalues --    3.86905   3.92070   3.96848   4.02542   4.05673
 Alpha virt. eigenvalues --    4.10237   4.16013   4.19283   4.24224   4.32984
 Alpha virt. eigenvalues --    4.60831   4.81306   5.04003   5.08288   9.78345
 Alpha virt. eigenvalues --    9.78758   9.79274   9.82127  23.42483  23.83184
 Alpha virt. eigenvalues --   23.88405  25.85220  25.89843  25.91869  25.94068
 Alpha virt. eigenvalues --   25.98138  26.07477  26.09507  26.12534  27.14872
 Alpha virt. eigenvalues --   27.27250  27.39248  27.42296 215.78361 215.78514
 Alpha virt. eigenvalues --  215.79506 215.84415
          Condensed to atoms (all electrons):
               1          2          3          4          5          6
     1  C    9.384878  -4.258461  -1.303369   0.568930   0.714105   0.568880
     2  C   -4.258461  10.900421   1.136854  -1.156017  -0.918082  -1.155752
     3  C   -1.303369   1.136854   5.769789   0.004611  -0.135449   0.004621
     4  Cl   0.568930  -1.156017   0.004611  17.497715   0.219479   0.319326
     5  Cl   0.714105  -0.918082  -0.135449   0.219479  17.169805   0.219449
     6  Cl   0.568880  -1.155752   0.004621   0.319326   0.219449  17.497421
     7  Cl   0.181779  -0.213458   0.163282   0.014787   0.005031   0.014785
     8  H    0.444835  -0.046338  -0.026398  -0.003171  -0.001062   0.015415
     9  H    0.444830  -0.046316  -0.026393   0.015407  -0.001061  -0.003171
    10  H   -0.052413  -0.005209   0.445097  -0.003021  -0.000848   0.000151
    11  H   -0.052422  -0.005192   0.445114   0.000148  -0.000847  -0.003021
               7          8          9         10         11
     1  C    0.181779   0.444835   0.444830  -0.052413  -0.052422
     2  C   -0.213458  -0.046338  -0.046316  -0.005209  -0.005192
     3  C    0.163282  -0.026398  -0.026393   0.445097   0.445114
     4  Cl   0.014787  -0.003171   0.015407  -0.003021   0.000148
     5  Cl   0.005031  -0.001062  -0.001061  -0.000848  -0.000847
     6  Cl   0.014785   0.015415  -0.003171   0.000151  -0.003021
     7  Cl  16.907245  -0.003836  -0.003843  -0.036453  -0.036433
     8  H   -0.003836   0.500378  -0.023069   0.003922  -0.004784
     9  H   -0.003843  -0.023069   0.500375  -0.004784   0.003921
    10  H   -0.036453   0.003922  -0.004784   0.548727  -0.036814
    11  H   -0.036433  -0.004784   0.003921  -0.036814   0.548703
 Mulliken charges:
               1
     1  C   -0.641570
     2  C    1.767548
     3  C   -0.477758
     4  Cl  -0.478194
     5  Cl  -0.270519
     6  Cl  -0.478104
     7  Cl   0.007114
     8  H    0.144108
     9  H    0.144104
    10  H    0.141644
    11  H    0.141628
 Sum of Mulliken charges =   0.00000
 Mulliken charges with hydrogens summed into heavy atoms:
               1
     1  C   -0.353359
     2  C    1.767548
     3  C   -0.194487
     4  Cl  -0.478194
     5  Cl  -0.270519
     6  Cl  -0.478104
     7  Cl   0.007114
 Electronic spatial extent (au):  <R**2>=        1570748.6563
 Charge=              0.0000 electrons
 Dipole moment (field-independent basis, Debye):
    X=              0.0887    Y=              0.0548    Z=              0.1542  Tot=              0.1861
 Quadrupole moment (field-independent basis, Debye-Ang):
   XX=            -60.2080   YY=            -65.3319   ZZ=            -67.0479
   XY=              6.4124   XZ=             13.0842   YZ=              6.3225
 Traceless Quadrupole moment (field-independent basis, Debye-Ang):
   XX=              3.9880   YY=             -1.1360   ZZ=             -2.8520
   XY=              6.4124   XZ=             13.0842   YZ=              6.3225
 Octapole moment (field-independent basis, Debye-Ang**2):
  XXX=          -9788.9666  YYY=          -7184.8086  ZZZ=          -7053.0915  XYY=          -3145.1617
  XXY=          -1957.0484  XXZ=          -1328.8755  XZZ=          -3136.3202  YZZ=          -2391.5403
  YYZ=          -2006.7545  XYZ=            522.3347
 Hexadecapole moment (field-independent basis, Debye-Ang**3):
 XXXX=       -1011000.3131 YYYY=        -516845.9221 ZZZZ=        -472224.2199 XXXY=        -338085.9906
 XXXZ=        -281000.2749 YYYX=        -356218.3985 YYYZ=        -231409.2951 ZZZX=        -345352.1489
 ZZZY=        -252342.0006 XXYY=        -239072.8067 XXZZ=        -219772.7321 YYZZ=        -159475.3527
 XXYZ=         -43831.4466 YYXZ=         -93296.8369 ZZXY=        -111458.0565
 N-N= 6.090100057911D+02 E-N=-5.863857080539D+03  KE= 1.952774962962D+03
 No NMR shielding tensors so no spin-rotation constants.
 Leave Link  601 at Thu Jun 13 12:23:06 2024, MaxMem=  1073741824 cpu:         6.0
 (Enter /apps/z_install_tree/linux-rocky8-ivybridge/gcc-12.2.0/gaussian-09-D.01-wczn3gur5lpur3omlkzwa2l5ecyxp5ef/g09/l9999.exe)
 1\1\GINC-K139\FOpt\RB3LYP\Gen\C3H4Cl4\Z5112331\13-Jun-2024\0\\#p opt f
 req b3lyp/gen nosymm em=gd3 int=ultrafine scf=xqc scfcyc=96\\tetrachlo
 ropropane\\0,1\C,50.1523227244,35.3793275994,31.9064861957\C,50.049309
 0904,35.6543814125,33.404226289\C,51.5337309943,35.6340088566,31.31930
 49122\Cl,50.4282553314,37.381576261,33.7727495471\Cl,48.3646616098,35.
 3086692819,33.9467027306\Cl,51.1807155276,34.5987039058,34.3356813677\
 Cl,51.5053407203,35.2669657536,29.543493745\H,49.4160032496,36.0093712
 361,31.4105404274\H,49.8669855645,34.3408337108,31.747912896\H,52.2873
 551546,34.991053278,31.7598694182\H,51.8333200332,36.6711087043,31.420
 0324709\\Version=ES64L-G09RevD.01\HF=-1957.677845\RMSD=3.790e-09\RMSF=
 3.217e-05\Dipole=0.0348919,0.0215475,0.0606705\Quadrupole=2.9649466,-0
 .8445739,-2.1203727,4.7674908,9.727761,4.7005963\PG=C01 [X(C3H4Cl4)]\\
 @


      HUMANKIND PERIODICALLY GOES THROUGH A SPEEDUP OF ITS AFFAIRS, 
      THEREBY EXPERIENCING THE RACE BETWEEN THE RENEWABLE VITALITY
      OF THE LIVING, AND THE BECKONING VITIATION OF DECADENCE.
      IN THIS PERIODIC RACE, ANY PAUSE BECOMES A LUXURY.
      ONLY THEN CAN ONE REFLECT THAT ALL IS PERMITTED;
      ALL IS POSSIBLE.

                              -- THE APOCRYPHA OF MUAD'DIB
                                 CHILDREN OF DUNE, BY FRANK HERBERT
 Leave Link 9999 at Thu Jun 13 12:23:06 2024, MaxMem=  1073741824 cpu:         1.1
 Job cpu time:       0 days  0 hours 29 minutes 16.0 seconds.
 File lengths (MBytes):  RWF=    134 Int=      0 D2E=      0 Chk=      6 Scr=      2
 Normal termination of Gaussian 09 at Thu Jun 13 12:23:06 2024.
 (Enter /apps/z_install_tree/linux-rocky8-ivybridge/gcc-12.2.0/gaussian-09-D.01-wczn3gur5lpur3omlkzwa2l5ecyxp5ef/g09/l1.exe)
 Link1:  Proceeding to internal job step number  2.
 ------------------------------------------------------------------
 #P Geom=AllCheck Guess=TCheck SCRF=Check GenChk RB3LYP/ChkBas Freq
 ------------------------------------------------------------------
 1/10=4,29=7,30=1,38=1,40=1/1,3;
 2/12=2,15=1,40=1/2;
 3/5=7,6=2,11=2,14=-4,16=1,25=1,30=1,67=1,70=2,71=2,74=-5,75=-5,82=7,116=1,124=31,140=1/1,2,3;
 4/5=101/1;
 5/5=2,7=96,8=3,13=1,98=1/2,8;
 8/6=4,10=90,11=11/1;
 11/6=1,8=1,9=11,15=111,16=1,31=1/1,2,10;
 10/6=1,31=1/2;
 6/7=2,8=2,9=2,10=2,18=1,28=1/1;
 7/8=1,10=1,25=1,30=1/1,2,3,16;
 1/10=4,30=1/3;
 99//99;
 Leave Link    1 at Thu Jun 13 12:23:06 2024, MaxMem=  1073741824 cpu:         0.5
 (Enter /apps/z_install_tree/linux-rocky8-ivybridge/gcc-12.2.0/gaussian-09-D.01-wczn3gur5lpur3omlkzwa2l5ecyxp5ef/g09/l101.exe)
 Structure from the checkpoint file:  "tetrachloropropane.chk"
 ------------------
 tetrachloropropane
 ------------------
 Charge =  0 Multiplicity = 1
 Redundant internal coordinates found in file.
 C,0,50.1523227244,35.3793275994,31.9064861957
 C,0,50.0493090904,35.6543814125,33.404226289
 C,0,51.5337309943,35.6340088566,31.3193049122
 Cl,0,50.4282553314,37.381576261,33.7727495471
 Cl,0,48.3646616098,35.3086692819,33.9467027306
 Cl,0,51.1807155276,34.5987039058,34.3356813677
 Cl,0,51.5053407203,35.2669657536,29.543493745
 H,0,49.4160032496,36.0093712361,31.4105404274
 H,0,49.8669855645,34.3408337108,31.747912896
 H,0,52.2873551546,34.991053278,31.7598694182
 H,0,51.8333200332,36.6711087043,31.4200324709
 Recover connectivity data from disk.
 NAtoms=     11 NQM=       11 NQMF=       0 NMMI=      0 NMMIF=      0
                NMic=       0 NMicF=      0.
                    Isotopes and Nuclear Properties:
 (Nuclear quadrupole moments (NQMom) in fm**2, nuclear magnetic moments (NMagM)
  in nuclear magnetons)

  Atom         1           2           3           4           5           6           7           8           9          10
 IAtWgt=          12          12          12          35          35          35          35           1           1           1
 AtmWgt=  12.0000000  12.0000000  12.0000000  34.9688527  34.9688527  34.9688527  34.9688527   1.0078250   1.0078250   1.0078250
 NucSpn=           0           0           0           3           3           3           3           1           1           1
 AtZEff=  -3.6000000  -3.6000000  -3.6000000 -14.2400000 -14.2400000 -14.2400000 -14.2400000  -1.0000000  -1.0000000  -1.0000000
 NQMom=    0.0000000   0.0000000   0.0000000  -8.1650000  -8.1650000  -8.1650000  -8.1650000   0.0000000   0.0000000   0.0000000
 NMagM=    0.0000000   0.0000000   0.0000000   0.8218740   0.8218740   0.8218740   0.8218740   2.7928460   2.7928460   2.7928460
 AtZNuc=   6.0000000   6.0000000   6.0000000  17.0000000  17.0000000  17.0000000  17.0000000   1.0000000   1.0000000   1.0000000

  Atom        11
 IAtWgt=           1
 AtmWgt=   1.0078250
 NucSpn=           1
 AtZEff=  -1.0000000
 NQMom=    0.0000000
 NMagM=    2.7928460
 AtZNuc=   1.0000000
 Leave Link  101 at Thu Jun 13 12:23:07 2024, MaxMem=  1073741824 cpu:         3.0
 (Enter /apps/z_install_tree/linux-rocky8-ivybridge/gcc-12.2.0/gaussian-09-D.01-wczn3gur5lpur3omlkzwa2l5ecyxp5ef/g09/l103.exe)

 GradGradGradGradGradGradGradGradGradGradGradGradGradGradGradGradGradGrad
 Berny optimization.
 Initialization pass.
                           ----------------------------
                           !    Initial Parameters    !
                           ! (Angstroms and Degrees)  !
 --------------------------                            --------------------------
 ! Name  Definition              Value          Derivative Info.                !
 --------------------------------------------------------------------------------
 ! R1    R(1,2)                  1.5263         calculate D2E/DX2 analytically  !
 ! R2    R(1,3)                  1.5225         calculate D2E/DX2 analytically  !
 ! R3    R(1,8)                  1.0886         calculate D2E/DX2 analytically  !
 ! R4    R(1,9)                  1.0886         calculate D2E/DX2 analytically  !
 ! R5    R(2,4)                  1.8063         calculate D2E/DX2 analytically  !
 ! R6    R(2,5)                  1.8033         calculate D2E/DX2 analytically  !
 ! R7    R(2,6)                  1.8061         calculate D2E/DX2 analytically  !
 ! R8    R(3,7)                  1.8136         calculate D2E/DX2 analytically  !
 ! R9    R(3,10)                 1.0842         calculate D2E/DX2 analytically  !
 ! R10   R(3,11)                 1.0842         calculate D2E/DX2 analytically  !
 ! A1    A(2,1,3)              114.1772         calculate D2E/DX2 analytically  !
 ! A2    A(2,1,8)              107.284          calculate D2E/DX2 analytically  !
 ! A3    A(2,1,9)              107.288          calculate D2E/DX2 analytically  !
 ! A4    A(3,1,8)              109.9495         calculate D2E/DX2 analytically  !
 ! A5    A(3,1,9)              109.9519         calculate D2E/DX2 analytically  !
 ! A6    A(8,1,9)              107.967          calculate D2E/DX2 analytically  !
 ! A7    A(1,2,4)              111.0004         calculate D2E/DX2 analytically  !
 ! A8    A(1,2,5)              108.8873         calculate D2E/DX2 analytically  !
 ! A9    A(1,2,6)              111.0059         calculate D2E/DX2 analytically  !
 ! A10   A(4,2,5)              108.5382         calculate D2E/DX2 analytically  !
 ! A11   A(4,2,6)              108.8001         calculate D2E/DX2 analytically  !
 ! A12   A(5,2,6)              108.5429         calculate D2E/DX2 analytically  !
 ! A13   A(1,3,7)              109.2437         calculate D2E/DX2 analytically  !
 ! A14   A(1,3,10)             112.0107         calculate D2E/DX2 analytically  !
 ! A15   A(1,3,11)             112.0184         calculate D2E/DX2 analytically  !
 ! A16   A(7,3,10)             106.7836         calculate D2E/DX2 analytically  !
 ! A17   A(7,3,11)             106.7917         calculate D2E/DX2 analytically  !
 ! A18   A(10,3,11)            109.7214         calculate D2E/DX2 analytically  !
 ! D1    D(3,1,2,4)             60.5763         calculate D2E/DX2 analytically  !
 ! D2    D(3,1,2,5)           -179.9995         calculate D2E/DX2 analytically  !
 ! D3    D(3,1,2,6)            -60.5662         calculate D2E/DX2 analytically  !
 ! D4    D(8,1,2,4)            -61.5221         calculate D2E/DX2 analytically  !
 ! D5    D(8,1,2,5)             57.902          calculate D2E/DX2 analytically  !
 ! D6    D(8,1,2,6)            177.3353         calculate D2E/DX2 analytically  !
 ! D7    D(9,1,2,4)           -177.3193         calculate D2E/DX2 analytically  !
 ! D8    D(9,1,2,5)            -57.8951         calculate D2E/DX2 analytically  !
 ! D9    D(9,1,2,6)             61.5382         calculate D2E/DX2 analytically  !
 ! D10   D(2,1,3,7)            179.9927         calculate D2E/DX2 analytically  !
 ! D11   D(2,1,3,10)            61.8929         calculate D2E/DX2 analytically  !
 ! D12   D(2,1,3,11)           -61.8927         calculate D2E/DX2 analytically  !
 ! D13   D(8,1,3,7)            -59.3822         calculate D2E/DX2 analytically  !
 ! D14   D(8,1,3,10)          -177.482          calculate D2E/DX2 analytically  !
 ! D15   D(8,1,3,11)            58.7324         calculate D2E/DX2 analytically  !
 ! D16   D(9,1,3,7)             59.3607         calculate D2E/DX2 analytically  !
 ! D17   D(9,1,3,10)           -58.7391         calculate D2E/DX2 analytically  !
 ! D18   D(9,1,3,11)           177.4753         calculate D2E/DX2 analytically  !
 --------------------------------------------------------------------------------
 Trust Radius=3.00D-01 FncErr=1.00D-07 GrdErr=1.00D-07
 Number of steps in this run=      2 maximum allowed number of steps=      2.
 GradGradGradGradGradGradGradGradGradGradGradGradGradGradGradGradGradGrad

 Leave Link  103 at Thu Jun 13 12:23:07 2024, MaxMem=  1073741824 cpu:         0.3
 (Enter /apps/z_install_tree/linux-rocky8-ivybridge/gcc-12.2.0/gaussian-09-D.01-wczn3gur5lpur3omlkzwa2l5ecyxp5ef/g09/l202.exe)
                          Input orientation:                          
 ---------------------------------------------------------------------
 Center     Atomic      Atomic             Coordinates (Angstroms)
 Number     Number       Type             X           Y           Z
 ---------------------------------------------------------------------
      1          6           0       50.152323   35.379328   31.906486
      2          6           0       50.049309   35.654381   33.404226
      3          6           0       51.533731   35.634009   31.319305
      4         17           0       50.428255   37.381576   33.772750
      5         17           0       48.364662   35.308669   33.946703
      6         17           0       51.180716   34.598704   34.335681
      7         17           0       51.505341   35.266966   29.543494
      8          1           0       49.416003   36.009371   31.410540
      9          1           0       49.866986   34.340834   31.747913
     10          1           0       52.287355   34.991053   31.759869
     11          1           0       51.833320   36.671109   31.420032
 ---------------------------------------------------------------------
                    Distance matrix (angstroms):
                    1          2          3          4          5
     1  C    0.000000
     2  C    1.526267   0.000000
     3  C    1.522476   2.559457   0.000000
     4  Cl   2.751014   1.806270   3.208654   0.000000
     5  Cl   2.713523   1.803284   4.129415   2.930123   0.000000
     6  Cl   2.750992   1.806141   3.208583   2.937255   2.930105
     7  Cl   2.725255   4.144318   1.813569   4.849566   5.408683
     8  H    1.088615   2.121763   2.152671   2.913354   2.833447
     9  H    1.088592   2.121797   2.152684   3.696093   2.833436
    10  H    2.174998   2.855305   1.084176   3.636281   4.502293
    11  H    2.175106   2.855425   1.084194   2.830945   4.502432
                    6          7          8          9         10
     6  Cl   0.000000
     7  Cl   4.849435   0.000000
     8  H    3.696030   2.898683   0.000000
     9  H    2.913577   2.898515   1.761029   0.000000
    10  H    2.830794   2.366431   3.066539   2.506216   0.000000
    11  H    3.636174   2.366556   2.506274   3.066620   1.773196
                   11
    11  H    0.000000
 Symmetry turned off by external request.
 Stoichiometry    C3H4Cl4
 Framework group  C1[X(C3H4Cl4)]
 Deg. of freedom    27
 Full point group                 C1      NOp   1
 Rotational constants (GHZ):      1.6536250      0.6208156      0.6190149
 Leave Link  202 at Thu Jun 13 12:23:07 2024, MaxMem=  1073741824 cpu:         0.1
 (Enter /apps/z_install_tree/linux-rocky8-ivybridge/gcc-12.2.0/gaussian-09-D.01-wczn3gur5lpur3omlkzwa2l5ecyxp5ef/g09/l301.exe)
 Basis read from chk: "tetrachloropropane.chk" (5D, 7F)
 No pseudopotential information found on chk file.
   257 basis functions,   406 primitive gaussians,   271 cartesian basis functions
    45 alpha electrons       45 beta electrons
       nuclear repulsion energy       609.0228188101 Hartrees.
 IExCor=  402 DFT=T Ex+Corr=B3LYP ExCW=0 ScaHFX=  0.200000
 ScaDFX=  0.800000  0.720000  1.000000  0.810000 ScalE2=  1.000000  1.000000
 IRadAn=      5 IRanWt=     -1 IRanGd=            0 ICorTp=0 IEmpDi=131
 NAtoms=   11 NActive=   11 NUniq=   11 SFac= 1.00D+00 NAtFMM=   60 NAOKFM=F Big=F
 Integral buffers will be    131072 words long.
 Raffenetti 2 integral format.
 Two-electron integral symmetry is turned off.
 R6Disp:  Grimme-D3 Dispersion energy=       -0.0128130190 Hartrees.
 Nuclear repulsion after empirical dispersion term =      609.0100057911 Hartrees.
 No density basis found on file 20724.
 Leave Link  301 at Thu Jun 13 12:23:07 2024, MaxMem=  1073741824 cpu:         0.7
 (Enter /apps/z_install_tree/linux-rocky8-ivybridge/gcc-12.2.0/gaussian-09-D.01-wczn3gur5lpur3omlkzwa2l5ecyxp5ef/g09/l302.exe)
 NPDir=0 NMtPBC=     1 NCelOv=     1 NCel=       1 NClECP=     1 NCelD=      1
         NCelK=      1 NCelE2=     1 NClLst=     1 CellRange=     0.0.
 One-electron integrals computed using PRISM.
 NBasis=   257 RedAO= T EigKep=  1.04D-05  NBF=   257
 NBsUse=   257 1.00D-06 EigRej= -1.00D+00 NBFU=   257
 Precomputing XC quadrature grid using
 IXCGrd= 4 IRadAn=           5 IRanWt=          -1 IRanGd=           0 AccXCQ= 0.00D+00.
 Generated NRdTot=       0 NPtTot=           0 NUsed=           0 NTot=          32
 NSgBfM=   270   270   270   270   270 MxSgAt=    11 MxSgA2=    11.
 Leave Link  302 at Thu Jun 13 12:23:07 2024, MaxMem=  1073741824 cpu:         4.7
 (Enter /apps/z_install_tree/linux-rocky8-ivybridge/gcc-12.2.0/gaussian-09-D.01-wczn3gur5lpur3omlkzwa2l5ecyxp5ef/g09/l303.exe)
 DipDrv:  MaxL=1.
 Leave Link  303 at Thu Jun 13 12:23:08 2024, MaxMem=  1073741824 cpu:         2.1
 (Enter /apps/z_install_tree/linux-rocky8-ivybridge/gcc-12.2.0/gaussian-09-D.01-wczn3gur5lpur3omlkzwa2l5ecyxp5ef/g09/l401.exe)
 Initial guess from the checkpoint file:  "tetrachloropropane.chk"
 B after Tr=     0.000000    0.000000    0.000000
         Rot=    1.000000    0.000000    0.000000    0.000000 Ang=   0.00 deg.
 Guess basis will be translated and rotated to current coordinates.
 JPrj=2 DoOrth=T DoCkMO=T.
 Leave Link  401 at Thu Jun 13 12:23:08 2024, MaxMem=  1073741824 cpu:         7.4
 (Enter /apps/z_install_tree/linux-rocky8-ivybridge/gcc-12.2.0/gaussian-09-D.01-wczn3gur5lpur3omlkzwa2l5ecyxp5ef/g09/l502.exe)
 Closed shell SCF:
 Using DIIS extrapolation, IDIIS=  1040.
 Two-electron integral symmetry not used.
 Keep R1 ints in memory in canonical form, NReq=559877582.
 IVT=      238613 IEndB=      238613 NGot=  1073741824 MDV=   523925931
 LenX=   523925931 LenY=   523852049
 Requested convergence on RMS density matrix=1.00D-08 within  96 cycles.
 Requested convergence on MAX density matrix=1.00D-06.
 Requested convergence on             energy=1.00D-06.
 No special actions if energy rises.
 FoFCou: FMM=F IPFlag=           0 FMFlag=           0 FMFlg1=           0
         NFxFlg=           0 DoJE=F BraDBF=F KetDBF=F FulRan=T
         wScrn=  0.000000 ICntrl=     600 IOpCl=  0 I1Cent=           0 NGrid=           0
         NMat0=    1 NMatS0=  33153 NMatT0=    0 NMatD0=    1 NMtDS0=    0 NMtDT0=    0
 Symmetry not used in FoFCou.

 Cycle   1  Pass 1  IDiag  1:
 E= -1957.67784502038    
 DIIS: error= 5.03D-09 at cycle   1 NSaved=   1.
 NSaved= 1 IEnMin= 1 EnMin= -1957.67784502038     IErMin= 1 ErrMin= 5.03D-09
 ErrMax= 5.03D-09  0.00D+00 EMaxC= 1.00D-01 BMatC= 1.23D-14 BMatP= 1.23D-14
 IDIUse=1 WtCom= 1.00D+00 WtEn= 0.00D+00
 Coeff-Com:  0.100D+01
 Coeff:      0.100D+01
 Gap=     0.249 Goal=   None    Shift=    0.000
 RMSDP=2.85D-09 MaxDP=1.58D-07              OVMax= 7.38D-08

 SCF Done:  E(RB3LYP) =  -1957.67784502     A.U. after    1 cycles
            NFock=  1  Conv=0.29D-08     -V/T= 2.0025
 KE= 1.952774962668D+03 PE=-5.863857080245D+03 EE= 1.344394266766D+03
 Leave Link  502 at Thu Jun 13 12:23:10 2024, MaxMem=  1073741824 cpu:        34.9
 (Enter /apps/z_install_tree/linux-rocky8-ivybridge/gcc-12.2.0/gaussian-09-D.01-wczn3gur5lpur3omlkzwa2l5ecyxp5ef/g09/l508.exe)
 QCSCF skips out because SCF is already converged.
 Leave Link  508 at Thu Jun 13 12:23:11 2024, MaxMem=  1073741824 cpu:         0.0
 (Enter /apps/z_install_tree/linux-rocky8-ivybridge/gcc-12.2.0/gaussian-09-D.01-wczn3gur5lpur3omlkzwa2l5ecyxp5ef/g09/l801.exe)
 DoSCS=F DFT=T ScalE2(SS,OS)=  1.000000  1.000000
 Range of M.O.s used for correlation:     1   257
 NBasis=   257 NAE=    45 NBE=    45 NFC=     0 NFV=     0
 NROrb=    257 NOA=    45 NOB=    45 NVA=   212 NVB=   212

 **** Warning!!: The largest alpha MO coefficient is  0.13303080D+03

 Leave Link  801 at Thu Jun 13 12:23:11 2024, MaxMem=  1073741824 cpu:         0.2
 (Enter /apps/z_install_tree/linux-rocky8-ivybridge/gcc-12.2.0/gaussian-09-D.01-wczn3gur5lpur3omlkzwa2l5ecyxp5ef/g09/l1101.exe)
 Using compressed storage, NAtomX=    11.
 Will process     12 centers per pass.
 R6Disp: Adding Grimme-D3 dispersion energy 1st derivatives to the gradient.
 Leave Link 1101 at Thu Jun 13 12:23:11 2024, MaxMem=  1073741824 cpu:         7.2
 (Enter /apps/z_install_tree/linux-rocky8-ivybridge/gcc-12.2.0/gaussian-09-D.01-wczn3gur5lpur3omlkzwa2l5ecyxp5ef/g09/l1102.exe)
 Symmetrizing basis deriv contribution to polar:
 IMax=3 JMax=2 DiffMx= 0.00D+00
 Leave Link 1102 at Thu Jun 13 12:23:12 2024, MaxMem=  1073741824 cpu:         1.4
 (Enter /apps/z_install_tree/linux-rocky8-ivybridge/gcc-12.2.0/gaussian-09-D.01-wczn3gur5lpur3omlkzwa2l5ecyxp5ef/g09/l1110.exe)
 Forming Gx(P) for the SCF density, NAtomX=    11.
 Integral derivatives from FoFJK, PRISM(SPDF).
 Do as many integral derivatives as possible in FoFJK.
 G2DrvN: MDV=    1073741632.
 G2DrvN: will do    12 centers at a time, making    1 passes.
 Calling FoFCou, ICntrl=  3107 FMM=F I1Cent=   0 AccDes= 0.00D+00.
 FoFJK:  IHMeth= 1 ICntrl=    3107 DoSepK=F KAlg= 0 I1Cent=   0 FoldK=F
 IRaf=         0 NMat=   1 IRICut=       1 DoRegI=T DoRafI=F ISym2E= 0.
 FoFCou: FMM=F IPFlag=           0 FMFlag=      100000 FMFlg1=           0
         NFxFlg=           0 DoJE=F BraDBF=F KetDBF=F FulRan=T
         wScrn=  0.000000 ICntrl=    3107 IOpCl=  0 I1Cent=           0 NGrid=           0
         NMat0=    1 NMatS0=      1 NMatT0=    0 NMatD0=    1 NMtDS0=    0 NMtDT0=    0
 Symmetry not used in FoFCou.
 End of G2Drv F.D. properties file   721 does not exist.
 End of G2Drv F.D. properties file   722 does not exist.
 End of G2Drv F.D. properties file   788 does not exist.
 Leave Link 1110 at Thu Jun 13 12:23:31 2024, MaxMem=  1073741824 cpu:       382.4
 (Enter /apps/z_install_tree/linux-rocky8-ivybridge/gcc-12.2.0/gaussian-09-D.01-wczn3gur5lpur3omlkzwa2l5ecyxp5ef/g09/l1002.exe)
 Minotr:  Closed shell wavefunction.
          IDoAtm=11111111111
          Direct CPHF calculation.
          Differentiating once with respect to electric field.
                with respect to dipole field.
          Differentiating once with respect to nuclear coordinates.
          Requested convergence is 1.0D-08 RMS, and 1.0D-07 maximum.
          Secondary convergence is 1.0D-12 RMS, and 1.0D-12 maximum.
          NewPWx=T KeepS1=F KeepF1=F KeepIn=T MapXYZ=F SortEE=F KeepMc=T.
          MDV=    1073741453 using IRadAn=       1.
 Generate precomputed XC quadrature information.
 Keep R1 ints in memory in canonical form, NReq=559644376.
 FoFCou: FMM=F IPFlag=           0 FMFlag=           0 FMFlg1=           0
         NFxFlg=           0 DoJE=F BraDBF=F KetDBF=F FulRan=T
         wScrn=  0.000000 ICntrl=     600 IOpCl=  0 I1Cent=           0 NGrid=           0
         NMat0=    1 NMatS0=  33153 NMatT0=    0 NMatD0=    1 NMtDS0=    0 NMtDT0=    0
 Symmetry not used in FoFCou.
          Solving linear equations simultaneously, MaxMat=       0.
          There are    36 degrees of freedom in the 1st order CPHF.  IDoFFX=6 NUNeed=     3.
     33 vectors produced by pass  0 Test12= 2.65D-14 2.78D-09 XBig12= 7.47D+01 2.47D+00.
 AX will form    33 AO Fock derivatives at one time.
     33 vectors produced by pass  1 Test12= 2.65D-14 2.78D-09 XBig12= 1.28D+01 6.56D-01.
     33 vectors produced by pass  2 Test12= 2.65D-14 2.78D-09 XBig12= 4.36D-01 1.18D-01.
     33 vectors produced by pass  3 Test12= 2.65D-14 2.78D-09 XBig12= 4.42D-03 1.49D-02.
     33 vectors produced by pass  4 Test12= 2.65D-14 2.78D-09 XBig12= 1.47D-05 6.00D-04.
     32 vectors produced by pass  5 Test12= 2.65D-14 2.78D-09 XBig12= 3.34D-08 2.61D-05.
     18 vectors produced by pass  6 Test12= 2.65D-14 2.78D-09 XBig12= 6.70D-11 1.45D-06.
      3 vectors produced by pass  7 Test12= 2.65D-14 2.78D-09 XBig12= 1.08D-13 4.38D-08.
      1 vectors produced by pass  8 Test12= 2.65D-14 2.78D-09 XBig12= 2.14D-16 2.84D-09.
 InvSVY:  IOpt=1 It=  1 EMax= 1.07D-14
 Solved reduced A of dimension   219 with    36 vectors.
 FullF1:  Do perturbations    1 to     3.
 Isotropic polarizability for W=    0.000000       91.87 Bohr**3.
 End of Minotr F.D. properties file   721 does not exist.
 End of Minotr F.D. properties file   722 does not exist.
 End of Minotr F.D. properties file   788 does not exist.
 Leave Link 1002 at Thu Jun 13 12:23:58 2024, MaxMem=  1073741824 cpu:       515.4
 (Enter /apps/z_install_tree/linux-rocky8-ivybridge/gcc-12.2.0/gaussian-09-D.01-wczn3gur5lpur3omlkzwa2l5ecyxp5ef/g09/l601.exe)
 Copying SCF densities to generalized density rwf, IOpCl= 0 IROHF=0.

 **********************************************************************

            Population analysis using the SCF density.

 **********************************************************************

 Alpha  occ. eigenvalues -- -101.58232-101.58231-101.58081-101.55533 -10.37738
 Alpha  occ. eigenvalues --  -10.25159 -10.22554  -9.49672  -9.49670  -9.49515
 Alpha  occ. eigenvalues --   -9.46933  -7.26180  -7.26178  -7.26033  -7.25118
 Alpha  occ. eigenvalues --   -7.25116  -7.25110  -7.25108  -7.24956  -7.24949
 Alpha  occ. eigenvalues --   -7.23398  -7.22413  -7.22400  -0.96010  -0.87655
 Alpha  occ. eigenvalues --   -0.85203  -0.85086  -0.78681  -0.67626  -0.61017
 Alpha  occ. eigenvalues --   -0.52758  -0.50456  -0.49665  -0.47806  -0.42981
 Alpha  occ. eigenvalues --   -0.41702  -0.40477  -0.36781  -0.36676  -0.34887
 Alpha  occ. eigenvalues --   -0.33517  -0.33431  -0.32158  -0.31498  -0.31310
 Alpha virt. eigenvalues --   -0.06432  -0.03180  -0.02299  -0.00462   0.00463
 Alpha virt. eigenvalues --    0.01827   0.02590   0.03080   0.05229   0.06026
 Alpha virt. eigenvalues --    0.06282   0.06821   0.06914   0.08934   0.09262
 Alpha virt. eigenvalues --    0.09776   0.09809   0.10346   0.10509   0.10872
 Alpha virt. eigenvalues --    0.11251   0.12165   0.12827   0.13179   0.14246
 Alpha virt. eigenvalues --    0.15551   0.16158   0.16552   0.17574   0.17953
 Alpha virt. eigenvalues --    0.19912   0.20360   0.21027   0.21969   0.22571
 Alpha virt. eigenvalues --    0.23883   0.26382   0.29994   0.31916   0.34038
 Alpha virt. eigenvalues --    0.35264   0.35663   0.36695   0.37185   0.37769
 Alpha virt. eigenvalues --    0.40386   0.40587   0.40662   0.41272   0.42655
 Alpha virt. eigenvalues --    0.42851   0.43521   0.43550   0.43625   0.43871
 Alpha virt. eigenvalues --    0.44417   0.44829   0.45856   0.46485   0.47491
 Alpha virt. eigenvalues --    0.48176   0.48804   0.49167   0.49723   0.50395
 Alpha virt. eigenvalues --    0.51165   0.51763   0.55062   0.57263   0.58682
 Alpha virt. eigenvalues --    0.59780   0.63661   0.64124   0.65600   0.67250
 Alpha virt. eigenvalues --    0.67701   0.67944   0.70084   0.71756   0.75350
 Alpha virt. eigenvalues --    0.77607   0.79261   0.79282   0.82976   0.86458
 Alpha virt. eigenvalues --    0.90479   0.94768   0.96092   0.98310   1.01259
 Alpha virt. eigenvalues --    1.03867   1.06007   1.07135   1.07820   1.08833
 Alpha virt. eigenvalues --    1.12057   1.13437   1.15535   1.17543   1.19163
 Alpha virt. eigenvalues --    1.21378   1.22974   1.28752   1.30387   1.31428
 Alpha virt. eigenvalues --    1.33110   1.34543   1.36996   1.39773   1.39858
 Alpha virt. eigenvalues --    1.45825   1.49372   1.49536   1.53488   1.56192
 Alpha virt. eigenvalues --    1.60037   1.63025   2.23194   2.23547   2.24196
 Alpha virt. eigenvalues --    2.26664   2.29456   2.30057   2.30165   2.30470
 Alpha virt. eigenvalues --    2.34483   2.35054   2.35815   2.36872   2.37041
 Alpha virt. eigenvalues --    2.38251   2.38522   2.40977   2.41116   2.42394
 Alpha virt. eigenvalues --    2.44805   2.45086   2.46555   2.48245   2.51744
 Alpha virt. eigenvalues --    2.54440   2.56617   2.56656   2.57048   2.60385
 Alpha virt. eigenvalues --    2.66059   2.69240   2.74235   2.78740   2.80333
 Alpha virt. eigenvalues --    2.82977   2.88556   2.91881   3.00985   3.10853
 Alpha virt. eigenvalues --    3.20560   3.21902   3.23373   3.26116   3.30782
 Alpha virt. eigenvalues --    3.34515   3.39824   3.40713   3.45693   3.47792
 Alpha virt. eigenvalues --    3.50232   3.50511   3.54839   3.56769   3.60637
 Alpha virt. eigenvalues --    3.61944   3.65020   3.67113   3.73228   3.75063
 Alpha virt. eigenvalues --    3.86905   3.92070   3.96848   4.02542   4.05673
 Alpha virt. eigenvalues --    4.10237   4.16013   4.19283   4.24224   4.32984
 Alpha virt. eigenvalues --    4.60831   4.81306   5.04003   5.08288   9.78345
 Alpha virt. eigenvalues --    9.78758   9.79274   9.82127  23.42483  23.83184
 Alpha virt. eigenvalues --   23.88405  25.85220  25.89844  25.91869  25.94068
 Alpha virt. eigenvalues --   25.98138  26.07477  26.09507  26.12534  27.14872
 Alpha virt. eigenvalues --   27.27250  27.39248  27.42296 215.78361 215.78514
 Alpha virt. eigenvalues --  215.79506 215.84415
          Condensed to atoms (all electrons):
               1          2          3          4          5          6
     1  C    9.384878  -4.258461  -1.303369   0.568930   0.714105   0.568880
     2  C   -4.258461  10.900421   1.136854  -1.156017  -0.918082  -1.155752
     3  C   -1.303369   1.136854   5.769789   0.004611  -0.135449   0.004621
     4  Cl   0.568930  -1.156017   0.004611  17.497715   0.219479   0.319326
     5  Cl   0.714105  -0.918082  -0.135449   0.219479  17.169805   0.219449
     6  Cl   0.568880  -1.155752   0.004621   0.319326   0.219449  17.497421
     7  Cl   0.181779  -0.213458   0.163282   0.014787   0.005031   0.014785
     8  H    0.444835  -0.046338  -0.026398  -0.003171  -0.001062   0.015415
     9  H    0.444830  -0.046315  -0.026393   0.015407  -0.001061  -0.003171
    10  H   -0.052413  -0.005209   0.445097  -0.003021  -0.000848   0.000151
    11  H   -0.052422  -0.005192   0.445114   0.000148  -0.000847  -0.003021
               7          8          9         10         11
     1  C    0.181779   0.444835   0.444830  -0.052413  -0.052422
     2  C   -0.213458  -0.046338  -0.046315  -0.005209  -0.005192
     3  C    0.163282  -0.026398  -0.026393   0.445097   0.445114
     4  Cl   0.014787  -0.003171   0.015407  -0.003021   0.000148
     5  Cl   0.005031  -0.001062  -0.001061  -0.000848  -0.000847
     6  Cl   0.014785   0.015415  -0.003171   0.000151  -0.003021
     7  Cl  16.907245  -0.003836  -0.003843  -0.036453  -0.036433
     8  H   -0.003836   0.500378  -0.023069   0.003922  -0.004784
     9  H   -0.003843  -0.023069   0.500375  -0.004784   0.003921
    10  H   -0.036453   0.003922  -0.004784   0.548727  -0.036814
    11  H   -0.036433  -0.004784   0.003921  -0.036814   0.548703
 Mulliken charges:
               1
     1  C   -0.641571
     2  C    1.767548
     3  C   -0.477759
     4  Cl  -0.478194
     5  Cl  -0.270519
     6  Cl  -0.478104
     7  Cl   0.007115
     8  H    0.144108
     9  H    0.144104
    10  H    0.141644
    11  H    0.141628
 Sum of Mulliken charges =   0.00000
 Mulliken charges with hydrogens summed into heavy atoms:
               1
     1  C   -0.353359
     2  C    1.767548
     3  C   -0.194487
     4  Cl  -0.478194
     5  Cl  -0.270519
     6  Cl  -0.478104
     7  Cl   0.007115
 APT charges:
               1
     1  C   -0.100748
     2  C    1.067145
     3  C    0.350383
     4  Cl  -0.348209
     5  Cl  -0.361102
     6  Cl  -0.348164
     7  Cl  -0.315229
     8  H    0.023170
     9  H    0.023171
    10  H    0.004790
    11  H    0.004791
 Sum of APT charges =   0.00000
 APT charges with hydrogens summed into heavy atoms:
               1
     1  C   -0.054406
     2  C    1.067145
     3  C    0.359964
     4  Cl  -0.348209
     5  Cl  -0.361102
     6  Cl  -0.348164
     7  Cl  -0.315229
 Electronic spatial extent (au):  <R**2>=        1570748.6564
 Charge=              0.0000 electrons
 Dipole moment (field-independent basis, Debye):
    X=              0.0887    Y=              0.0548    Z=              0.1542  Tot=              0.1861
 Quadrupole moment (field-independent basis, Debye-Ang):
   XX=            -60.2082   YY=            -65.3318   ZZ=            -67.0480
   XY=              6.4124   XZ=             13.0841   YZ=              6.3225
 Traceless Quadrupole moment (field-independent basis, Debye-Ang):
   XX=              3.9878   YY=             -1.1358   ZZ=             -2.8520
   XY=              6.4124   XZ=             13.0841   YZ=              6.3225
 Octapole moment (field-independent basis, Debye-Ang**2):
  XXX=          -9788.9806  YYY=          -7184.8039  ZZZ=          -7053.0939  XYY=          -3145.1599
  XXY=          -1957.0522  XXZ=          -1328.8846  XZZ=          -3136.3254  YZZ=          -2391.5408
  YYZ=          -2006.7527  XYZ=            522.3326
 Hexadecapole moment (field-independent basis, Debye-Ang**3):
 XXXX=       -1011001.2415 YYYY=        -516845.6974 ZZZZ=        -472224.3063 XXXY=        -338086.3471
 XXXZ=        -281000.8944 YYYX=        -356218.2541 YYYZ=        -231409.1739 ZZZX=        -345352.3467
 ZZZY=        -252342.0313 XXYY=        -239072.8361 XXZZ=        -219773.1038 YYZZ=        -159475.3152
 XXYZ=         -43831.6673 YYXZ=         -93296.8327 ZZXY=        -111458.1643
 N-N= 6.090100057911D+02 E-N=-5.863857080913D+03  KE= 1.952774962668D+03
  Exact polarizability:  89.879  -0.296  85.695  -7.216   0.976 100.029
 Approx polarizability: 140.503   0.075 139.593  -0.776  -0.386 138.761
 No NMR shielding tensors so no spin-rotation constants.
 Leave Link  601 at Thu Jun 13 12:23:58 2024, MaxMem=  1073741824 cpu:         6.1
 (Enter /apps/z_install_tree/linux-rocky8-ivybridge/gcc-12.2.0/gaussian-09-D.01-wczn3gur5lpur3omlkzwa2l5ecyxp5ef/g09/l701.exe)
 Compute integral second derivatives.
 ... and contract with generalized density number  0.
 R6Disp: Adding Grimme-D3 dispersion energy 2nd derivatives to the Hessian.
 Leave Link  701 at Thu Jun 13 12:23:59 2024, MaxMem=  1073741824 cpu:         2.8
 (Enter /apps/z_install_tree/linux-rocky8-ivybridge/gcc-12.2.0/gaussian-09-D.01-wczn3gur5lpur3omlkzwa2l5ecyxp5ef/g09/l702.exe)
 L702 exits ... SP integral derivatives will be done elsewhere.
 Leave Link  702 at Thu Jun 13 12:23:59 2024, MaxMem=  1073741824 cpu:         0.2
 (Enter /apps/z_install_tree/linux-rocky8-ivybridge/gcc-12.2.0/gaussian-09-D.01-wczn3gur5lpur3omlkzwa2l5ecyxp5ef/g09/l703.exe)
 Compute integral second derivatives, UseDBF=F ICtDFT=           0.
 Integral derivatives from FoFJK, PRISM(SPDF).
 Calling FoFJK, ICntrl=    100127 FMM=F ISym2X=0 I1Cent= 0 IOpClX= 0 NMat=1 NMatS=1 NMatT=0.
 FoFJK:  IHMeth= 1 ICntrl=  100127 DoSepK=F KAlg= 0 I1Cent=   0 FoldK=F
 IRaf=         0 NMat=   1 IRICut=       1 DoRegI=T DoRafI=F ISym2E= 0.
 FoFCou: FMM=F IPFlag=           0 FMFlag=      100000 FMFlg1=         800
         NFxFlg=           0 DoJE=F BraDBF=F KetDBF=F FulRan=T
         wScrn=  0.000000 ICntrl=  100127 IOpCl=  0 I1Cent=           0 NGrid=           0
         NMat0=    1 NMatS0=      1 NMatT0=    0 NMatD0=    1 NMtDS0=    0 NMtDT0=    0
 Symmetry not used in FoFCou.
 Leave Link  703 at Thu Jun 13 12:24:24 2024, MaxMem=  1073741824 cpu:       506.5
 (Enter /apps/z_install_tree/linux-rocky8-ivybridge/gcc-12.2.0/gaussian-09-D.01-wczn3gur5lpur3omlkzwa2l5ecyxp5ef/g09/l716.exe)
 Dipole        = 3.48911168D-02 2.15479148D-02 6.06701037D-02
 Polarizability= 8.98785204D+01-2.95547181D-01 8.56949366D+01
                -7.21559661D+00 9.76391671D-01 1.00029481D+02
 Full mass-weighted force constant matrix:
 Low frequencies ---   -4.8211   -3.5596   -0.0022   -0.0017    0.0021    1.7887
 Low frequencies ---   66.9774  127.0079  129.8290
 Diagonal vibrational polarizability:
       13.9088368      27.8230629       5.8973515
 Harmonic frequencies (cm**-1), IR intensities (KM/Mole), Raman scattering
 activities (A**4/AMU), depolarization ratios for plane and unpolarized
 incident light, reduced masses (AMU), force constants (mDyne/A),
 and normal coordinates:
                      1                      2                      3
                      A                      A                      A
 Frequencies --     66.9769               127.0078               129.8290
 Red. masses --      5.0986                17.9707                 2.9440
 Frc consts  --      0.0135                 0.1708                 0.0292
 IR Inten    --      3.4001                 1.6086                 0.2679
  Atom  AN      X      Y      Z        X      Y      Z        X      Y      Z
     1   6    -0.04   0.16  -0.03    -0.28  -0.08  -0.06     0.03  -0.13   0.03
     2   6    -0.01   0.05  -0.01    -0.15  -0.05  -0.05     0.01  -0.06   0.01
     3   6    -0.08   0.31  -0.06    -0.20  -0.04   0.10    -0.06   0.23  -0.05
     4  17    -0.01   0.02   0.13    -0.04  -0.02  -0.26     0.06  -0.05  -0.09
     5  17     0.00  -0.01   0.00    -0.01   0.08   0.43    -0.01   0.02   0.00
     6  17     0.02  -0.03  -0.13    -0.02  -0.10  -0.25    -0.04  -0.03   0.11
     7  17     0.05  -0.19   0.04     0.31   0.10   0.08    -0.01   0.03  -0.01
     8   1    -0.12   0.11   0.02    -0.26  -0.06  -0.06    -0.15  -0.35   0.01
     9   1     0.05   0.14  -0.07    -0.27  -0.09  -0.06     0.30  -0.21   0.10
    10   1     0.05   0.59   0.13    -0.26  -0.03   0.22     0.16   0.52   0.01
    11   1    -0.32   0.40  -0.33    -0.24  -0.04   0.23    -0.39   0.33  -0.18
                      4                      5                      6
                      A                      A                      A
 Frequencies --    223.1871               239.8852               247.0312
 Red. masses --     19.7898                 9.2062                14.4355
 Frc consts  --      0.5808                 0.3121                 0.5190
 IR Inten    --      0.0477                 0.0572                 0.7397
  Atom  AN      X      Y      Z        X      Y      Z        X      Y      Z
     1   6    -0.09  -0.05  -0.12    -0.08   0.29  -0.06    -0.30  -0.08  -0.02
     2   6    -0.01   0.00   0.00    -0.02   0.08  -0.02    -0.14  -0.04  -0.02
     3   6    -0.12  -0.10  -0.35    -0.01   0.05  -0.01    -0.29  -0.07   0.05
     4  17    -0.06  -0.06   0.26     0.19   0.10  -0.11     0.29  -0.19   0.07
     5  17     0.00   0.04   0.20     0.08  -0.29   0.06    -0.22  -0.08  -0.11
     6  17    -0.11   0.11   0.22    -0.22   0.03   0.08     0.15   0.32  -0.03
     7  17     0.25  -0.03  -0.50     0.00  -0.01   0.00     0.06   0.03   0.07
     8   1    -0.15  -0.05  -0.02     0.06   0.55   0.06    -0.31  -0.08   0.01
     9   1    -0.15  -0.04  -0.02    -0.31   0.38  -0.25    -0.31  -0.09   0.01
    10   1    -0.11  -0.09  -0.35    -0.16  -0.08   0.05    -0.33  -0.05   0.14
    11   1    -0.11  -0.10  -0.35     0.18  -0.01  -0.03    -0.32  -0.07   0.14
                      7                      8                      9
                      A                      A                      A
 Frequencies --    344.0348               351.3115               374.9996
 Red. masses --      3.8459                 7.5716                18.3338
 Frc consts  --      0.2682                 0.5506                 1.5190
 IR Inten    --      3.0084                 8.2970                 2.7015
  Atom  AN      X      Y      Z        X      Y      Z        X      Y      Z
     1   6    -0.07   0.25  -0.05    -0.27  -0.06   0.08    -0.19  -0.09  -0.21
     2   6     0.02  -0.07   0.01     0.05   0.03   0.10     0.02  -0.05  -0.26
     3   6    -0.02   0.07  -0.01    -0.36  -0.10   0.00    -0.21  -0.05   0.03
     4  17    -0.06  -0.13  -0.08    -0.01   0.20   0.01    -0.10  -0.24   0.08
     5  17    -0.02   0.06  -0.01     0.09  -0.01  -0.15     0.50   0.12  -0.09
     6  17     0.10  -0.04   0.12     0.09  -0.16   0.08    -0.21   0.17   0.00
     7  17     0.00  -0.01   0.00     0.07   0.02  -0.01    -0.03   0.02   0.17
     8   1     0.08   0.61   0.17    -0.35  -0.05   0.21    -0.20  -0.08  -0.18
     9   1    -0.35   0.38  -0.37    -0.35  -0.06   0.22    -0.19  -0.10  -0.18
    10   1    -0.14  -0.04   0.04    -0.38  -0.07   0.07    -0.26  -0.03   0.16
    11   1     0.14   0.02  -0.03    -0.37  -0.10   0.08    -0.26  -0.04   0.16
                     10                     11                     12
                      A                      A                      A
 Frequencies --    563.2724               664.9872               694.5476
 Red. masses --      7.1401                 3.9647                 8.8016
 Frc consts  --      1.3347                 1.0330                 2.5016
 IR Inten    --     29.4588               105.0872               102.6366
  Atom  AN      X      Y      Z        X      Y      Z        X      Y      Z
     1   6     0.03   0.10   0.44    -0.02   0.07  -0.01     0.07   0.01  -0.03
     2   6     0.11   0.10   0.35    -0.12   0.44  -0.09     0.54   0.14  -0.02
     3   6    -0.06   0.00   0.11     0.00   0.00   0.00    -0.13  -0.13  -0.46
     4  17    -0.03  -0.13  -0.07    -0.01  -0.08  -0.01    -0.03  -0.03  -0.01
     5  17     0.05   0.00  -0.05     0.01  -0.02   0.00    -0.10  -0.02   0.03
     6  17    -0.08   0.06  -0.11     0.04  -0.06   0.04    -0.04   0.01  -0.01
     7  17     0.03  -0.01  -0.10     0.00   0.00   0.00     0.02   0.04   0.17
     8   1    -0.03   0.09   0.53    -0.19  -0.40  -0.38    -0.09   0.02   0.22
     9   1    -0.03   0.11   0.52     0.32  -0.09   0.48    -0.09   0.02   0.22
    10   1     0.00   0.00  -0.02    -0.14  -0.14   0.02    -0.12  -0.05  -0.34
    11   1     0.00  -0.01  -0.02     0.19  -0.05   0.02    -0.10  -0.14  -0.33
                     13                     14                     15
                      A                      A                      A
 Frequencies --    804.2299               812.6506              1026.4727
 Red. masses --      7.0400                 1.2569                 7.0221
 Frc consts  --      2.6828                 0.4891                 4.3593
 IR Inten    --     66.1650                32.2714                16.8768
  Atom  AN      X      Y      Z        X      Y      Z        X      Y      Z
     1   6    -0.06  -0.04  -0.13    -0.01   0.06  -0.01    -0.33  -0.15  -0.28
     2   6     0.47   0.09  -0.18     0.03  -0.10   0.02     0.09   0.12   0.46
     3   6    -0.04   0.08   0.45    -0.02   0.09  -0.02     0.30   0.07  -0.05
     4  17    -0.02  -0.01   0.01     0.00   0.01   0.00    -0.01  -0.01  -0.01
     5  17    -0.07  -0.01   0.02     0.00   0.00   0.00     0.01   0.00  -0.02
     6  17    -0.02   0.00   0.00    -0.01   0.01   0.00    -0.01   0.00  -0.01
     7  17    -0.02  -0.03  -0.11     0.00  -0.01   0.00    -0.01   0.00   0.01
     8   1    -0.04   0.01  -0.07    -0.33  -0.30   0.02    -0.28  -0.08  -0.27
     9   1    -0.02  -0.05  -0.06     0.43  -0.08   0.06    -0.26  -0.17  -0.25
    10   1    -0.11   0.02   0.47    -0.37  -0.38  -0.09     0.25   0.06   0.03
    11   1    -0.13   0.10   0.46     0.50  -0.09   0.18     0.25   0.09   0.03
                     16                     17                     18
                      A                      A                      A
 Frequencies --   1042.4952              1069.2973              1202.8141
 Red. masses --      1.5524                 3.9582                 1.1442
 Frc consts  --      0.9940                 2.6665                 0.9753
 IR Inten    --     13.8737                15.3325                17.5253
  Atom  AN      X      Y      Z        X      Y      Z        X      Y      Z
     1   6    -0.04   0.14  -0.03     0.27   0.03  -0.23     0.02  -0.09   0.02
     2   6     0.02  -0.08   0.02    -0.04   0.04   0.26    -0.02   0.06  -0.01
     3   6     0.03  -0.13   0.03    -0.25  -0.05   0.06     0.00   0.01   0.00
     4  17     0.00   0.00   0.00     0.00  -0.01  -0.01     0.00   0.00   0.00
     5  17     0.00   0.00   0.00     0.00   0.00   0.00     0.00   0.00   0.00
     6  17     0.00   0.00   0.00     0.00   0.00  -0.01     0.00   0.00   0.00
     7  17     0.00   0.02   0.00     0.00   0.00   0.00     0.00   0.01   0.00
     8   1    -0.23  -0.25  -0.22     0.38   0.04  -0.37    -0.08   0.10   0.41
     9   1     0.30  -0.01   0.27     0.38   0.02  -0.36     0.06  -0.03  -0.42
    10   1     0.10   0.25   0.49    -0.28  -0.06   0.09    -0.28   0.00   0.49
    11   1    -0.16  -0.02  -0.53    -0.28  -0.05   0.09     0.29  -0.04  -0.48
                     19                     20                     21
                      A                      A                      A
 Frequencies --   1288.5004              1334.3728              1385.4066
 Red. masses --      1.1755                 1.0993                 1.3357
 Frc consts  --      1.1498                 1.1532                 1.5105
 IR Inten    --     15.6422                 2.5349                10.9816
  Atom  AN      X      Y      Z        X      Y      Z        X      Y      Z
     1   6    -0.06  -0.01   0.04     0.01  -0.04   0.01     0.08  -0.01  -0.13
     2   6     0.03   0.01  -0.01     0.01  -0.04   0.01    -0.03  -0.01   0.01
     3   6    -0.05   0.00   0.08    -0.02   0.07  -0.01    -0.02   0.01   0.08
     4  17     0.00   0.00   0.00     0.00   0.00   0.00     0.00   0.00   0.00
     5  17     0.00   0.00   0.00     0.00   0.00   0.00     0.00   0.00   0.00
     6  17     0.00   0.00   0.00     0.00   0.00   0.00     0.00   0.00   0.00
     7  17     0.01   0.00   0.01     0.00   0.00   0.00     0.00   0.00   0.00
     8   1     0.17   0.00  -0.28     0.39   0.04  -0.45    -0.33   0.02   0.50
     9   1     0.18  -0.02  -0.28    -0.40   0.00   0.44    -0.33   0.01   0.51
    10   1     0.24  -0.08  -0.57    -0.28  -0.06   0.25     0.11  -0.09  -0.32
    11   1     0.23  -0.03  -0.58     0.29   0.00  -0.23     0.08   0.01  -0.34
                     22                     23                     24
                      A                      A                      A
 Frequencies --   1483.2802              1501.9804              3075.7925
 Red. masses --      1.0794                 1.0940                 1.0586
 Frc consts  --      1.3992                 1.4542                 5.9004
 IR Inten    --      5.3343                 4.3846                 1.2616
  Atom  AN      X      Y      Z        X      Y      Z        X      Y      Z
     1   6    -0.07  -0.02  -0.03     0.01   0.01   0.02     0.05   0.02   0.03
     2   6    -0.01   0.00  -0.01     0.00   0.00   0.00     0.00   0.00   0.00
     3   6     0.02   0.00  -0.01     0.08   0.02   0.01    -0.01   0.00   0.00
     4  17     0.00   0.00   0.00     0.00   0.00   0.00     0.00   0.00   0.00
     5  17     0.00   0.00   0.00     0.00   0.00   0.00     0.00   0.00   0.00
     6  17     0.00   0.00   0.00     0.00   0.00   0.00     0.00   0.00   0.00
     7  17     0.00   0.00   0.00     0.00   0.00   0.00     0.00   0.00   0.00
     8   1     0.32   0.58   0.20    -0.03  -0.11  -0.07    -0.47   0.42  -0.32
     9   1     0.54  -0.24   0.36    -0.07   0.05  -0.10    -0.17  -0.67  -0.10
    10   1    -0.08  -0.10  -0.01    -0.39  -0.56  -0.09     0.06  -0.05   0.03
    11   1    -0.12   0.04  -0.04    -0.60   0.23  -0.25     0.02   0.08   0.01
                     25                     26                     27
                      A                      A                      A
 Frequencies --   3111.3522              3121.6392              3172.8770
 Red. masses --      1.0560                 1.1058                 1.1113
 Frc consts  --      6.0232                 6.3488                 6.5916
 IR Inten    --      4.9310                 0.2633                 0.4527
  Atom  AN      X      Y      Z        X      Y      Z        X      Y      Z
     1   6    -0.01   0.00   0.00    -0.02   0.09  -0.02    -0.01   0.02   0.00
     2   6     0.00   0.00   0.00     0.00   0.00   0.00     0.00   0.00   0.00
     3   6    -0.06  -0.02  -0.03     0.01  -0.02   0.00    -0.02   0.09  -0.02
     4  17     0.00   0.00   0.00     0.00   0.00   0.00     0.00   0.00   0.00
     5  17     0.00   0.00   0.00     0.00   0.00   0.00     0.00   0.00   0.00
     6  17     0.00   0.00   0.00     0.00   0.00   0.00     0.00   0.00   0.00
     7  17     0.00   0.00   0.00     0.00   0.00   0.00     0.00   0.00   0.00
     8   1     0.06  -0.05   0.04     0.47  -0.39   0.32     0.10  -0.08   0.06
     9   1     0.02   0.08   0.01    -0.18  -0.66  -0.11    -0.04  -0.14  -0.02
    10   1     0.48  -0.43   0.27    -0.10   0.09  -0.06     0.48  -0.41   0.27
    11   1     0.18   0.68   0.05     0.04   0.14   0.01    -0.19  -0.66  -0.05

 -------------------
 - Thermochemistry -
 -------------------
 Temperature   298.150 Kelvin.  Pressure   1.00000 Atm.
 Atom     1 has atomic number  6 and mass  12.00000
 Atom     2 has atomic number  6 and mass  12.00000
 Atom     3 has atomic number  6 and mass  12.00000
 Atom     4 has atomic number 17 and mass  34.96885
 Atom     5 has atomic number 17 and mass  34.96885
 Atom     6 has atomic number 17 and mass  34.96885
 Atom     7 has atomic number 17 and mass  34.96885
 Atom     8 has atomic number  1 and mass   1.00783
 Atom     9 has atomic number  1 and mass   1.00783
 Atom    10 has atomic number  1 and mass   1.00783
 Atom    11 has atomic number  1 and mass   1.00783
 Molecular mass:   179.90671 amu.
 Principal axes and moments of inertia in atomic units:
                           1         2         3
     Eigenvalues --  1091.384832907.048642915.50519
           X           -0.39973  -0.25508   0.88043
           Y            0.07674   0.94782   0.30945
           Z            0.91342  -0.19126   0.35929
 This molecule is an asymmetric top.
 Rotational symmetry number  1.
 Warning -- assumption of classical behavior for rotation
           may cause significant error
 Rotational temperatures (Kelvin)      0.07936     0.02979     0.02971
 Rotational constants (GHZ):           1.65362     0.62082     0.61901
 Zero-point vibrational energy     176211.3 (Joules/Mol)
                                   42.11551 (Kcal/Mol)
 Warning -- explicit consideration of  10 degrees of freedom as
           vibrations may cause significant error
 Vibrational temperatures:     96.36   182.74   186.79   321.12   345.14
          (Kelvin)            355.42   494.99   505.46   539.54   810.42
                              956.77   999.30  1157.11  1169.22  1476.86
                             1499.92  1538.48  1730.58  1853.86  1919.86
                             1993.29  2134.11  2161.01  4425.37  4476.54
                             4491.34  4565.06
 
 Zero-point correction=                           0.067115 (Hartree/Particle)
 Thermal correction to Energy=                    0.075415
 Thermal correction to Enthalpy=                  0.076359
 Thermal correction to Gibbs Free Energy=         0.032121
 Sum of electronic and zero-point Energies=          -1957.610730
 Sum of electronic and thermal Energies=             -1957.602430
 Sum of electronic and thermal Enthalpies=           -1957.601486
 Sum of electronic and thermal Free Energies=        -1957.645724
 
                     E (Thermal)             CV                S
                      KCal/Mol        Cal/Mol-Kelvin    Cal/Mol-Kelvin
 Total                   47.323             27.683             93.105
 Electronic               0.000              0.000              0.000
 Translational            0.889              2.981             41.469
 Rotational               0.889              2.981             30.604
 Vibrational             45.546             21.722             21.033
 Vibration     1          0.598              1.970              4.240
 Vibration     2          0.611              1.926              2.991
 Vibration     3          0.612              1.923              2.949
 Vibration     4          0.649              1.806              1.933
 Vibration     5          0.657              1.779              1.804
 Vibration     6          0.661              1.768              1.752
 Vibration     7          0.723              1.587              1.193
 Vibration     8          0.728              1.573              1.160
 Vibration     9          0.746              1.523              1.059
 Vibration    10          0.919              1.111              0.517
                       Q            Log10(Q)             Ln(Q)
 Total Bot       0.167971D-14        -14.774766        -34.020155
 Total V=0       0.124763D+17         16.096084         37.062604
 Vib (Bot)       0.162663D-28        -28.788710        -66.288456
 Vib (Bot)    1  0.308055D+01          0.488628          1.125107
 Vib (Bot)    2  0.160633D+01          0.205835          0.473953
 Vib (Bot)    3  0.157033D+01          0.195990          0.451284
 Vib (Bot)    4  0.885077D+00         -0.053019         -0.122080
 Vib (Bot)    5  0.817437D+00         -0.087545         -0.201581
 Vib (Bot)    6  0.791175D+00         -0.101727         -0.234236
 Vib (Bot)    7  0.538346D+00         -0.268939         -0.619254
 Vib (Bot)    8  0.524726D+00         -0.280067         -0.644879
 Vib (Bot)    9  0.483827D+00         -0.315310         -0.726027
 Vib (Bot)   10  0.275048D+00         -0.560592         -1.290811
 Vib (V=0)       0.120820D+03          2.082140          4.794304
 Vib (V=0)    1  0.362086D+01          0.558812          1.286712
 Vib (V=0)    2  0.218235D+01          0.338924          0.780402
 Vib (V=0)    3  0.214801D+01          0.332036          0.764541
 Vib (V=0)    4  0.151654D+01          0.180855          0.416434
 Vib (V=0)    5  0.145823D+01          0.163826          0.377223
 Vib (V=0)    6  0.143593D+01          0.157132          0.361810
 Vib (V=0)    7  0.123472D+01          0.091569          0.210846
 Vib (V=0)    8  0.122480D+01          0.088066          0.202779
 Vib (V=0)    9  0.119577D+01          0.077646          0.178786
 Vib (V=0)   10  0.107066D+01          0.029651          0.068274
 Electronic      0.100000D+01          0.000000          0.000000
 Translational   0.948476D+08          7.977026         18.367782
 Rotational      0.108873D+07          6.036918         13.900518
 
                                                          tetrachloropropane
                                                             IR Spectrum
 
     3 333                                                              11   1 1 1  1    111                                         
     1 110                                                              54   3 3 2  2    000       88    66   5      333  222 11     
     7 217                                                              08   8 3 8  0    642       10    96   6      754  442 32  6  
     3 216                                                              23   5 4 9  3    926       34    55   3      514  703 07  7  
 
     X XXX                                                              XX   X X X  X    XXX       XX    XX   X      XXX  XX  XX  X  
                                                                             X   X  X    XXX       XX    XX   X       X              
                                                                                 X  X    XXX       XX    XX   X                      
                                                                                                   XX    XX   X                      
                                                                                                   XX    XX   X                      
                                                                                                   XX    XX   X                      
                                                                                                    X    XX                          
                                                                                                    X    XX                          
                                                                                                    X    XX                          
                                                                                                    X    XX                          
                                                                                                    X    XX                          
                                                                                                    X    XX                          
                                                                                                    X    XX                          
                                                                                                         XX                          
                                                                                                         XX                          
                                                                                                         XX                          
                                                                                                         XX                          
                                                                                                         XX                          
                                                                                                         XX                          
                                                                                                         XX                          
 
 -------------------------------------------------------------------
 Center     Atomic                   Forces (Hartrees/Bohr)
 Number     Number              X              Y              Z
 -------------------------------------------------------------------
      1        6           0.000075547    0.000040855   -0.000047410
      2        6          -0.000101067   -0.000006457   -0.000015275
      3        6          -0.000044577   -0.000010564    0.000072628
      4       17           0.000025114    0.000022122    0.000002579
      5       17           0.000024693    0.000007668   -0.000005181
      6       17           0.000040005   -0.000027592    0.000021799
      7       17           0.000001112    0.000003044   -0.000025714
      8        1          -0.000013695   -0.000005642    0.000008693
      9        1          -0.000013419   -0.000015257    0.000005922
     10        1           0.000013718   -0.000008800   -0.000001503
     11        1          -0.000007431    0.000000622   -0.000016538
 -------------------------------------------------------------------
 Cartesian Forces:  Max     0.000101067 RMS     0.000032173
 Force constants in Cartesian coordinates: 
                1             2             3             4             5 
      1  0.521555D+00
      2 -0.173086D-01  0.607201D+00
      3  0.414335D-01 -0.234555D-01  0.445126D+00
      4 -0.654274D-01  0.764969D-03  0.914685D-02  0.238468D+00
      5 -0.176406D-03 -0.649604D-01 -0.173590D-01 -0.538754D-03  0.236850D+00
      6  0.451225D-02 -0.186340D-01 -0.159537D+00 -0.976614D-02  0.199475D-01
      7 -0.174551D+00 -0.185556D-01  0.280979D-01 -0.388613D-04  0.237043D-02
      8 -0.179441D-01 -0.878325D-01  0.933128D-02  0.570578D-02 -0.689676D-04
      9  0.311295D-01  0.101440D-01 -0.763073D-01  0.263944D-01  0.342668D-02
     10  0.207531D-02 -0.381733D-02 -0.147368D-02 -0.324564D-01 -0.114648D-01
     11 -0.573977D-02 -0.231091D-01 -0.621888D-02 -0.966714D-02 -0.844904D-01
     12 -0.615366D-02 -0.278145D-01 -0.464106D-02 -0.169358D-02 -0.122596D-01
     13 -0.206266D-01 -0.411307D-02  0.100450D-01 -0.831932D-01 -0.809679D-02
     14  0.261497D-03  0.210290D-02 -0.318438D-03 -0.107941D-01 -0.318383D-01
     15  0.316678D-01  0.552908D-02 -0.129007D-01  0.174332D-01  0.202384D-02
     16 -0.566582D-02  0.780622D-02 -0.780743D-02 -0.513321D-01  0.190403D-01
     17  0.576785D-02 -0.256296D-02  0.435667D-02  0.198068D-01 -0.482129D-01
     18 -0.227492D-01  0.206636D-01 -0.173809D-01 -0.169842D-01  0.147206D-01
     19  0.158199D-02  0.512995D-02  0.241243D-01 -0.349072D-02 -0.693361D-03
     20  0.304036D-03  0.795458D-03  0.277111D-03 -0.314610D-03 -0.171719D-03
     21  0.275401D-03 -0.616853D-02 -0.302073D-01  0.282988D-02  0.109467D-02
     22 -0.165890D+00  0.104871D+00 -0.816565D-01 -0.360902D-03 -0.612517D-03
     23  0.105347D+00 -0.141364D+00  0.723169D-01 -0.354766D-02  0.172058D-02
     24 -0.811719D-01  0.691799D-01 -0.101426D+00 -0.207590D-01  0.185299D-01
     25 -0.637245D-01 -0.632007D-01 -0.995137D-02 -0.660012D-03  0.933046D-03
     26 -0.637715D-01 -0.292610D+00 -0.367164D-01 -0.135567D-02 -0.801476D-02
     27 -0.109033D-01 -0.337086D-01 -0.523998D-01 -0.727855D-02 -0.310045D-01
     28 -0.208791D-01  0.183032D-01 -0.105588D-01 -0.140064D-02  0.114313D-02
     29 -0.542864D-02  0.500147D-02 -0.307886D-02  0.710419D-03  0.451761D-04
     30  0.904699D-02 -0.854204D-02  0.725994D-02  0.476210D-03 -0.693778D-03
     31 -0.844835D-02 -0.298797D-01 -0.139967D-02 -0.107611D-03 -0.190425D-02
     32 -0.131167D-02 -0.266147D-02  0.865105D-03 -0.770052D-03 -0.858715D-03
     33  0.291255D-02  0.128066D-01  0.241432D-02  0.200958D-03  0.157365D-02
                6             7             8             9            10 
      6  0.344833D+00
      7  0.992167D-02  0.494801D+00
      8 -0.102835D-02 -0.208208D-01  0.589723D+00
      9 -0.197605D-01  0.431730D-01 -0.432100D-01  0.332841D+00
     10 -0.460720D-02 -0.855890D-03  0.166054D-03  0.153313D-02  0.427811D-01
     11 -0.263711D-01 -0.653709D-03 -0.114087D-02 -0.445321D-03  0.266172D-01
     12 -0.404256D-01  0.577580D-03 -0.131766D-02 -0.173152D-02  0.415942D-02
     13  0.308534D-01  0.363473D-02  0.792633D-03  0.118798D-02 -0.165372D-01
     14  0.565354D-02  0.632747D-04  0.152096D-02 -0.430646D-03 -0.266202D-01
     15 -0.434088D-01 -0.241943D-02 -0.140574D-02 -0.212626D-02 -0.412652D-03
     16 -0.268086D-01 -0.123533D-02  0.150061D-03  0.119814D-02  0.344663D-02
     17  0.253879D-01  0.476255D-03 -0.818268D-04  0.587929D-03  0.137403D-01
     18 -0.578072D-01 -0.282808D-03  0.801667D-03 -0.240903D-02 -0.591888D-03
     19  0.958953D-03 -0.317825D-01 -0.761495D-03 -0.655652D-02  0.216177D-03
     20  0.589583D-03 -0.976712D-03 -0.377777D-01 -0.181169D-01  0.475182D-03
     21  0.142499D-02 -0.761150D-02 -0.184011D-01 -0.114609D+00  0.314416D-03
     22 -0.972059D-03 -0.237035D-01  0.177036D-01 -0.127793D-01  0.173857D-03
     23 -0.367764D-02 -0.500117D-02  0.435764D-02 -0.315187D-02 -0.629980D-03
     24 -0.190410D-01  0.104819D-01 -0.858735D-02  0.581983D-02  0.448029D-03
     25 -0.124987D-02 -0.106993D-01 -0.310517D-01 -0.321413D-02  0.957392D-03
     26 -0.181456D-02 -0.210078D-02 -0.397474D-02 -0.369558D-03 -0.833931D-04
     27 -0.901258D-02  0.440569D-02  0.134119D-01  0.115013D-02 -0.282180D-03
     28 -0.177532D-02 -0.183459D+00  0.114839D+00 -0.755904D-01  0.475763D-04
     29  0.523886D-04  0.116030D+00 -0.155627D+00  0.694036D-01 -0.616222D-05
     30  0.155957D-02 -0.784440D-01  0.702663D-01 -0.825093D-01 -0.127356D-03
     31 -0.106714D-02 -0.721113D-01 -0.687795D-01 -0.647574D-02  0.151519D-03
     32 -0.105286D-03 -0.708316D-01 -0.309099D+00 -0.178379D-01  0.162311D-02
     33  0.117479D-02 -0.789998D-02 -0.198608D-01 -0.403587D-01  0.103996D-02
               11            12            13            14            15 
     11  0.159737D+00
     12  0.299847D-01  0.441939D-01
     13 -0.219089D-01  0.211342D-02  0.155253D+00
     14 -0.169361D-01  0.431609D-02  0.238123D-01  0.406780D-01
     15  0.145096D-02  0.493073D-02 -0.416839D-01 -0.835514D-02  0.503553D-01
     16  0.983995D-02 -0.996128D-03 -0.373023D-01  0.129676D-01 -0.917782D-02
     17 -0.357471D-01  0.110428D-01  0.981427D-02  0.340588D-02  0.175549D-03
     18  0.664973D-02  0.407802D-02 -0.406613D-02 -0.628621D-03  0.535901D-02
     19  0.240497D-03  0.423218D-04 -0.675646D-03 -0.393022D-04  0.841000D-03
     20  0.559393D-03 -0.171451D-03  0.128743D-03  0.114135D-03 -0.959926D-04
     21 -0.157494D-04 -0.369991D-03  0.167038D-02  0.128590D-03 -0.149875D-02
     22 -0.375815D-03  0.194812D-03  0.776648D-04 -0.854417D-03  0.180845D-02
     23  0.110837D-03 -0.796354D-03 -0.750197D-03  0.266068D-04  0.213867D-04
     24 -0.120746D-03  0.598307D-03  0.368007D-03 -0.977548D-04 -0.184608D-03
     25  0.639047D-03  0.111904D-02 -0.791437D-03  0.984365D-03  0.125121D-02
     26  0.113694D-02 -0.829063D-03  0.357858D-03  0.103295D-02  0.483833D-03
     27 -0.370923D-02 -0.455137D-02  0.840066D-04 -0.980277D-04 -0.321165D-03
     28 -0.774993D-04  0.136191D-03  0.149056D-03 -0.235427D-03  0.450471D-03
     29  0.332828D-04 -0.248441D-03  0.817223D-04 -0.897207D-04 -0.350975D-04
     30  0.126729D-03 -0.437580D-04 -0.382554D-03  0.204529D-03 -0.134883D-03
     31  0.108615D-02  0.500571D-03  0.115498D-04  0.454387D-03  0.241634D-03
     32 -0.153437D-03 -0.190645D-02 -0.118580D-03 -0.171958D-04  0.207327D-03
     33 -0.133108D-02 -0.203766D-02 -0.189621D-03 -0.374125D-03 -0.698654D-04
               16            17            18            19            20 
     16  0.892185D-01
     17 -0.485826D-01  0.805308D-01
     18  0.434638D-01 -0.429606D-01  0.769014D-01
     19  0.571822D-03 -0.198982D-03  0.127381D-03  0.271379D-01
     20 -0.302392D-03  0.196754D-03 -0.852343D-04  0.157459D-02  0.290325D-01
     21  0.505782D-03 -0.655443D-04 -0.362132D-03  0.544222D-03  0.341398D-01
     22  0.132526D-02 -0.402660D-03  0.139529D-02  0.113650D-02 -0.253581D-03
     23 -0.526344D-03  0.158844D-02 -0.116480D-02  0.148371D-03 -0.181475D-03
     24 -0.137961D-02  0.586917D-03 -0.537146D-02  0.608393D-03 -0.344621D-03
     25 -0.266999D-03  0.154126D-04 -0.318283D-03  0.781269D-03  0.528333D-03
     26  0.404761D-03  0.958992D-03  0.691392D-03  0.443087D-03  0.665175D-03
     27  0.110705D-03  0.196765D-03  0.191308D-03  0.218321D-03  0.699898D-03
     28  0.122537D-02 -0.512881D-03  0.342607D-04  0.322950D-02 -0.152714D-02
     29 -0.746294D-03 -0.171133D-03  0.108650D-02 -0.609410D-02  0.536823D-02
     30  0.913671D-03  0.909085D-03 -0.312295D-02 -0.146323D-01  0.898161D-02
     31  0.149753D-04  0.762444D-04 -0.282068D-04  0.129362D-02  0.363542D-03
     32 -0.511918D-04  0.950263D-04  0.225765D-03  0.250743D-03  0.139921D-02
     33 -0.225044D-04 -0.217505D-03 -0.761429D-04 -0.627608D-02 -0.258738D-01
               21            22            23            24            25 
     21  0.189696D+00
     22 -0.101303D-03  0.184576D+00
     23 -0.650939D-03 -0.113537D+00  0.148452D+00
     24  0.748025D-03  0.850834D-01 -0.771321D-01  0.117095D+00
     25 -0.641057D-03  0.580282D-02  0.199316D-01  0.420645D-02  0.725246D-01
     26  0.582135D-03 -0.452110D-02 -0.162201D-01 -0.291843D-02  0.712776D-01
     27  0.251441D-03  0.450567D-02  0.142749D-01  0.279900D-02  0.672905D-02
     28  0.206210D-02 -0.395675D-02 -0.154033D-02  0.287737D-02  0.798397D-03
     29 -0.855472D-02 -0.173520D-02  0.838091D-03  0.730607D-03  0.168545D-03
     30 -0.254948D-01  0.272357D-02  0.603026D-03 -0.122045D-02 -0.518365D-03
     31  0.151671D-03  0.819391D-03  0.105437D-03 -0.763058D-03 -0.472225D-02
     32 -0.208852D-02 -0.281890D-03  0.670926D-03  0.173643D-03 -0.225475D-03
     33 -0.195788D-01 -0.201967D-03 -0.642505D-03  0.183697D-03  0.258733D-02
               26            27            28            29            30 
     26  0.315047D+00
     27  0.407854D-01  0.626292D-01
     28 -0.312451D-03 -0.431745D-03  0.196311D+00
     29  0.673902D-03 -0.715182D-03 -0.124527D+00  0.159670D+00
     30  0.221215D-03  0.183157D-03  0.783664D-01 -0.709391D-01  0.996642D-01
     31 -0.338378D-03  0.284231D-02  0.793449D-02  0.215459D-01  0.257778D-02
     32  0.130413D-02 -0.133276D-03 -0.555352D-02 -0.157428D-01 -0.113752D-02
     33 -0.115967D-03 -0.919331D-03  0.442949D-02  0.122983D-01  0.385925D-02
               31            32            33 
     31  0.751639D-01
     32  0.772702D-01  0.325063D+00
     33  0.341986D-02  0.217371D-01  0.554084D-01
 FormGI is forming the generalized inverse of G from B-inverse, IUseBI=4.
 Leave Link  716 at Thu Jun 13 12:24:25 2024, MaxMem=  1073741824 cpu:         4.4
 (Enter /apps/z_install_tree/linux-rocky8-ivybridge/gcc-12.2.0/gaussian-09-D.01-wczn3gur5lpur3omlkzwa2l5ecyxp5ef/g09/l103.exe)

 GradGradGradGradGradGradGradGradGradGradGradGradGradGradGradGradGradGrad
 Berny optimization.
 Red2BG is reusing G-inverse.
 Internal  Forces:  Max     0.000052095 RMS     0.000014963
 Search for a local minimum.
 Step number   1 out of a maximum of    2
 All quantities printed in internal units (Hartrees-Bohrs-Radians)
 Second derivative matrix not updated -- analytic derivatives used.
 ITU=  0
     Eigenvalues ---    0.00224   0.00637   0.03820   0.04036   0.04357
     Eigenvalues ---    0.06105   0.07254   0.07348   0.07411   0.11056
     Eigenvalues ---    0.12542   0.15804   0.15991   0.16296   0.18242
     Eigenvalues ---    0.19788   0.21053   0.23921   0.26734   0.27295
     Eigenvalues ---    0.27996   0.30076   0.33863   0.34498   0.34762
     Eigenvalues ---    0.35255   0.39190
 Angle between quadratic step and forces=  65.24 degrees.
 Linear search not attempted -- first point.
 Iteration  1 RMS(Cart)=  0.00055032 RMS(Int)=  0.00000016
 Iteration  2 RMS(Cart)=  0.00000017 RMS(Int)=  0.00000001
 ITry= 1 IFail=0 DXMaxC= 1.52D-03 DCOld= 1.00D+10 DXMaxT= 3.00D-01 DXLimC= 3.00D+00 Rises=F
 Variable       Old X    -DE/DX   Delta X   Delta X   Delta X     New X
                                 (Linear)    (Quad)   (Total)
    R1        2.88423   0.00000   0.00000   0.00005   0.00005   2.88428
    R2        2.87706  -0.00005   0.00000  -0.00024  -0.00024   2.87682
    R3        2.05719   0.00000   0.00000   0.00001   0.00001   2.05720
    R4        2.05714   0.00002   0.00000   0.00006   0.00006   2.05720
    R5        3.41336   0.00003   0.00000   0.00019   0.00019   3.41355
    R6        3.40771  -0.00003   0.00000  -0.00039  -0.00039   3.40733
    R7        3.41311   0.00005   0.00000   0.00043   0.00043   3.41354
    R8        3.42715   0.00002   0.00000   0.00022   0.00022   3.42737
    R9        2.04880   0.00001   0.00000   0.00003   0.00003   2.04883
   R10        2.04883   0.00000   0.00000  -0.00002  -0.00002   2.04881
    A1        1.99277  -0.00001   0.00000   0.00000   0.00000   1.99277
    A2        1.87246   0.00000   0.00000  -0.00005  -0.00005   1.87241
    A3        1.87253   0.00000   0.00000  -0.00017  -0.00017   1.87236
    A4        1.91898   0.00001   0.00000   0.00016   0.00016   1.91914
    A5        1.91902   0.00001   0.00000   0.00013   0.00013   1.91915
    A6        1.88438  -0.00001   0.00000  -0.00010  -0.00010   1.88428
    A7        1.93732  -0.00001   0.00000  -0.00003  -0.00003   1.93729
    A8        1.90044   0.00001   0.00000   0.00020   0.00020   1.90064
    A9        1.93742  -0.00001   0.00000  -0.00017  -0.00017   1.93725
   A10        1.89435   0.00001   0.00000   0.00012   0.00012   1.89447
   A11        1.89892   0.00000   0.00000  -0.00017  -0.00017   1.89875
   A12        1.89443   0.00001   0.00000   0.00006   0.00006   1.89449
   A13        1.90666   0.00001   0.00000   0.00000   0.00000   1.90666
   A14        1.95495   0.00001   0.00000   0.00017   0.00017   1.95513
   A15        1.95509  -0.00001   0.00000   0.00000   0.00000   1.95509
   A16        1.86372  -0.00001   0.00000  -0.00004  -0.00004   1.86368
   A17        1.86387  -0.00001   0.00000  -0.00024  -0.00024   1.86362
   A18        1.91500   0.00000   0.00000   0.00009   0.00009   1.91509
    D1        1.05726  -0.00001   0.00000  -0.00077  -0.00077   1.05649
    D2       -3.14158   0.00000   0.00000  -0.00051  -0.00051   3.14109
    D3       -1.05708   0.00001   0.00000  -0.00041  -0.00041  -1.05749
    D4       -1.07376  -0.00002   0.00000  -0.00094  -0.00094  -1.07470
    D5        1.01058  -0.00001   0.00000  -0.00068  -0.00068   1.00990
    D6        3.09509   0.00000   0.00000  -0.00058  -0.00058   3.09450
    D7       -3.09480  -0.00001   0.00000  -0.00072  -0.00072  -3.09552
    D8       -1.01046   0.00000   0.00000  -0.00046  -0.00046  -1.01092
    D9        1.07404   0.00001   0.00000  -0.00036  -0.00036   1.07368
   D10        3.14147   0.00001   0.00000  -0.00049  -0.00049   3.14097
   D11        1.08024   0.00000   0.00000  -0.00054  -0.00054   1.07969
   D12       -1.08023  -0.00001   0.00000  -0.00080  -0.00080  -1.08103
   D13       -1.03642   0.00000   0.00000  -0.00044  -0.00044  -1.03685
   D14       -3.09764   0.00000   0.00000  -0.00049  -0.00049  -3.09814
   D15        1.02507  -0.00001   0.00000  -0.00074  -0.00074   1.02433
   D16        1.03604   0.00001   0.00000  -0.00038  -0.00038   1.03566
   D17       -1.02519   0.00000   0.00000  -0.00043  -0.00043  -1.02562
   D18        3.09753   0.00000   0.00000  -0.00068  -0.00068   3.09685
         Item               Value     Threshold  Converged?
 Maximum Force            0.000052     0.000450     YES
 RMS     Force            0.000015     0.000300     YES
 Maximum Displacement     0.001521     0.001800     YES
 RMS     Displacement     0.000550     0.001200     YES
 Predicted change in Energy=-5.735911D-08
 Optimization completed.
    -- Stationary point found.
                           ----------------------------
                           !   Optimized Parameters   !
                           ! (Angstroms and Degrees)  !
 --------------------------                            --------------------------
 ! Name  Definition              Value          Derivative Info.                !
 --------------------------------------------------------------------------------
 ! R1    R(1,2)                  1.5263         -DE/DX =    0.0                 !
 ! R2    R(1,3)                  1.5225         -DE/DX =    0.0                 !
 ! R3    R(1,8)                  1.0886         -DE/DX =    0.0                 !
 ! R4    R(1,9)                  1.0886         -DE/DX =    0.0                 !
 ! R5    R(2,4)                  1.8063         -DE/DX =    0.0                 !
 ! R6    R(2,5)                  1.8033         -DE/DX =    0.0                 !
 ! R7    R(2,6)                  1.8061         -DE/DX =    0.0001              !
 ! R8    R(3,7)                  1.8136         -DE/DX =    0.0                 !
 ! R9    R(3,10)                 1.0842         -DE/DX =    0.0                 !
 ! R10   R(3,11)                 1.0842         -DE/DX =    0.0                 !
 ! A1    A(2,1,3)              114.1772         -DE/DX =    0.0                 !
 ! A2    A(2,1,8)              107.284          -DE/DX =    0.0                 !
 ! A3    A(2,1,9)              107.288          -DE/DX =    0.0                 !
 ! A4    A(3,1,8)              109.9495         -DE/DX =    0.0                 !
 ! A5    A(3,1,9)              109.9519         -DE/DX =    0.0                 !
 ! A6    A(8,1,9)              107.967          -DE/DX =    0.0                 !
 ! A7    A(1,2,4)              111.0004         -DE/DX =    0.0                 !
 ! A8    A(1,2,5)              108.8873         -DE/DX =    0.0                 !
 ! A9    A(1,2,6)              111.0059         -DE/DX =    0.0                 !
 ! A10   A(4,2,5)              108.5382         -DE/DX =    0.0                 !
 ! A11   A(4,2,6)              108.8001         -DE/DX =    0.0                 !
 ! A12   A(5,2,6)              108.5429         -DE/DX =    0.0                 !
 ! A13   A(1,3,7)              109.2437         -DE/DX =    0.0                 !
 ! A14   A(1,3,10)             112.0107         -DE/DX =    0.0                 !
 ! A15   A(1,3,11)             112.0184         -DE/DX =    0.0                 !
 ! A16   A(7,3,10)             106.7836         -DE/DX =    0.0                 !
 ! A17   A(7,3,11)             106.7917         -DE/DX =    0.0                 !
 ! A18   A(10,3,11)            109.7214         -DE/DX =    0.0                 !
 ! D1    D(3,1,2,4)             60.5763         -DE/DX =    0.0                 !
 ! D2    D(3,1,2,5)            180.0005         -DE/DX =    0.0                 !
 ! D3    D(3,1,2,6)            -60.5662         -DE/DX =    0.0                 !
 ! D4    D(8,1,2,4)            -61.5221         -DE/DX =    0.0                 !
 ! D5    D(8,1,2,5)             57.902          -DE/DX =    0.0                 !
 ! D6    D(8,1,2,6)            177.3353         -DE/DX =    0.0                 !
 ! D7    D(9,1,2,4)           -177.3193         -DE/DX =    0.0                 !
 ! D8    D(9,1,2,5)            -57.8951         -DE/DX =    0.0                 !
 ! D9    D(9,1,2,6)             61.5382         -DE/DX =    0.0                 !
 ! D10   D(2,1,3,7)            179.9927         -DE/DX =    0.0                 !
 ! D11   D(2,1,3,10)            61.8929         -DE/DX =    0.0                 !
 ! D12   D(2,1,3,11)           -61.8927         -DE/DX =    0.0                 !
 ! D13   D(8,1,3,7)            -59.3822         -DE/DX =    0.0                 !
 ! D14   D(8,1,3,10)          -177.482          -DE/DX =    0.0                 !
 ! D15   D(8,1,3,11)            58.7324         -DE/DX =    0.0                 !
 ! D16   D(9,1,3,7)             59.3607         -DE/DX =    0.0                 !
 ! D17   D(9,1,3,10)           -58.7391         -DE/DX =    0.0                 !
 ! D18   D(9,1,3,11)           177.4753         -DE/DX =    0.0                 !
 --------------------------------------------------------------------------------
 GradGradGradGradGradGradGradGradGradGradGradGradGradGradGradGradGradGrad

 Leave Link  103 at Thu Jun 13 12:24:25 2024, MaxMem=  1073741824 cpu:         6.3
 (Enter /apps/z_install_tree/linux-rocky8-ivybridge/gcc-12.2.0/gaussian-09-D.01-wczn3gur5lpur3omlkzwa2l5ecyxp5ef/g09/l9999.exe)
 1\1\GINC-K139\Freq\RB3LYP\Gen\C3H4Cl4\Z5112331\13-Jun-2024\0\\#P Geom=
 AllCheck Guess=TCheck SCRF=Check GenChk RB3LYP/ChkBas Freq\\tetrachlor
 opropane\\0,1\C,50.1523227244,35.3793275994,31.9064861957\C,50.0493090
 904,35.6543814125,33.404226289\C,51.5337309943,35.6340088566,31.319304
 9122\Cl,50.4282553314,37.381576261,33.7727495471\Cl,48.3646616098,35.3
 086692819,33.9467027306\Cl,51.1807155276,34.5987039058,34.3356813677\C
 l,51.5053407203,35.2669657536,29.543493745\H,49.4160032496,36.00937123
 61,31.4105404274\H,49.8669855645,34.3408337108,31.747912896\H,52.28735
 51546,34.991053278,31.7598694182\H,51.8333200332,36.6711087043,31.4200
 324709\\Version=ES64L-G09RevD.01\HF=-1957.677845\RMSD=2.853e-09\RMSF=3
 .217e-05\ZeroPoint=0.0671153\Thermal=0.0754146\Dipole=0.0348911,0.0215
 479,0.0606701\DipoleDeriv=-0.1012033,-0.021504,-0.0909935,-0.0026641,-
 0.0961835,-0.0276587,0.0020991,-0.0024573,-0.1048569,1.2909976,0.00910
 64,0.0931714,-0.0049323,1.3013787,-0.1200065,0.0237187,-0.1387925,0.60
 90595,0.1317668,-0.0195516,-0.1027745,-0.0193906,0.1428472,0.1035843,-
 0.1021949,0.1038168,0.7765362,-0.1658927,-0.1257323,-0.0044946,-0.1348
 168,-0.7232489,-0.0603582,-0.0115522,-0.1075734,-0.1554839,-0.7300266,
 -0.1283082,0.1688636,-0.1229548,-0.1557202,0.0317777,0.1960461,0.03908
 38,-0.1975607,-0.3976234,0.2499662,-0.1594405,0.2512998,-0.3707107,0.1
 604508,-0.1913456,0.1971484,-0.2761567,-0.1777136,0.0026214,0.0519732,
 0.020137,-0.1590809,-0.0791323,0.1385485,-0.0556977,-0.6088924,0.01561
 23,0.0328101,0.0183614,0.0437357,0.0437766,0.0200248,-0.0284413,0.0365
 805,0.0101225,0.0526403,-0.0095104,0.0359289,-0.0350211,-0.0149441,-0.
 0014451,0.0107299,-0.0374938,0.0318182,0.0249537,0.0186538,-0.0142532,
 0.0399707,0.0421402,0.0038935,-0.0356571,0.0114845,-0.0527242,0.056489
 ,-0.0085513,0.0036578,-0.0353636,-0.0102545,-0.0311303,-0.0019512,-0.0
 460994,-0.0318616\Polar=89.8785204,-0.2955472,85.6949366,-7.2155966,0.
 9763917,100.0294805\PG=C01 [X(C3H4Cl4)]\NImag=0\\0.52155534,-0.0173085
 7,0.60720056,0.04143345,-0.02345554,0.44512613,-0.06542735,0.00076497,
 0.00914685,0.23846785,-0.00017641,-0.06496037,-0.01735896,-0.00053875,
 0.23685041,0.00451225,-0.01863401,-0.15953697,-0.00976614,0.01994748,0
 .34483333,-0.17455061,-0.01855559,0.02809786,-0.00003886,0.00237043,0.
 00992167,0.49480137,-0.01794414,-0.08783254,0.00933128,0.00570578,-0.0
 0006897,-0.00102835,-0.02082076,0.58972312,0.03112948,0.01014404,-0.07
 630731,0.02639439,0.00342668,-0.01976055,0.04317299,-0.04321000,0.3328
 4141,0.00207531,-0.00381733,-0.00147368,-0.03245640,-0.01146480,-0.004
 60720,-0.00085589,0.00016605,0.00153313,0.04278106,-0.00573977,-0.0231
 0914,-0.00621888,-0.00966714,-0.08449036,-0.02637108,-0.00065371,-0.00
 114087,-0.00044532,0.02661722,0.15973658,-0.00615366,-0.02781451,-0.00
 464106,-0.00169358,-0.01225960,-0.04042557,0.00057758,-0.00131766,-0.0
 0173152,0.00415942,0.02998467,0.04419388,-0.02062660,-0.00411307,0.010
 04500,-0.08319323,-0.00809679,0.03085343,0.00363473,0.00079263,0.00118
 798,-0.01653723,-0.02190894,0.00211342,0.15525340,0.00026150,0.0021029
 0,-0.00031844,-0.01079408,-0.03183834,0.00565354,0.00006327,0.00152096
 ,-0.00043065,-0.02662021,-0.01693614,0.00431609,0.02381234,0.04067795,
 0.03166783,0.00552908,-0.01290073,0.01743323,0.00202384,-0.04340878,-0
 .00241943,-0.00140574,-0.00212626,-0.00041265,0.00145096,0.00493073,-0
 .04168392,-0.00835514,0.05035530,-0.00566582,0.00780622,-0.00780743,-0
 .05133212,0.01904028,-0.02680857,-0.00123533,0.00015006,0.00119814,0.0
 0344663,0.00983995,-0.00099613,-0.03730226,0.01296757,-0.00917782,0.08
 921847,0.00576785,-0.00256296,0.00435667,0.01980680,-0.04821293,0.0253
 8794,0.00047626,-0.00008183,0.00058793,0.01374030,-0.03574709,0.011042
 76,0.00981427,0.00340588,0.00017555,-0.04858262,0.08053085,-0.02274917
 ,0.02066358,-0.01738088,-0.01698421,0.01472058,-0.05780719,-0.00028281
 ,0.00080167,-0.00240903,-0.00059189,0.00664973,0.00407802,-0.00406613,
 -0.00062862,0.00535901,0.04346376,-0.04296056,0.07690143,0.00158199,0.
 00512995,0.02412431,-0.00349072,-0.00069336,0.00095895,-0.03178247,-0.
 00076149,-0.00655652,0.00021618,0.00024050,0.00004232,-0.00067565,-0.0
 0003930,0.00084100,0.00057182,-0.00019898,0.00012738,0.02713795,0.0003
 0404,0.00079546,0.00027711,-0.00031461,-0.00017172,0.00058958,-0.00097
 671,-0.03777768,-0.01811690,0.00047518,0.00055939,-0.00017145,0.000128
 74,0.00011414,-0.00009599,-0.00030239,0.00019675,-0.00008523,0.0015745
 9,0.02903252,0.00027540,-0.00616853,-0.03020735,0.00282988,0.00109467,
 0.00142499,-0.00761150,-0.01840114,-0.11460878,0.00031442,-0.00001575,
 -0.00036999,0.00167038,0.00012859,-0.00149875,0.00050578,-0.00006554,-
 0.00036213,0.00054422,0.03413975,0.18969619,-0.16589028,0.10487060,-0.
 08165650,-0.00036090,-0.00061252,-0.00097206,-0.02370354,0.01770362,-0
 .01277934,0.00017386,-0.00037582,0.00019481,0.00007766,-0.00085442,0.0
 0180845,0.00132526,-0.00040266,0.00139529,0.00113650,-0.00025358,-0.00
 010130,0.18457598,0.10534732,-0.14136400,0.07231689,-0.00354766,0.0017
 2058,-0.00367764,-0.00500117,0.00435764,-0.00315187,-0.00062998,0.0001
 1084,-0.00079635,-0.00075020,0.00002661,0.00002139,-0.00052634,0.00158
 844,-0.00116480,0.00014837,-0.00018148,-0.00065094,-0.11353704,0.14845
 248,-0.08117186,0.06917988,-0.10142628,-0.02075905,0.01852993,-0.01904
 104,0.01048195,-0.00858735,0.00581983,0.00044803,-0.00012075,0.0005983
 1,0.00036801,-0.00009775,-0.00018461,-0.00137961,0.00058692,-0.0053714
 6,0.00060839,-0.00034462,0.00074802,0.08508339,-0.07713208,0.11709499,
 -0.06372453,-0.06320072,-0.00995137,-0.00066001,0.00093305,-0.00124987
 ,-0.01069928,-0.03105171,-0.00321413,0.00095739,0.00063905,0.00111904,
 -0.00079144,0.00098436,0.00125121,-0.00026700,0.00001541,-0.00031828,0
 .00078127,0.00052833,-0.00064106,0.00580282,0.01993159,0.00420645,0.07
 252463,-0.06377152,-0.29260992,-0.03671637,-0.00135567,-0.00801476,-0.
 00181456,-0.00210078,-0.00397474,-0.00036956,-0.00008339,0.00113694,-0
 .00082906,0.00035786,0.00103295,0.00048383,0.00040476,0.00095899,0.000
 69139,0.00044309,0.00066518,0.00058214,-0.00452110,-0.01622011,-0.0029
 1843,0.07127758,0.31504744,-0.01090327,-0.03370856,-0.05239981,-0.0072
 7855,-0.03100449,-0.00901258,0.00440569,0.01341186,0.00115013,-0.00028
 218,-0.00370923,-0.00455137,0.00008401,-0.00009803,-0.00032116,0.00011
 070,0.00019677,0.00019131,0.00021832,0.00069990,0.00025144,0.00450567,
 0.01427488,0.00279900,0.00672905,0.04078537,0.06262922,-0.02087911,0.0
 1830324,-0.01055882,-0.00140064,0.00114313,-0.00177532,-0.18345885,0.1
 1483946,-0.07559037,0.00004758,-0.00007750,0.00013619,0.00014906,-0.00
 023543,0.00045047,0.00122537,-0.00051288,0.00003426,0.00322950,-0.0015
 2714,0.00206210,-0.00395675,-0.00154033,0.00287737,0.00079840,-0.00031
 245,-0.00043174,0.19631096,-0.00542864,0.00500147,-0.00307886,0.000710
 42,0.00004518,0.00005239,0.11603039,-0.15562653,0.06940355,-0.00000616
 ,0.00003328,-0.00024844,0.00008172,-0.00008972,-0.00003510,-0.00074629
 ,-0.00017113,0.00108650,-0.00609410,0.00536823,-0.00855472,-0.00173520
 ,0.00083809,0.00073061,0.00016854,0.00067390,-0.00071518,-0.12452657,0
 .15967008,0.00904699,-0.00854204,0.00725994,0.00047621,-0.00069378,0.0
 0155957,-0.07844401,0.07026625,-0.08250926,-0.00012736,0.00012673,-0.0
 0004376,-0.00038255,0.00020453,-0.00013488,0.00091367,0.00090908,-0.00
 312295,-0.01463231,0.00898161,-0.02549481,0.00272357,0.00060303,-0.001
 22045,-0.00051836,0.00022122,0.00018316,0.07836638,-0.07093910,0.09966
 419,-0.00844835,-0.02987969,-0.00139967,-0.00010761,-0.00190425,-0.001
 06714,-0.07211127,-0.06877950,-0.00647574,0.00015152,0.00108615,0.0005
 0057,0.00001155,0.00045439,0.00024163,0.00001498,0.00007624,-0.0000282
 1,0.00129362,0.00036354,0.00015167,0.00081939,0.00010544,-0.00076306,-
 0.00472225,-0.00033838,0.00284231,0.00793449,0.02154590,0.00257778,0.0
 7516393,-0.00131167,-0.00266147,0.00086510,-0.00077005,-0.00085871,-0.
 00010529,-0.07083162,-0.30909857,-0.01783791,0.00162311,-0.00015344,-0
 .00190645,-0.00011858,-0.00001720,0.00020733,-0.00005119,0.00009503,0.
 00022577,0.00025074,0.00139921,-0.00208852,-0.00028189,0.00067093,0.00
 017364,-0.00022548,0.00130413,-0.00013328,-0.00555352,-0.01574284,-0.0
 0113752,0.07727015,0.32506293,0.00291255,0.01280663,0.00241432,0.00020
 096,0.00157365,0.00117479,-0.00789998,-0.01986081,-0.04035867,0.001039
 96,-0.00133108,-0.00203766,-0.00018962,-0.00037412,-0.00006987,-0.0000
 2250,-0.00021751,-0.00007614,-0.00627608,-0.02587375,-0.01957884,-0.00
 020197,-0.00064251,0.00018370,0.00258733,-0.00011597,-0.00091933,0.004
 42949,0.01229835,0.00385925,0.00341986,0.02173712,0.05540845\\-0.00007
 555,-0.00004086,0.00004741,0.00010107,0.00000646,0.00001527,0.00004458
 ,0.00001056,-0.00007263,-0.00002511,-0.00002212,-0.00000258,-0.0000246
 9,-0.00000767,0.00000518,-0.00004001,0.00002759,-0.00002180,-0.0000011
 1,-0.00000304,0.00002571,0.00001370,0.00000564,-0.00000869,0.00001342,
 0.00001526,-0.00000592,-0.00001372,0.00000880,0.00000150,0.00000743,-0
 .00000062,0.00001654\\\@


 Statistics are no substitute for judgment.
                            -- Henry Clay
 Job cpu time:       0 days  0 hours 25 minutes  3.7 seconds.
 File lengths (MBytes):  RWF=    206 Int=      0 D2E=      0 Chk=      7 Scr=      2
 Normal termination of Gaussian 09 at Thu Jun 13 12:24:25 2024.
