tetrafluoroethene                                                       
Freq      RB3LYP                                                      Gen                 
Number of atoms                            I                6
Info1-9                                    I   N=           9
          20          19        1002           0           0         100
           6          18        -502
Charge                                     I                0
Multiplicity                               I                1
Number of electrons                        I               48
Number of alpha electrons                  I               24
Number of beta electrons                   I               24
Number of basis functions                  I              162
Number of independent functions            I              162
Number of point charges in /Mol/           I                0
Number of translation vectors              I                0
Atomic numbers                             I   N=           6
           6           6           9           9           9           9
Nuclear charges                            R   N=           6
  6.00000000E+00  6.00000000E+00  9.00000000E+00  9.00000000E+00  9.00000000E+00
  9.00000000E+00
Current cartesian coordinates              R   N=          18
  9.41674888E+01  6.74872312E+01  6.16674136E+01  9.57031555E+01  6.87582690E+01
  6.01652517E+01  9.38672946E+01  6.80188126E+01  6.40858149E+01  9.27810772E+01
  6.55602833E+01  6.09008430E+01  9.60055206E+01  6.82291191E+01  5.77467526E+01
  9.70880546E+01  7.06845987E+01  6.09353024E+01
Force Field                                I                0
Int Atom Types                             I   N=           6
           0           0           0           0           0           0
MM charges                                 R   N=           6
  0.00000000E+00  0.00000000E+00  0.00000000E+00  0.00000000E+00  0.00000000E+00
  0.00000000E+00
Integer atomic weights                     I   N=           6
          12          12          19          19          19          19
Real atomic weights                        R   N=           6
  1.20000000E+01  1.20000000E+01  1.89984032E+01  1.89984032E+01  1.89984032E+01
  1.89984032E+01
Atom fragment info                         I   N=           6
           0           0           0           0           0           0
Atom residue num                           I   N=           6
           0           0           0           0           0           0
Nuclear spins                              I   N=           6
           0           0           1           1           1           1
Nuclear ZEff                               R   N=           6
 -3.60000000E+00 -3.60000000E+00 -6.75000000E+00 -6.75000000E+00 -6.75000000E+00
 -6.75000000E+00
Nuclear ZNuc                               R   N=           6
  6.00000000E+00  6.00000000E+00  9.00000000E+00  9.00000000E+00  9.00000000E+00
  9.00000000E+00
Nuclear QMom                               R   N=           6
  0.00000000E+00  0.00000000E+00  0.00000000E+00  0.00000000E+00  0.00000000E+00
  0.00000000E+00
Nuclear GFac                               R   N=           6
  0.00000000E+00  0.00000000E+00  2.62886700E+00  2.62886700E+00  2.62886700E+00
  2.62886700E+00
MicOpt                                     I   N=           6
          -1          -1          -1          -1          -1          -1
Number of contracted shells                I               42
Number of primitive shells                 I               84
Pure/Cartesian d shells                    I                0
Pure/Cartesian f shells                    I                0
Highest angular momentum                   I                2
Largest degree of contraction              I                6
Shell types                                I   N=          42
           0          -1          -1          -1          -1          -2
          -2           0          -1          -1          -1          -1
          -2          -2           0          -1          -1          -1
          -1          -2          -2           0          -1          -1
          -1          -1          -2          -2           0          -1
          -1          -1          -1          -2          -2           0
          -1          -1          -1          -1          -2          -2
Number of primitives per shell             I   N=          42
           6           3           1           1           1           1
           1           6           3           1           1           1
           1           1           6           3           1           1
           1           1           1           6           3           1
           1           1           1           1           6           3
           1           1           1           1           1           6
           3           1           1           1           1           1
Shell to atom map                          I   N=          42
           1           1           1           1           1           1
           1           2           2           2           2           2
           2           2           3           3           3           3
           3           3           3           4           4           4
           4           4           4           4           5           5
           5           5           5           5           5           6
           6           6           6           6           6           6
Primitive exponents                        R   N=          84
  4.56324000E+03  6.82024000E+02  1.54973000E+02  4.44553000E+01  1.30290000E+01
  1.82773000E+00  2.09642000E+01  4.80331000E+00  1.45933000E+00  4.83456000E-01
  1.45585000E-01  4.38000000E-02  1.25200000E+00  3.13000000E-01  4.56324000E+03
  6.82024000E+02  1.54973000E+02  4.44553000E+01  1.30290000E+01  1.82773000E+00
  2.09642000E+01  4.80331000E+00  1.45933000E+00  4.83456000E-01  1.45585000E-01
  4.38000000E-02  1.25200000E+00  3.13000000E-01  1.14271000E+04  1.72235000E+03
  3.95746000E+02  1.15139000E+02  3.36026000E+01  4.91901000E+00  5.54441000E+01
  1.26323000E+01  3.71756000E+00  1.16545000E+00  3.21892000E-01  1.07600000E-01
  3.50000000E+00  8.75000000E-01  1.14271000E+04  1.72235000E+03  3.95746000E+02
  1.15139000E+02  3.36026000E+01  4.91901000E+00  5.54441000E+01  1.26323000E+01
  3.71756000E+00  1.16545000E+00  3.21892000E-01  1.07600000E-01  3.50000000E+00
  8.75000000E-01  1.14271000E+04  1.72235000E+03  3.95746000E+02  1.15139000E+02
  3.36026000E+01  4.91901000E+00  5.54441000E+01  1.26323000E+01  3.71756000E+00
  1.16545000E+00  3.21892000E-01  1.07600000E-01  3.50000000E+00  8.75000000E-01
  1.14271000E+04  1.72235000E+03  3.95746000E+02  1.15139000E+02  3.36026000E+01
  4.91901000E+00  5.54441000E+01  1.26323000E+01  3.71756000E+00  1.16545000E+00
  3.21892000E-01  1.07600000E-01  3.50000000E+00  8.75000000E-01
Contraction coefficients                   R   N=          84
  1.96665025E-03  1.52306019E-02  7.61269097E-02  2.60801033E-01  6.16462078E-01
  2.21006028E-01  1.14660081E-01  9.19999648E-01 -3.03068213E-03  1.00000000E+00
  1.00000000E+00  1.00000000E+00  1.00000000E+00  1.00000000E+00  1.96665025E-03
  1.52306019E-02  7.61269097E-02  2.60801033E-01  6.16462078E-01  2.21006028E-01
  1.14660081E-01  9.19999648E-01 -3.03068213E-03  1.00000000E+00  1.00000000E+00
  1.00000000E+00  1.00000000E+00  1.00000000E+00  1.80093016E-03  1.37419012E-02
  6.81334059E-02  2.33325020E-01  5.89086051E-01  2.99505026E-01  1.14536016E-01
  9.20512125E-01 -3.37804046E-03  1.00000000E+00  1.00000000E+00  1.00000000E+00
  1.00000000E+00  1.00000000E+00  1.80093016E-03  1.37419012E-02  6.81334059E-02
  2.33325020E-01  5.89086051E-01  2.99505026E-01  1.14536016E-01  9.20512125E-01
 -3.37804046E-03  1.00000000E+00  1.00000000E+00  1.00000000E+00  1.00000000E+00
  1.00000000E+00  1.80093016E-03  1.37419012E-02  6.81334059E-02  2.33325020E-01
  5.89086051E-01  2.99505026E-01  1.14536016E-01  9.20512125E-01 -3.37804046E-03
  1.00000000E+00  1.00000000E+00  1.00000000E+00  1.00000000E+00  1.00000000E+00
  1.80093016E-03  1.37419012E-02  6.81334059E-02  2.33325020E-01  5.89086051E-01
  2.99505026E-01  1.14536016E-01  9.20512125E-01 -3.37804046E-03  1.00000000E+00
  1.00000000E+00  1.00000000E+00  1.00000000E+00  1.00000000E+00
P(S=P) Contraction coefficients            R   N=          84
  0.00000000E+00  0.00000000E+00  0.00000000E+00  0.00000000E+00  0.00000000E+00
  0.00000000E+00  4.02486927E-02  2.37593957E-01  8.15853851E-01  1.00000000E+00
  1.00000000E+00  1.00000000E+00  0.00000000E+00  0.00000000E+00  0.00000000E+00
  0.00000000E+00  0.00000000E+00  0.00000000E+00  0.00000000E+00  0.00000000E+00
  4.02486927E-02  2.37593957E-01  8.15853851E-01  1.00000000E+00  1.00000000E+00
  1.00000000E+00  0.00000000E+00  0.00000000E+00  0.00000000E+00  0.00000000E+00
  0.00000000E+00  0.00000000E+00  0.00000000E+00  0.00000000E+00  3.54608874E-02
  2.37450915E-01  8.20457708E-01  1.00000000E+00  1.00000000E+00  1.00000000E+00
  0.00000000E+00  0.00000000E+00  0.00000000E+00  0.00000000E+00  0.00000000E+00
  0.00000000E+00  0.00000000E+00  0.00000000E+00  3.54608874E-02  2.37450915E-01
  8.20457708E-01  1.00000000E+00  1.00000000E+00  1.00000000E+00  0.00000000E+00
  0.00000000E+00  0.00000000E+00  0.00000000E+00  0.00000000E+00  0.00000000E+00
  0.00000000E+00  0.00000000E+00  3.54608874E-02  2.37450915E-01  8.20457708E-01
  1.00000000E+00  1.00000000E+00  1.00000000E+00  0.00000000E+00  0.00000000E+00
  0.00000000E+00  0.00000000E+00  0.00000000E+00  0.00000000E+00  0.00000000E+00
  0.00000000E+00  3.54608874E-02  2.37450915E-01  8.20457708E-01  1.00000000E+00
  1.00000000E+00  1.00000000E+00  0.00000000E+00  0.00000000E+00
Coordinates of each shell                  R   N=         126
  9.41674888E+01  6.74872312E+01  6.16674136E+01  9.41674888E+01  6.74872312E+01
  6.16674136E+01  9.41674888E+01  6.74872312E+01  6.16674136E+01  9.41674888E+01
  6.74872312E+01  6.16674136E+01  9.41674888E+01  6.74872312E+01  6.16674136E+01
  9.41674888E+01  6.74872312E+01  6.16674136E+01  9.41674888E+01  6.74872312E+01
  6.16674136E+01  9.57031555E+01  6.87582690E+01  6.01652517E+01  9.57031555E+01
  6.87582690E+01  6.01652517E+01  9.57031555E+01  6.87582690E+01  6.01652517E+01
  9.57031555E+01  6.87582690E+01  6.01652517E+01  9.57031555E+01  6.87582690E+01
  6.01652517E+01  9.57031555E+01  6.87582690E+01  6.01652517E+01  9.57031555E+01
  6.87582690E+01  6.01652517E+01  9.38672946E+01  6.80188126E+01  6.40858149E+01
  9.38672946E+01  6.80188126E+01  6.40858149E+01  9.38672946E+01  6.80188126E+01
  6.40858149E+01  9.38672946E+01  6.80188126E+01  6.40858149E+01  9.38672946E+01
  6.80188126E+01  6.40858149E+01  9.38672946E+01  6.80188126E+01  6.40858149E+01
  9.38672946E+01  6.80188126E+01  6.40858149E+01  9.27810772E+01  6.55602833E+01
  6.09008430E+01  9.27810772E+01  6.55602833E+01  6.09008430E+01  9.27810772E+01
  6.55602833E+01  6.09008430E+01  9.27810772E+01  6.55602833E+01  6.09008430E+01
  9.27810772E+01  6.55602833E+01  6.09008430E+01  9.27810772E+01  6.55602833E+01
  6.09008430E+01  9.27810772E+01  6.55602833E+01  6.09008430E+01  9.60055206E+01
  6.82291191E+01  5.77467526E+01  9.60055206E+01  6.82291191E+01  5.77467526E+01
  9.60055206E+01  6.82291191E+01  5.77467526E+01  9.60055206E+01  6.82291191E+01
  5.77467526E+01  9.60055206E+01  6.82291191E+01  5.77467526E+01  9.60055206E+01
  6.82291191E+01  5.77467526E+01  9.60055206E+01  6.82291191E+01  5.77467526E+01
  9.70880546E+01  7.06845987E+01  6.09353024E+01  9.70880546E+01  7.06845987E+01
  6.09353024E+01  9.70880546E+01  7.06845987E+01  6.09353024E+01  9.70880546E+01
  7.06845987E+01  6.09353024E+01  9.70880546E+01  7.06845987E+01  6.09353024E+01
  9.70880546E+01  7.06845987E+01  6.09353024E+01  9.70880546E+01  7.06845987E+01
  6.09353024E+01
Constraint Structure                       R   N=          18
  9.41674888E+01  6.74872312E+01  6.16674136E+01  9.57031555E+01  6.87582690E+01
  6.01652517E+01  9.38672946E+01  6.80188126E+01  6.40858149E+01  9.27810772E+01
  6.55602833E+01  6.09008430E+01  9.60055206E+01  6.82291191E+01  5.77467526E+01
  9.70880546E+01  7.06845987E+01  6.09353024E+01
Num ILSW                                   I              100
ILSW                                       I   N=         100
           0           0           0           0           2           0
           0           0           0           0         402          -1
           5           0           0           0           2           0
           0           0           0           0           1           0
           1           1           0           0           0           0
           0           0      100000           0          -1           0
           0           0           0           0           0           0
           0           0           0           1           0           0
           0           0           1           0           0           0
           0           0         131          41           0           0
           0           0           5           0           0           0
           0           0           0           6           0           0
           0           0           0           0           0           0
           0           0           0           0           0           0
           0           0           0           0           0           0
           0           0           0           0           0           0
           0           0           0           0
Num RLSW                                   I               41
RLSW                                       R   N=          41
  8.00000000E-01  7.20000000E-01  1.00000000E+00  8.10000000E-01  2.00000000E-01
  0.00000000E+00  0.00000000E+00  1.00000000E+00  0.00000000E+00  0.00000000E+00
  0.00000000E+00  0.00000000E+00  1.00000000E+00  0.00000000E+00  0.00000000E+00
  0.00000000E+00  0.00000000E+00  1.00000000E+00  0.00000000E+00  0.00000000E+00
  0.00000000E+00  0.00000000E+00  1.00000000E+00  0.00000000E+00  0.00000000E+00
  0.00000000E+00  0.00000000E+00  1.00000000E+00  0.00000000E+00  0.00000000E+00
  0.00000000E+00  0.00000000E+00  1.00000000E+00  0.00000000E+00  0.00000000E+00
  0.00000000E+00  0.00000000E+00  0.00000000E+00  1.00000000E+00  1.00000000E+00
  0.00000000E+00
MxBond                                     I                3
NBond                                      I   N=           6
           3           3           1           1           1           1
IBond                                      I   N=          18
           2           3           4           1           5           6
           1           0           0           1           0           0
           2           0           0           2           0           0
RBond                                      R   N=          18
  2.00000000E+00  1.00000000E-01  1.00000000E-01  2.00000000E+00  1.00000000E+00
  1.00000000E-01  1.00000000E-01  0.00000000E+00  0.00000000E+00  1.00000000E-01
  0.00000000E+00  0.00000000E+00  1.00000000E+00  0.00000000E+00  0.00000000E+00
  1.00000000E-01  0.00000000E+00  0.00000000E+00
Virial Ratio                               R      2.002811718479499E+00
SCF Energy                                 R     -4.756805617766506E+02
Total Energy                               R     -4.756805617766506E+02
RMS Force                                  R      5.699550565716664E-05
RMS Density                                R      2.047327186423017E-09
External E-field                           R   N=          35
  0.00000000E+00  0.00000000E+00  0.00000000E+00  0.00000000E+00  0.00000000E+00
  0.00000000E+00  0.00000000E+00  0.00000000E+00  0.00000000E+00  0.00000000E+00
  0.00000000E+00  0.00000000E+00  0.00000000E+00  0.00000000E+00  0.00000000E+00
  0.00000000E+00  0.00000000E+00  0.00000000E+00  0.00000000E+00  0.00000000E+00
  0.00000000E+00  0.00000000E+00  0.00000000E+00  0.00000000E+00  0.00000000E+00
  0.00000000E+00  0.00000000E+00  0.00000000E+00  0.00000000E+00  0.00000000E+00
  0.00000000E+00  0.00000000E+00  0.00000000E+00  0.00000000E+00  0.00000000E+00
IOpCl                                      I                0
IROHF                                      I                0
Alpha Orbital Energies                     R   N=         162
 -2.47499100E+01 -2.47498573E+01 -2.47498319E+01 -2.47498151E+01 -1.03718208E+01
 -1.03708987E+01 -1.32932905E+00 -1.31522671E+00 -1.27287036E+00 -1.26216924E+00
 -8.27639992E-01 -6.85013239E-01 -6.41661165E-01 -6.34103154E-01 -5.90832824E-01
 -5.77037397E-01 -5.34049475E-01 -5.07418553E-01 -4.85300619E-01 -4.78952526E-01
 -4.75550056E-01 -4.71309335E-01 -4.55735268E-01 -2.78910438E-01 -6.92144875E-03
  8.51434908E-03  1.83360910E-02  2.51578867E-02  5.01222732E-02  8.28739642E-02
  8.41078474E-02  8.72567488E-02  9.18711195E-02  1.06312675E-01  1.80196563E-01
  1.83468683E-01  1.90431148E-01  2.00315552E-01  2.31660221E-01  2.34927039E-01
  2.79076327E-01  2.80132408E-01  2.87727787E-01  2.99738291E-01  3.02950978E-01
  3.19311960E-01  3.32995126E-01  3.37538803E-01  3.51317941E-01  3.54084866E-01
  4.02072906E-01  4.39715580E-01  4.40812065E-01  4.76765277E-01  4.92610802E-01
  5.63269917E-01  6.19749724E-01  6.32212279E-01  6.88982795E-01  6.90995697E-01
  7.03806007E-01  7.13008483E-01  8.42847513E-01  9.05440992E-01  9.21139165E-01
  9.73763791E-01  1.04412033E+00  1.10825763E+00  1.16137410E+00  1.24336210E+00
  1.26664882E+00  1.26806598E+00  1.29081750E+00  1.31761336E+00  1.32917778E+00
  1.34450901E+00  1.36999549E+00  1.38042366E+00  1.38801545E+00  1.40449413E+00
  1.42709154E+00  1.46310244E+00  1.54386828E+00  1.56466081E+00  1.80656745E+00
  1.90883608E+00  1.93073499E+00  1.93471990E+00  1.93628709E+00  1.93844067E+00
  1.94374030E+00  1.99362086E+00  1.99795179E+00  2.14017495E+00  2.18145393E+00
  2.20108416E+00  2.21180724E+00  2.21535566E+00  2.21810794E+00  2.48086073E+00
  2.53469370E+00  2.66560834E+00  2.68134854E+00  2.75400517E+00  2.78635126E+00
  2.90322006E+00  2.92767723E+00  2.96065675E+00  3.05605854E+00  3.07219709E+00
  3.09798161E+00  3.19424941E+00  3.21511454E+00  3.24803307E+00  3.30670072E+00
  3.34481749E+00  3.46168370E+00  3.55811507E+00  3.59708770E+00  3.66232428E+00
  3.79938271E+00  4.04899611E+00  4.34795444E+00  4.63749283E+00  6.22225946E+00
  6.24595077E+00  6.24997960E+00  6.28680827E+00  6.28830210E+00  6.32231591E+00
  6.35557303E+00  6.38195772E+00  6.42562748E+00  6.71538068E+00  6.76230687E+00
  6.86050452E+00  8.97167345E+00  8.97917503E+00  8.99079139E+00  9.04497974E+00
  9.04547420E+00  9.04933011E+00  9.07551866E+00  9.08988643E+00  9.14923032E+00
  9.15847373E+00  9.21232046E+00  9.26204435E+00  9.35110371E+00  9.49549293E+00
  9.55007593E+00  9.58981738E+00  9.63688692E+00  9.65553399E+00  9.73899308E+00
  9.79777740E+00  2.37590877E+01  2.41066872E+01  6.67203475E+01  6.67950863E+01
  6.67956093E+01  6.68126142E+01
Alpha MO coefficients                      R   N=       26244
  1.39898906E-06  1.79934037E-06 -4.38176807E-07 -5.66655833E-06 -1.40194507E-05
  2.70480900E-04  9.08466092E-05  1.46587068E-04  1.05599270E-04 -2.70202081E-03
  1.34994568E-03  3.04890460E-03  3.94026257E-03  1.34994613E-02  1.83190728E-03
  1.35001219E-03 -2.24467520E-03  6.60483556E-05 -2.47843333E-05  1.64183283E-05
  2.12379519E-07  3.51860296E-06 -6.96094002E-04 -2.43541953E-05 -5.59296483E-04
  1.30196311E-04 -1.37851303E-04  3.44755013E-05 -1.36873031E-04 -4.91059030E-05
 -4.14621733E-05  4.57991644E-05 -8.24454003E-05  4.56448273E-04 -1.93556843E-05
 -1.52809375E-03  9.17186485E-03 -6.63362854E-06 -2.47558507E-03 -6.72086532E-03
 -1.42595918E-02  2.46237223E-03  2.39735621E-03 -1.43005130E-03  1.43430266E-04
 -2.21507668E-05  1.75387161E-05  2.32256187E-05 -1.33730879E-04  8.32908365E-04
 -4.60305596E-05  9.62966702E-04 -3.63859139E-04  1.12822435E-03  2.08518785E-02
  1.79494110E-02 -3.74717204E-06 -6.27656264E-06 -4.98095273E-06  6.21505624E-04
  3.75552415E-05 -7.08619345E-06 -1.40712805E-04 -4.09596097E-04 -7.41531734E-05
 -2.95377571E-05  1.59191260E-04 -2.13698105E-03 -1.27191754E-04  7.06183208E-05
  6.03644831E-04  1.13229001E-05 -3.05246094E-06  1.40359859E-06  1.34430618E-06
 -6.56236980E-06 -1.61427567E-05  1.60235624E-06  7.13871640E-07 -4.60067604E-06
  2.45207114E-05 -3.57931516E-02 -3.08204992E-02 -4.33571992E-05 -5.35775755E-05
 -5.77127037E-06 -1.04446742E-03  1.51837318E-05  2.81101485E-06 -4.14163586E-05
  2.22214459E-03  5.40090783E-04  6.25887638E-04 -4.11992585E-05  2.23956501E-03
  5.03358743E-04  6.86454676E-04  2.42474312E-04  3.01710682E-05 -6.23289136E-06
  6.93876733E-06  2.31197289E-06 -1.52287102E-05 -1.22876470E-04  4.28707687E-06
 -4.85696808E-05 -4.68709680E-06  7.51732023E-05  5.46052090E-01  4.70448510E-01
 -1.24273834E-04  1.99967732E-04  9.46308305E-04  1.28949998E-02 -1.02811316E-05
 -9.01266908E-06  8.68874400E-06 -1.17652743E-02  6.53409474E-04 -5.02221131E-04
 -3.47989670E-03 -1.20105142E-03 -6.15046156E-05 -4.40227550E-04 -1.00014394E-03
  2.27874481E-04 -6.31545316E-05  7.78788573E-05 -4.10234874E-06 -2.47502941E-06
 -6.88957640E-04  2.14179537E-04 -2.12275628E-04  6.69548874E-06 -4.97309862E-06
 -8.13358211E-03 -7.01535400E-03 -7.61759015E-06 -7.78229553E-06  3.42625711E-06
 -6.15164542E-05  6.39363758E-05  6.93139254E-05 -1.78813535E-05 -1.11710870E-03
  2.69654370E-04  5.53257663E-04  6.35280562E-04  9.75029112E-04 -4.30330613E-04
 -3.73413441E-04  3.73932910E-04  2.63816390E-05  3.12279985E-06  2.65957238E-05
 -7.44154116E-06  1.20721990E-05 -1.00281355E-04 -2.79169852E-05 -1.32985362E-04
  4.19843474E-05 -7.70463467E-05  3.43578046E-05 -1.34680147E-04  4.81854150E-05
  3.89882702E-05 -4.95822038E-05 -1.92039135E-05 -9.89659950E-04 -1.21549468E-03
 -1.11349272E-04  8.41058480E-03 -3.36640609E-03 -5.19648039E-03 -3.27104811E-03
 -1.09154514E-02 -1.48101568E-03 -8.70650605E-04  2.41596869E-03 -1.54029371E-04
  9.48547653E-05  3.47119014E-05 -3.17324009E-05  6.21097744E-05  6.72050634E-04
 -5.60880106E-05  8.19121145E-04 -3.26516823E-04  1.07331285E-03  9.48451815E-06
 -3.03927188E-05 -1.81799074E-05 -2.03690952E-05  3.27644322E-06  2.48109536E-04
  1.70201701E-04  1.98385913E-04 -9.77469191E-06 -5.10864662E-04  1.67786196E-03
  3.24089571E-03  3.40322621E-03  9.98603779E-03 -1.51192626E-03 -1.40577145E-03
  1.05841528E-03 -2.36665559E-05  1.85941145E-05  2.57084170E-05 -1.59197727E-05
  4.83507767E-05  2.02869254E-04 -3.09353089E-04 -3.57783627E-04  1.65786699E-04
 -3.03489357E-04 -1.34455087E-02 -1.15922041E-02  2.11553745E-06  4.17382490E-06
  4.52886662E-06 -1.89738872E-04 -3.30352789E-05 -1.52305830E-05  6.53124123E-05
 -8.47510679E-04  2.12667885E-04  4.82264013E-04  6.26167599E-04  9.11865279E-04
  3.99619733E-04  3.07691831E-04 -4.53833856E-04  4.29654409E-06  1.22509374E-05
  2.77272814E-05 -1.12757203E-05  2.49262078E-05 -5.10373340E-05 -5.14214062E-05
 -1.37673870E-04  5.07162370E-05 -1.01598120E-04  5.41164457E-01  4.66238420E-01
  5.37175980E-04  7.43971647E-04  2.89814842E-04  1.27638879E-02  2.11855324E-05
  1.96819001E-05 -1.48677653E-05 -1.14461741E-02 -2.03116077E-03 -2.69582685E-03
 -7.76585600E-04 -1.10912930E-03 -4.49600414E-04 -7.40456706E-04 -5.63258231E-04
 -8.68809019E-05  6.14250825E-05  9.21811446E-05 -5.96030173E-05  1.92729684E-04
  2.62450172E-04 -1.66009433E-04 -2.58562208E-04  1.75001848E-04 -5.91679449E-04
  3.70963143E-02  3.19763395E-02  1.33597461E-06  2.44765720E-05  6.23426331E-05
  6.89441025E-04 -2.57077792E-05 -3.29821679E-05 -6.72683252E-06  5.18442145E-04
 -2.21370227E-04 -1.78366492E-04  2.29772279E-04  2.18395243E-03 -1.77071907E-04
  7.29292955E-05  7.71008054E-04  8.01817029E-06  7.38273943E-06  2.24554627E-05
 -8.72931133E-06  2.01273438E-05 -6.46065068E-06 -5.57502996E-05 -9.97555800E-05
  3.89129554E-05 -6.95672649E-05  7.44251792E-02  6.41041042E-02 -5.63526888E-05
 -8.03647804E-05 -3.67273387E-05  1.90508047E-03 -8.25185610E-05 -1.04154123E-04
 -1.69490859E-05 -1.74842580E-03  3.67642946E-04  4.85854824E-04  1.34882183E-04
 -2.13308715E-03  3.64354558E-04  5.15292796E-04  2.25795717E-04 -1.55879646E-05
  1.20185625E-05  1.50382287E-05 -9.40490908E-06  2.77981357E-05  4.03905920E-05
 -3.52463743E-05 -4.41084717E-05  2.60234383E-05 -7.24507654E-05 -9.38489064E-06
  4.45696613E-05 -8.04916325E-06 -1.40903943E-06  2.21828522E-05  2.93654149E-04
  2.30976118E-04  1.39455309E-04 -3.66841729E-04 -5.56984100E-03 -6.78973230E-04
 -2.29268331E-03 -4.04998707E-03  1.78683600E-02  2.72455101E-03  2.39739707E-03
 -2.27741737E-03 -1.51253961E-05 -3.53986163E-06  1.22927954E-05 -1.32965870E-05
  6.73372988E-05 -2.57920484E-04 -2.81797276E-04 -8.84238555E-04  3.64023552E-04
 -9.18636573E-04  3.38112326E-05 -1.36527826E-04 -4.64099946E-05 -3.74712388E-05
  4.79577117E-05 -1.67169213E-04  9.98829710E-04  1.20177497E-03  4.45619468E-05
  9.97738600E-03  3.25810557E-03  4.96318439E-03  2.98645804E-03 -1.83869499E-02
  2.57469290E-03  1.79630981E-03 -3.43013981E-03 -1.56213686E-04  9.54633838E-05
  2.46530325E-05 -2.59703685E-05  3.87958388E-05  8.65296653E-04  3.15147330E-05
  1.13779956E-03 -4.33274817E-04  1.27564966E-03 -1.06117783E-01 -9.14078691E-02
 -3.58321132E-05  2.84110206E-05  1.93223645E-04 -2.71891814E-03  3.50424439E-05
  3.45825627E-05 -1.90785408E-05  3.92713904E-03  3.32761648E-04 -9.69610450E-05
 -1.33984172E-03  2.11690536E-03  4.19226144E-05 -2.72530703E-04 -8.77869250E-04
 -5.44109170E-05  2.07076563E-05 -6.52034853E-06 -4.36924389E-06  1.37362906E-05
  1.94351252E-04 -9.88207155E-05 -3.01322970E-06  2.26367458E-05 -3.95218770E-05
 -7.62569015E-02 -6.57123316E-02 -9.79417884E-05 -1.32219204E-04 -4.35055934E-05
 -1.69685548E-03  9.50933922E-05  1.17747545E-04  1.32964920E-05  1.88160101E-03
  3.04991698E-04  4.53710520E-04  2.49758978E-04 -1.95181107E-03 -3.24318763E-04
 -3.67076529E-04  4.87088286E-05  3.40095596E-06 -6.31038073E-06 -1.73279831E-05
  9.33068080E-06 -3.00388505E-05 -1.34892744E-05  1.85554522E-05  6.03188926E-05
 -3.42209422E-05  1.17728715E-04  6.97631728E-03  6.00179899E-03 -1.17937830E-05
  6.72823616E-07  3.99527684E-05  3.09626839E-04  4.98912190E-05  2.19706572E-05
 -1.01425060E-04 -1.66971554E-03 -1.27443306E-04 -4.75253479E-04 -8.82385575E-04
  8.15062425E-04 -3.91004343E-04 -3.39121366E-04  3.40199498E-04  1.42931780E-05
  6.86913288E-06  2.64474815E-05 -9.52551670E-06  2.09633489E-05 -9.13805773E-05
 -2.22035503E-05 -1.24910439E-04  4.17363018E-05 -8.93134559E-05  5.31818140E-01
  4.58185692E-01 -5.35409509E-04 -7.39605455E-04 -2.83754469E-04  1.25647050E-02
  1.02491676E-05  1.48137275E-05  7.22296678E-06 -1.16852514E-02  2.09959283E-03
  2.77776221E-03  7.78810781E-04 -1.06036106E-03  4.57709078E-04  7.61118912E-04
  5.93511694E-04 -8.90679673E-05  6.05811706E-05  8.87514676E-05 -5.84405302E-05
  1.90447150E-04  2.78233016E-04 -1.60990966E-04 -2.44469664E-04  1.72802161E-04
 -5.98584670E-04  3.48396530E-05 -1.36903847E-04  5.10173043E-05  4.48139386E-05
 -4.28692902E-05 -3.22984208E-05 -4.64635414E-04 -1.00518570E-05  1.47471372E-03
  8.69819179E-03 -4.21995291E-04  1.48905288E-03  5.42019465E-03 -1.17189289E-02
 -2.05959494E-03 -2.01007597E-03  1.18283009E-03  1.32306443E-04 -1.71915636E-05
  2.20404141E-05  1.90136371E-05 -1.18530847E-04  8.83871742E-04 -1.23435500E-04
  8.49873689E-04 -3.07919983E-04  9.93450869E-04  7.99027472E-06 -2.43401600E-05
 -8.77786984E-06 -1.48662119E-06  2.43138328E-05  2.53872932E-04  1.41916550E-04
  1.75980081E-04  2.06278660E-05 -9.69546843E-04 -4.47721262E-04 -1.49073673E-03
 -2.61312211E-03  1.08095562E-02 -1.49545745E-03 -1.19007729E-03  1.59265327E-03
  1.41506667E-05  2.34642586E-06  2.33003599E-05 -9.29879868E-06  2.70613824E-05
 -5.49986461E-04 -2.77741851E-05 -3.74038724E-04  5.80338016E-05  8.66763437E-05
  5.36729563E-01  4.62422231E-01  1.19025845E-04 -2.00463423E-04 -9.30826720E-04
  1.26137517E-02  1.53016354E-05  1.83278964E-05  4.69994805E-07 -1.11864267E-02
 -5.70993775E-04  5.24824114E-04  3.27534965E-03 -4.64606958E-04  1.04318645E-04
  3.93391214E-04  7.34367540E-04  2.21470193E-04 -5.88675017E-05  8.07678071E-05
 -6.19194654E-06  2.73101166E-06 -6.64966624E-04  1.92454250E-04 -2.29078055E-04
  1.61086520E-05 -2.22101808E-05 -1.29125415E-04 -1.24371386E-04  1.09109163E-05
  1.26365181E-05 -8.53871981E-07  1.75407994E-04 -4.14767560E-05 -4.01689938E-05
  2.46727533E-05 -1.38431535E-03 -3.40268039E-04 -6.33540479E-04 -6.25522185E-04
  2.66620233E-04  2.99760786E-04  2.00969971E-04 -4.21677913E-04  2.16588808E-05
  5.04204044E-06  2.68520777E-05 -8.28559145E-06  1.49523213E-05 -8.49245724E-05
 -3.24902415E-05 -1.30470437E-04  4.32897447E-05 -8.30831477E-05 -1.89078392E-02
 -1.63074860E-02  1.08646085E-05 -8.30502613E-06 -5.77345070E-05 -2.82767478E-04
 -2.62416201E-05  1.21383206E-05  1.17874384E-04  1.06107403E-04 -2.02190372E-05
 -6.35594186E-05 -1.07774655E-04 -1.80508493E-03  2.58823133E-05 -1.23266331E-04
 -4.19310596E-04 -2.46320376E-06  4.13536211E-06  3.27751042E-06 -1.21907852E-06
 -1.31046929E-07  1.40753855E-05 -2.43137863E-05 -2.02436627E-05  7.64526182E-06
 -9.69732637E-07  1.07328482E-01  9.24857084E-02 -9.82179840E-05 -1.42563209E-04
 -7.08109936E-05  2.32689043E-03 -2.27319389E-05 -1.01610353E-05  4.58090920E-05
 -7.68187768E-04 -9.54031675E-06  6.19207877E-05  1.99494795E-04  1.86255867E-03
 -3.49573166E-04 -4.56606884E-04 -1.13624493E-04  5.04202409E-06  9.54859524E-06
  2.89595332E-05 -1.28040824E-05  3.49269865E-05 -4.45863997E-05 -3.62849398E-05
 -1.05340959E-04  3.82947746E-05 -7.75418521E-05  3.94202922E-01  3.24336607E-01
 -2.87682746E-04 -2.38037596E-04  2.81623335E-04  1.41606006E-02 -8.47948571E-04
 -7.01060214E-04  8.31872985E-04 -7.33925477E-03 -7.95765506E-04 -6.59993078E-04
  7.74589859E-04 -1.90283030E-04 -4.09276057E-04 -3.38219829E-04  4.01808776E-04
  2.86884808E-04 -1.64390564E-04  2.05252770E-04 -1.02245152E-04  5.22774196E-04
  3.16820979E-04  1.33782153E-03  1.61108473E-03 -4.05346817E-04 -5.65666876E-04
  4.02003863E-01  3.30747493E-01  3.10394184E-04  2.57105009E-04 -3.03149212E-04
  1.44564485E-02  7.78801155E-04  6.43839451E-04 -7.63664641E-04 -7.19554122E-03
  6.88719041E-04  5.69197193E-04 -6.76080827E-04 -1.30195034E-04  3.97681962E-04
  3.28915834E-04 -3.89721092E-04  2.93533973E-04 -1.74413264E-04  2.04043908E-04
 -1.03198794E-04  5.38729032E-04  3.15601190E-04  1.27834477E-03  1.55240554E-03
 -3.91467832E-04 -5.30158187E-04 -2.73287470E-05 -8.40301135E-05  1.32053234E-05
 -4.00871309E-05 -1.51879246E-04  8.58994438E-04  2.17299653E-05  5.15521095E-05
  7.01660999E-05 -2.99078721E-03 -7.05195656E-04 -2.26576758E-06  2.27352978E-03
  2.52609468E-03  6.55612740E-04  1.86827812E-05 -2.06848905E-03  2.25179225E-04
 -6.52801567E-05  6.10772444E-05  4.63893761E-06 -3.34401424E-05 -1.05361824E-03
  3.30657212E-04 -2.57870944E-04 -2.95941168E-05  1.49872082E-04 -2.73227121E-05
 -8.40785148E-05  8.40632636E-05  1.20472699E-04  5.63809161E-05  8.59423676E-04
 -2.43529152E-05 -5.34459962E-05 -6.68486656E-05 -2.98754628E-03 -1.51446029E-03
 -1.83318032E-03 -9.72853640E-05  2.51739839E-03  1.38242078E-03  1.66561970E-03
  6.77781248E-05 -1.18031718E-04  6.93180483E-05  7.53510571E-05 -5.55165967E-05
  1.79840967E-04  5.62777216E-04 -3.03191894E-04 -3.24937663E-04  2.53640535E-04
 -8.54389421E-04 -2.79834613E-05 -8.59674505E-05 -1.32655918E-05  4.04602768E-05
  1.53074025E-04  8.74253003E-04 -2.33420134E-05 -5.11591808E-05 -6.38858777E-05
 -3.00701386E-03  7.00549078E-04 -1.15717840E-05 -2.29594666E-03  2.57141717E-03
 -6.54875281E-04 -8.56071251E-06  2.09351754E-03  2.28500326E-04 -6.58786775E-05
  6.29445511E-05  4.25816331E-06 -3.26660388E-05 -1.06537180E-03  3.31940027E-04
 -2.65814481E-04 -2.77436227E-05  1.46369955E-04 -2.79574705E-05 -8.58732962E-05
 -8.46224599E-05 -1.21453364E-04 -5.72588773E-05  8.73038424E-04  2.07676217E-05
  4.88939706E-05  6.60367861E-05 -3.00020743E-03  1.51914736E-03  1.84820892E-03
  1.23315425E-04  2.57295257E-03 -1.39552439E-03 -1.68918494E-03 -8.97554455E-05
 -1.17784713E-04  7.08744712E-05  7.83890402E-05 -5.67282106E-05  1.82304725E-04
  5.60108091E-04 -3.09908010E-04 -3.38148019E-04  2.58457729E-04 -8.62537741E-04
  4.02147078E-01  3.30499580E-01 -1.15359676E-03 -9.54689010E-04  1.12881437E-03
  1.51932462E-02  3.59609069E-03  2.97741187E-03 -3.51476131E-03  7.20214815E-03
  5.51671451E-03  4.56329829E-03 -5.40429835E-03  3.38771649E-03  6.53225808E-04
  5.40205574E-04 -6.40202648E-04  3.15624780E-04 -5.15978572E-04 -7.98224300E-05
 -4.78011348E-05  8.26516783E-04 -2.75235783E-04 -2.99683831E-03 -3.06423194E-03
  7.00840723E-04  1.88938689E-03 -3.94348840E-01 -3.24083381E-01 -1.14801352E-03
 -9.50306141E-04  1.12268208E-03 -1.49148644E-02  3.61088342E-03  2.98845560E-03
 -3.53270047E-03 -7.34430876E-03  5.53500267E-03  4.58394355E-03 -5.40643899E-03
 -3.39085443E-03  6.61590033E-04  5.48111464E-04 -6.45728240E-04 -3.09901036E-04
  5.12538216E-04  8.35792681E-05  4.58963431E-05 -8.16414060E-04  2.65420518E-04
  3.02843365E-03  3.09545355E-03 -7.11406068E-04 -1.89009963E-03 -3.24411742E-05
 -9.46418693E-05 -3.47945380E-06 -2.50473770E-05 -5.69762937E-05  7.26854568E-04
  8.08293259E-05 -2.28750090E-05 -3.23607818E-04 -5.80734195E-04  4.01127488E-04
  8.43451423E-04  1.00065752E-03  2.64378689E-03 -1.40859041E-04 -6.91266304E-04
 -1.42754467E-03  1.63670319E-04 -5.64882248E-06  1.19785884E-04 -2.75911079E-05
  3.76335342E-05 -5.66297501E-04 -5.20460299E-05 -5.16652298E-04  1.31950867E-04
 -1.68873651E-04 -3.23950926E-05 -9.44712993E-05  2.73856669E-05  4.48374559E-05
  3.35940937E-05  7.25223623E-04  2.05208703E-04  2.59242119E-04  4.27230768E-05
 -5.93054912E-04 -3.11695251E-04 -7.72193049E-04 -1.09558631E-03  2.63751437E-03
  6.56903407E-04  1.11834101E-03  9.22420861E-04 -4.86312019E-06  6.09248661E-05
  1.27238532E-04 -5.72269898E-05  1.41997280E-04 -6.34202552E-05 -2.51534893E-04
 -5.39694216E-04  2.20564300E-04 -4.79712512E-04  3.18930744E-05  9.29037648E-05
 -3.68075723E-06 -2.42927803E-05 -5.42653645E-05 -7.09260993E-04  8.04620278E-05
 -2.33483241E-05 -3.23670840E-04  5.36846375E-04  4.16592499E-04  8.48137527E-04
  9.63380245E-04 -2.58825692E-03 -1.54921209E-04 -6.92772980E-04 -1.38604733E-03
 -1.59391061E-04  4.23224141E-06 -1.18734253E-04  2.76797675E-05 -3.79751483E-05
  5.46544652E-04  5.95299906E-05  5.12874562E-04 -1.32683021E-04  1.70330346E-04
  3.18951613E-05  9.29660915E-05  2.56592693E-05  4.23860198E-05  3.25021251E-05
 -7.09719460E-04  2.06176702E-04  2.61096651E-04  4.46817847E-05  5.21355105E-04
 -2.80009314E-04 -7.31502369E-04 -1.08722582E-03 -2.59353726E-03  6.30869610E-04
  1.08633518E-03  9.19532296E-04  2.36355337E-06 -5.92562814E-05 -1.25566800E-04
  5.60762136E-05 -1.38629188E-04  7.50130145E-05  2.43761794E-04  5.31825913E-04
 -2.15177791E-04  4.63893411E-04 -3.84517790E-02 -5.85223920E-02 -1.40863130E-02
 -1.16338632E-02  1.38519293E-02  1.55086168E-01 -1.31187981E-02 -1.08279994E-02
  1.29193795E-02 -4.53155520E-02  2.16334591E-02  1.78697309E-02 -2.12628337E-02
  7.67148607E-03  5.08340335E-03  4.21095428E-03 -4.96194706E-03  4.89963004E-03
 -1.04750679E-03  5.10853312E-03 -2.08458451E-03  7.60260368E-03 -1.92424347E-03
  1.51590255E-03 -1.00910746E-03  6.11847378E-04 -3.83999206E-03 -3.86267201E-02
 -5.87874193E-02  1.42269118E-02  1.17730049E-02 -1.39203990E-02  1.55764786E-01
  1.33131471E-02  1.10211240E-02 -1.30148683E-02 -4.57831659E-02 -2.16663709E-02
 -1.79104922E-02  2.12542027E-02  9.00890764E-03 -5.27443482E-03 -4.36601833E-03
  5.15848526E-03  4.93898633E-03 -1.04816482E-03  5.14533179E-03 -2.09532287E-03
  7.62832535E-03 -1.94724273E-03  1.54577301E-03 -9.96087399E-04  6.07653880E-04
 -3.85786967E-03 -5.69656454E-02 -9.20058834E-02  2.41809043E-03 -6.39629864E-03
 -2.52394301E-02  2.70597176E-01  3.97271591E-03 -1.03970756E-02 -4.11625601E-02
  2.24777079E-01  2.91263234E-03 -1.01344102E-02 -3.70201331E-02  6.11937422E-03
 -4.14240885E-03 -5.02016033E-03 -2.83185307E-04  1.39519103E-03 -2.53783604E-04
  6.06592075E-04 -5.60715754E-05 -9.31067583E-05  8.27307529E-03 -1.62443987E-03
  3.79331082E-03 -4.97124794E-04  3.02436980E-04 -5.68854526E-02 -9.18764192E-02
  1.40858279E-02  2.00380441E-02  9.04249626E-03  2.70219421E-01  2.29889601E-02
  3.26835898E-02  1.47039526E-02  2.24471824E-01  2.03504034E-02  2.93703775E-02
  1.42097520E-02  6.05688949E-03 -1.94319112E-03 -2.40763116E-05  6.21501278E-03
 -5.33392428E-04  5.02585530E-04  6.86169794E-04 -3.93710742E-04  1.10364101E-03
 -2.50439295E-03  2.60862816E-03  4.24548055E-03 -2.38617474E-03  6.98940752E-03
 -5.72697733E-02 -9.24977187E-02 -2.44533117E-03  6.41371867E-03  2.53721847E-02
  2.72054071E-01 -4.02074219E-03  1.04235057E-02  4.13851612E-02  2.25974989E-01
 -2.94471220E-03  1.01669926E-02  3.72086559E-02  6.13797982E-03  4.14453275E-03
  5.03117055E-03  3.05310428E-04  1.40346755E-03 -2.57590970E-04  6.07679574E-04
 -5.56578566E-05 -9.32599042E-05  8.31934962E-03 -1.64002294E-03  3.80436384E-03
 -4.95756029E-04  2.96367592E-04 -5.72141883E-02 -9.24075578E-02 -1.41520164E-02
 -2.01496841E-02 -9.13510204E-03  2.71783891E-01 -2.30980521E-02 -3.28661066E-02
 -1.48526446E-02  2.25732540E-01 -2.04292645E-02 -2.95073756E-02 -1.43314910E-02
  6.06657507E-03  1.93399869E-03  6.95351099E-06 -6.23286786E-03 -5.34297596E-04
  5.07704965E-04  6.93896543E-04 -3.96794994E-04  1.10907909E-03 -2.50472507E-03
  2.62914030E-03  4.28114348E-03 -2.40036213E-03  7.01774943E-03 -3.13146149E-02
 -4.75362082E-02 -2.21363063E-02 -1.83027124E-02  2.17096556E-02  1.22858864E-01
 -3.14410456E-02 -2.60021187E-02  3.08172783E-02 -7.97925094E-02  7.30918495E-03
  6.07612081E-03 -7.08421967E-03  2.57938313E-01  3.74809758E-02  3.10171162E-02
 -3.66762278E-02  4.70410868E-03  5.54610446E-04  6.32679783E-03 -2.30199824E-03
  6.12645750E-03 -1.86743737E-03  4.38516258E-03  1.74594576E-03 -1.02757037E-05
 -5.74280429E-03  3.11146658E-02  4.72313326E-02 -2.20606403E-02 -1.82354861E-02
  2.16418741E-02 -1.22049633E-01 -3.13664654E-02 -2.59341227E-02  3.07540990E-02
  7.95703375E-02  7.14649367E-03  5.87416964E-03 -7.09673954E-03 -2.57891519E-01
  3.74624421E-02  3.10148264E-02 -3.66233681E-02 -4.69574648E-03 -5.54811000E-04
 -6.30184312E-03  2.28844571E-03 -6.07632847E-03  1.71521974E-03 -4.32322136E-03
 -1.74701209E-03 -1.09951801E-05  5.81196255E-03 -5.90220426E-02 -9.53984881E-02
  1.39502544E-03 -7.40033725E-03 -2.46670245E-02  2.81728436E-01  2.81518033E-03
 -1.16693173E-02 -4.08860796E-02  2.31548517E-01  1.29894399E-03 -1.10564651E-02
 -3.43149687E-02  2.72533220E-03 -7.04722739E-04 -2.25302287E-03 -3.85815454E-03
  1.42665375E-03 -2.20838172E-04  6.91275591E-04 -8.67556156E-05 -3.47458622E-05
  7.90091225E-03 -1.17650824E-03  3.89485586E-03 -5.04286387E-04 -1.66822400E-04
 -5.89868111E-02 -9.53411476E-02  1.32965319E-02  1.95477157E-02  1.02584037E-02
  2.81555830E-01  2.22859974E-02  3.24215170E-02  1.62623658E-02  2.31373784E-01
  1.81776676E-02  2.71460551E-02  1.51753120E-02  2.80489956E-03  1.63018106E-03
  3.03450504E-03  2.99532277E-03 -4.68519506E-04  5.23676085E-04  7.71108740E-04
 -4.19095435E-04  1.14154211E-03 -2.54531207E-03  2.91528178E-03  4.32161191E-03
 -2.33228314E-03  6.31972766E-03  5.87808564E-02  9.50088831E-02  1.41123994E-03
 -7.34489292E-03 -2.45656586E-02 -2.80582978E-01  2.84031617E-03 -1.15772216E-02
 -4.07116888E-02 -2.30526291E-01  1.34283796E-03 -1.09362575E-02 -3.41260415E-02
 -2.78974683E-03 -6.87167410E-04 -2.24839679E-03 -3.90325654E-03 -1.42228035E-03
  2.21598401E-04 -6.87274888E-04  8.58125681E-05  3.53173856E-05 -7.86428696E-03
  1.18980947E-03 -3.85447247E-03  4.94843346E-04  1.66922082E-04  5.86090451E-02
  9.47311340E-02  1.31910764E-02  1.94164625E-02  1.02443187E-02 -2.79761015E-01
  2.21194371E-02  3.22146336E-02  1.62416865E-02 -2.29941433E-01  1.80281079E-02
  2.69734180E-02  1.51916308E-02 -2.68899993E-03  1.62440893E-03  3.00533978E-03
  2.93354702E-03  4.62878288E-04 -5.21294643E-04 -7.68842874E-04  4.16872103E-04
 -1.13357270E-03  2.51429631E-03 -2.91589851E-03 -4.32128017E-03  2.32246280E-03
 -6.26471369E-03  1.85774505E-05  2.80954942E-05  1.41971087E-02  3.21021565E-02
  4.15428086E-02 -6.32604168E-05  1.74414157E-02  3.94235590E-02  5.09965434E-02
  5.86318829E-05 -2.19058906E-03 -4.89720682E-03 -6.25734446E-03 -2.57990086E-04
  1.45994166E-03  3.34501754E-03  4.39134359E-03  9.23930737E-03 -3.62868734E-03
 -3.91981319E-04  1.62221765E-03 -5.74413615E-03  4.72172356E-03 -1.85043294E-03
 -1.96494558E-04  8.28101589E-04 -2.93847009E-03 -2.53950013E-05 -3.92011642E-05
  1.42261025E-02  3.22617821E-02  4.18835994E-02  1.14762431E-04  1.74623637E-02
  3.96013315E-02  5.14127504E-02  8.14886327E-06 -2.37725468E-03 -5.40128531E-03
 -7.02661236E-03  2.67657375E-04  1.45940017E-03  3.38246668E-03  4.49506163E-03
 -9.30891907E-03  3.67699245E-03  4.20304239E-04 -1.64232315E-03  5.78980015E-03
 -4.81778146E-03  1.90832250E-03  2.15076623E-04 -8.46506446E-04  2.97363405E-03
 -6.15993808E-02 -9.96907671E-02  4.55749001E-03 -2.27899679E-03 -2.09411018E-02
  2.96448347E-01  6.75057597E-03 -4.64546379E-03 -3.44768501E-02  2.29655877E-01
  6.90113802E-03 -1.05000364E-03 -2.51696939E-02 -7.64331012E-03  6.13952436E-04
  1.30738851E-03  1.57609376E-03  1.30206998E-03 -3.58889583E-04  3.74639145E-04
  2.04706975E-05 -1.95948920E-04  7.23576449E-03 -2.55609100E-03  1.96082990E-03
 -1.82404305E-05  3.11660851E-04  6.17224819E-02  9.98900820E-02 -1.29985568E-02
 -1.68171028E-02 -3.78424444E-03 -2.97046119E-01 -2.10277862E-02 -2.76488710E-02
 -7.33040460E-03 -2.30125465E-01 -1.63290327E-02 -2.02919309E-02 -2.48297705E-03
  7.59845734E-03  4.85457988E-04  1.19252958E-03  1.67937687E-03  6.72777367E-04
 -4.16556083E-04 -4.58403443E-04  3.26325915E-04 -1.03233562E-03  2.89421111E-03
 -1.42789697E-03 -2.39709521E-03  1.79878826E-03 -6.60942568E-03  6.20584652E-02
  1.00433744E-01  4.59911160E-03 -2.28513018E-03 -2.10894079E-02 -2.98655391E-01
  6.81903702E-03 -4.65495463E-03 -3.47190409E-02 -2.31468863E-01  6.96362027E-03
 -1.05095033E-03 -2.53714708E-02  7.20808879E-03  6.50255262E-04  1.28938346E-03
  1.41002904E-03 -1.31204298E-03  3.63893279E-04 -3.75501213E-04 -2.10896585E-05
  1.95992116E-04 -7.28680581E-03  2.57920307E-03 -1.96531148E-03  1.41889466E-05
 -3.04122282E-04 -6.21385443E-02 -1.00562743E-01 -1.30784784E-02 -1.69329846E-02
 -3.84427293E-03  2.99028066E-01 -2.11527277E-02 -2.78339628E-02 -7.43530389E-03
  2.31821637E-01 -1.64730476E-02 -2.04744546E-02 -2.51712764E-03 -7.25943372E-03
  4.11394613E-04  1.09514018E-03  1.65308254E-03 -6.75451550E-04  4.21595153E-04
  4.65248845E-04 -3.29409722E-04  1.03886240E-03 -2.90930853E-03  1.44609418E-03
  2.42396443E-03 -1.81275204E-03  6.64768767E-03 -1.32263331E-06 -1.68318364E-06
  1.29365144E-02  2.92967129E-02  3.79766708E-02  1.07550848E-06  1.54592764E-02
  3.50268659E-02  4.54288382E-02 -3.00114223E-04 -3.31586729E-02 -7.48823833E-02
 -9.67675775E-02  4.03762391E-04  3.90011207E-03  8.75599500E-03  1.12409519E-02
  1.08454469E-02 -4.25623644E-03 -4.53648001E-04  1.90142992E-03 -6.73649028E-03
  1.41498231E-02 -5.54891343E-03 -5.87990884E-04  2.47987936E-03 -8.79529708E-03
  3.11481989E-05  4.76152549E-05 -1.28301687E-02 -2.90735364E-02 -3.77122905E-02
 -1.21460269E-04 -1.53535944E-02 -3.47715774E-02 -4.50747804E-02  3.24632995E-04
  3.28197116E-02  7.45895466E-02  9.70653912E-02 -4.13662829E-04 -3.77384142E-03
 -8.63621268E-03 -1.13228416E-02  1.07694070E-02 -4.25431175E-03 -4.86608103E-04
  1.90004582E-03 -6.69755603E-03  1.41088674E-02 -5.57813302E-03 -6.36712478E-04
  2.48705866E-03 -8.75693106E-03 -6.31585799E-02 -1.02167796E-01  3.72637722E-03
 -3.01742185E-03 -2.02657403E-02  3.02535706E-01  5.73805616E-03 -5.25332496E-03
 -3.28593068E-02  2.52686759E-01  8.42858531E-03 -9.26780889E-04 -2.97717416E-02
  5.05218497E-02  3.84140381E-03 -2.27924369E-03 -1.86283542E-02  1.30517228E-03
 -3.45442709E-04  4.42074694E-04 -1.51131777E-05 -7.31958112E-05  7.04147147E-03
 -2.25708409E-03  1.82747694E-03  1.16491909E-04 -5.97701614E-04  6.31570884E-02
  1.02164927E-01 -1.22186903E-02 -1.62044569E-02 -4.63652615E-03 -3.02520965E-01
 -1.96574825E-02 -2.62558355E-02 -7.96594523E-03 -2.52709556E-01 -1.94494633E-02
 -2.39923774E-02 -2.47463606E-03 -5.06248322E-02 -1.14477482E-02 -1.49420770E-02
 -3.68876462E-03  5.58021545E-04 -3.86070546E-04 -5.19916236E-04  3.41608933E-04
 -1.08288632E-03  3.44114561E-03 -1.85270370E-03 -2.26366630E-03  1.72139088E-03
 -5.92059213E-03 -6.26591565E-02 -1.01359308E-01 -3.71462920E-03  2.97058394E-03
  2.00972404E-02  3.00126419E-01 -5.72145095E-03  5.17209356E-03  3.25798234E-02
  2.50835413E-01 -8.41928816E-03  8.67649544E-04  2.95768741E-02  5.06957734E-02
 -3.84427991E-03  2.29225547E-03  1.86687772E-02  1.29504719E-03 -3.44480725E-04
  4.36793836E-04 -1.44350778E-05 -7.24324934E-05  6.98382254E-03 -2.25432295E-03
  1.79341283E-03  1.21786238E-04 -5.94397947E-04  6.27910094E-02  1.01572689E-01
  1.21350242E-02  1.61126530E-02  4.65971587E-03 -3.00762494E-01  1.95238110E-02
  2.61056483E-02  7.99326615E-03 -2.51331330E-01  1.93266915E-02  2.38659615E-02
  2.53070614E-03 -5.05981799E-02  1.14391132E-02  1.49366880E-02  3.70602140E-03
  5.52195574E-04 -3.85283819E-04 -5.20529445E-04  3.40507455E-04 -1.07700521E-03
  3.41679355E-03 -1.86090665E-03 -2.27017634E-03  1.71494413E-03 -5.87067134E-03
 -7.82875996E-02 -1.22561303E-01  6.18428418E-02  5.11817031E-02 -6.05049798E-02
  3.46932246E-01  7.90051422E-02  6.53864063E-02 -7.72929101E-02  1.62540364E-01
  1.69864039E-02  1.40558206E-02 -1.66249194E-02 -4.21061090E-03  6.10502467E-03
  5.04936620E-03 -5.98252416E-03  1.40184119E-03 -7.34993626E-03 -4.95825134E-03
  7.58103997E-04  7.48918594E-03  1.16211959E-03  9.21624796E-04  2.28713053E-03
 -7.25129822E-04  9.45485310E-04 -7.82888971E-02 -1.22563552E-01 -6.18505963E-02
 -5.11963846E-02  6.04902942E-02  3.46938514E-01 -7.90158815E-02 -6.54048282E-02
  7.72774338E-02  1.62573745E-01 -1.69937088E-02 -1.40729826E-02  1.66023816E-02
 -4.26698095E-03 -6.09946200E-03 -5.04921396E-03  5.96474470E-03  1.40998990E-03
 -7.35156657E-03 -4.95662905E-03  7.58894532E-04  7.48428832E-03  1.17219795E-03
  9.19961532E-04  2.29111033E-03 -7.25346048E-04  9.43486827E-04  2.50009811E-02
  4.09149542E-02  1.88470446E-02  4.83373084E-03 -4.77603385E-02 -1.27718057E-01
  2.70300622E-02  7.11553131E-03 -6.79982196E-02 -1.20222793E-01  1.88979565E-02
  5.91797420E-03 -4.49714830E-02 -2.03100017E-02 -3.75401580E-03 -1.31054166E-03
  8.56605728E-03  1.25443197E-03 -7.51281428E-04 -9.16508250E-05  1.48807166E-04
 -9.17372147E-05  4.41782865E-03 -3.35452066E-03 -1.09012043E-03  7.35243882E-04
 -9.45556264E-05  2.49622451E-02  4.08514938E-02  3.37754500E-02  3.86841179E-02
 -3.81987384E-03 -1.27520712E-01  4.81863436E-02  5.50883486E-02 -5.72472698E-03
 -1.20026223E-01  3.23818334E-02  3.64936569E-02 -5.28116948E-03 -2.03058091E-02
 -6.25514758E-03 -6.97125935E-03  1.23311252E-03 -8.25302165E-04  6.57388289E-05
 -4.06043301E-06 -2.15855007E-04  1.19917147E-03 -3.16805663E-03 -3.71938094E-04
 -7.68144771E-04 -5.95593221E-04  4.61310608E-03  2.49771791E-02  4.08760509E-02
 -1.88742366E-02 -4.88125969E-03  4.77141480E-02 -1.27596764E-01 -2.70678251E-02
 -7.18180905E-03  6.79331880E-02 -1.20113930E-01 -1.89204155E-02 -5.95896309E-03
  4.49281730E-02 -2.03310487E-02  3.76217124E-03  1.31733165E-03 -8.57315030E-03
  1.25251023E-03 -7.52584424E-04 -9.40839116E-05  1.49316753E-04 -9.08230703E-05
  4.40799237E-03 -3.35620533E-03 -1.09726482E-03  7.36301358E-04 -9.12257155E-05
  2.49978872E-02  4.09098827E-02 -3.38160977E-02 -3.87537849E-02  3.75719219E-03
 -1.27702265E-01 -4.82438366E-02 -5.51861011E-02  5.63818441E-03 -1.20217793E-01
 -3.24163417E-02 -3.65515108E-02  5.23119420E-03 -2.03060939E-02  6.25039442E-03
  6.96923646E-03 -1.22254031E-03 -8.26500227E-04  6.82222503E-05 -1.20543446E-06
 -2.16992770E-04  1.20081877E-03 -3.17490342E-03 -3.64583622E-04 -7.60555739E-04
 -5.99401353E-04  4.62144505E-03 -4.93433777E-02 -7.82855188E-02 -3.87990162E-02
 -3.20991697E-02  3.79959720E-02  2.28173673E-01 -6.21122826E-02 -5.13897067E-02
  6.08176851E-02  1.11926753E-01  7.79896633E-03  6.46873388E-03 -7.59579078E-03
 -1.35174000E-01 -1.76513867E-02 -1.46037174E-02  1.72791126E-02  3.29485492E-03
 -3.21597748E-04  3.78616132E-03 -1.47687160E-03  4.82982390E-03  2.58826175E-03
  2.07293574E-03  5.13790879E-03 -1.63515591E-03  2.15631446E-03  4.93412220E-02
  7.82822972E-02 -3.88906290E-02 -3.21762995E-02  3.80752176E-02 -2.28174196E-01
 -6.22379447E-02 -5.14973662E-02  6.09206513E-02 -1.11862505E-01  7.76316788E-03
  6.41537820E-03 -7.61682750E-03  1.35179552E-01 -1.76628190E-02 -1.46270520E-02
  1.72583083E-02 -3.30746234E-03  3.22574783E-04 -3.79244442E-03  1.47681331E-03
 -4.82575864E-03 -2.69001971E-03 -2.02491440E-03 -5.12434656E-03  1.61406465E-03
 -2.09331922E-03  2.54301054E-02  4.16578011E-02 -4.50899060E-04 -4.20143915E-02
 -1.12982656E-01 -1.30771081E-01 -4.51700752E-04 -6.05288818E-02 -1.63410625E-01
 -1.37025355E-01 -4.19551590E-03 -4.75710663E-02 -1.16012341E-01  1.72898923E-03
  2.04788433E-03 -1.60041403E-03 -1.09784107E-02  2.62224525E-03 -2.07081975E-04
  1.50629958E-03 -2.31244864E-04 -7.68945106E-05  8.80329408E-03  1.19306634E-04
  5.99838415E-03 -1.05548566E-03 -3.72002234E-04  2.54264464E-02  4.16518955E-02
  5.75410078E-02  8.92430501E-02  5.70574811E-02 -1.30754002E-01  8.33228763E-02
  1.29083825E-01  8.22264583E-02 -1.37034951E-01  5.72131030E-02  9.14213013E-02
  6.40498347E-02  1.74052692E-03  6.62581189E-03  8.78424310E-03  2.50859208E-03
 -7.44924003E-04  1.11447070E-03  1.64735563E-03 -8.21657210E-04  2.01468798E-03
 -2.07481277E-03  4.38484065E-03  6.44875217E-03 -2.96108456E-03  6.38366176E-03
 -2.54549321E-02 -4.16984662E-02 -3.59533229E-04 -4.19909674E-02 -1.13200976E-01
  1.30898042E-01 -3.18197878E-04 -6.04922737E-02 -1.63723219E-01  1.37209864E-01
 -4.10000231E-03 -4.75351545E-02 -1.16210238E-01 -1.73962489E-03  2.03583923E-03
 -1.62297414E-03 -1.10017580E-02 -2.62913279E-03  2.11611567E-04 -1.50523983E-03
  2.30151008E-04  7.81808423E-05 -8.82308450E-03 -1.02777986E-04 -5.98982374E-03
  1.05032411E-03  3.78992790E-04 -2.54303839E-02 -4.16582336E-02  5.74336536E-02
  8.91961477E-02  5.72887867E-02  1.30772362E-01  8.31699329E-02  1.29019938E-01
  8.25643477E-02  1.37015788E-01  5.71048831E-02  9.13849336E-02  6.43124738E-02
 -1.73380170E-03  6.63290062E-03  8.78823002E-03  2.49550057E-03  7.38994285E-04
 -1.11758529E-03 -1.65366157E-03  8.22561486E-04 -2.01113855E-03  2.04820916E-03
 -4.39867852E-03 -6.47688720E-03  2.96530439E-03 -6.36782530E-03  6.64113414E-03
  1.09179251E-02  8.35805703E-02  6.93444106E-02 -8.13106236E-02 -3.40800644E-02
  1.16421880E-01  9.65983682E-02 -1.13242688E-01  2.07077526E-02  1.69976008E-02
  1.41007749E-02 -1.65379597E-02  3.22901255E-03 -1.59748434E-03 -1.33649272E-03
  1.52641313E-03 -2.39776619E-03 -1.28676989E-03 -4.15623243E-03  1.37699445E-03
 -2.40910582E-03  3.16988020E-03  1.06535961E-02  1.36646104E-02 -3.55035994E-03
 -3.52024870E-03  6.59144381E-03  1.08384237E-02 -8.33066925E-02 -6.87643150E-02
  8.19938506E-02 -3.38504085E-02 -1.16024389E-01 -9.57682472E-02  1.14202025E-01
  2.08585626E-02 -1.69472668E-02 -1.39947758E-02  1.66627669E-02  3.29462640E-03
  1.56394250E-03  1.28131763E-03 -1.56779985E-03 -2.44022228E-03 -1.26666123E-03
 -4.14838569E-03  1.36647236E-03 -2.37668325E-03  3.23000185E-03  1.06397320E-02
  1.36748802E-02 -3.54443165E-03 -3.55449866E-03 -1.53177108E-02 -2.50832835E-02
  3.38544067E-02  7.35460501E-02  9.08852293E-02  7.90248598E-02  4.85226516E-02
  1.06392468E-01  1.32935070E-01  7.36634261E-02  3.86027387E-02  8.16292980E-02
  9.75528508E-02  8.08638769E-03  4.01757835E-03  7.91719410E-03  8.57663198E-03
 -2.00053807E-03 -5.42490970E-04 -2.05277926E-03  4.74246297E-04 -7.85815732E-05
 -6.54288380E-03 -3.67211555E-03 -8.67115279E-03  2.05650934E-03  5.99430804E-04
 -1.54938364E-02 -2.53725199E-02 -3.03132251E-02 -7.08746981E-02 -9.50440709E-02
  7.99496703E-02 -4.48194128E-02 -1.03702595E-01 -1.37561672E-01  7.45791247E-02
 -3.14475842E-02 -7.59815693E-02 -1.05285683E-01  8.07470026E-03 -2.43669113E-03
 -6.63462646E-03 -1.01951199E-02  8.95188271E-06 -1.33012463E-03 -2.14066782E-03
  8.29276676E-04 -1.33914138E-03 -4.49721362E-04 -6.03844002E-03 -8.92079667E-03
  3.13067283E-03 -3.24665773E-03 -1.54765339E-02 -2.53439899E-02 -3.33952759E-02
 -7.34152947E-02 -9.20039151E-02  7.98571288E-02 -4.78616996E-02 -1.06205888E-01
 -1.34549827E-01  7.45023736E-02 -3.80603106E-02 -8.14393678E-02 -9.87784029E-02
  8.04488180E-03 -3.98573098E-03 -7.92069264E-03 -8.68867212E-03 -2.02761344E-03
 -5.29112448E-04 -2.05333332E-03  4.71530250E-04 -7.39088209E-05 -6.64457742E-03
 -3.60224934E-03 -8.65431995E-03  2.04191657E-03  6.04861961E-04 -1.52866593E-02
 -2.50324587E-02  2.93466615E-02  6.97537468E-02  9.51235592E-02  7.88657587E-02
  4.34237514E-02  1.02083222E-01  1.37674415E-01  7.34813538E-02  3.03738843E-02
  7.47559862E-02  1.05427645E-01  8.06011085E-03  2.36049073E-03  6.54163522E-03
  1.01885058E-02 -1.24343130E-05 -1.32442806E-03 -2.13700177E-03  8.22813458E-04
 -1.31104456E-03 -5.35017605E-04 -6.03386549E-03 -8.92416610E-03  3.10930374E-03
 -3.12464594E-03 -6.13995937E-06 -8.05146559E-06 -3.01869664E-02 -6.88990210E-02
 -9.00771958E-02  1.13139081E-05 -4.32622242E-02 -9.87144729E-02 -1.29018225E-01
  1.74880331E-04 -8.68895068E-03 -1.98731358E-02 -2.60400527E-02  3.71409762E-06
  1.51253727E-03  3.42685587E-03  4.44447287E-03 -5.32633549E-03  2.07462156E-03
  1.97378239E-04 -9.23972888E-04  3.29166192E-03  1.95403882E-03 -7.21651749E-04
 -2.90226835E-05  3.26866114E-04 -1.22016334E-03  2.19541427E-05  3.70836372E-05
 -3.09385825E-02 -6.95798948E-02 -8.95017576E-02 -1.20722048E-04 -4.43105105E-02
 -9.96639298E-02 -1.28215223E-01  1.13372687E-05 -8.87290232E-03 -1.99783481E-02
 -2.57322228E-02  3.87861400E-06  1.52902268E-03  3.46185465E-03  4.48623078E-03
  5.31727562E-03 -2.11157382E-03 -2.59392397E-04  9.45835372E-04 -3.32161008E-03
 -1.91075822E-03  8.06728366E-04  1.46536700E-04 -3.55091200E-04  1.18193622E-03
 -1.88493880E-02 -3.09102648E-02 -4.07915356E-02 -3.29849731E-03  1.22886636E-01
  9.79243991E-02 -5.87206415E-02 -4.43994426E-03  1.77738965E-01  1.03123016E-01
 -4.72136378E-02 -7.53599488E-03  1.32105950E-01  8.82648201E-03 -2.78447223E-03
  9.88161996E-05  9.27099050E-03 -2.71939492E-03  1.08990344E-03 -4.42357347E-04
 -1.26647691E-04  2.28199433E-04 -9.82884587E-03  5.81330931E-03  2.18869818E-04
 -8.86007496E-04 -3.09712281E-04  1.87248593E-02  3.07065152E-02  8.29524499E-02
  9.86756756E-02  6.02270277E-04 -9.72843460E-02  1.19831478E-01  1.42694953E-01
  1.27865516E-03 -1.02508621E-01  9.08714713E-02  1.06276512E-01 -4.29532874E-03
 -8.66694551E-03  6.12530272E-03  7.43673356E-03  4.53677922E-04 -1.46822028E-03
  5.41936500E-04  5.98829851E-04 -6.00276152E-04  2.36125213E-03 -5.54705397E-03
  1.70285731E-04  3.51848410E-04 -1.78381337E-03  9.83271726E-03  1.87380357E-02
  3.07279323E-02 -4.12918178E-02 -4.12276815E-03  1.22239525E-01 -9.73501882E-02
 -5.94401585E-02 -5.63240436E-03  1.76788922E-01 -1.02595554E-01 -4.77722558E-02
 -8.44489084E-03  1.31415512E-01 -8.59424350E-03 -2.84671162E-03  2.00923792E-05
  9.25550604E-03  2.70535775E-03 -1.10138256E-03  4.19040872E-04  1.32760938E-04
 -2.28494490E-04  9.78047031E-03 -5.86877203E-03 -3.14752374E-04  9.10954086E-04
  3.17580374E-04 -1.88869061E-02 -3.09718313E-02  8.32976163E-02  9.94914401E-02
  1.72630647E-03  9.81206928E-02  1.20339526E-01  1.43885742E-01  2.90580844E-03
  1.03306774E-01  9.12367717E-02  1.07150071E-01 -3.07768938E-03  8.73630168E-03
  6.15409627E-03  7.51283613E-03  5.70244586E-04  1.46816963E-03 -5.60177199E-04
 -6.26782643E-04  6.10608949E-04 -2.37596771E-03  5.54523669E-03 -2.44559717E-04
 -4.58055605E-04  1.82064180E-03 -9.87047111E-03 -2.66554632E-06 -3.66009043E-06
 -2.71248777E-02 -6.14349853E-02 -7.96472781E-02 -3.56408122E-06 -3.86604272E-02
 -8.75537823E-02 -1.13497487E-01  2.08597614E-04  2.02186615E-02  4.57206761E-02
  5.91687029E-02  5.46786457E-04  1.01827899E-02  2.29336146E-02  2.95468457E-02
 -1.41208904E-02  5.54649363E-03  5.95462301E-04 -2.47685895E-03  8.76884747E-03
 -2.28519349E-02  8.98867555E-03  9.81314921E-04 -4.01449754E-03  1.41990879E-02
 -1.47329363E-05 -2.46883685E-05  2.70521729E-02  6.13140444E-02  7.95503424E-02
  7.63231605E-05  3.85510864E-02  8.73739201E-02  1.13357225E-01 -1.40342092E-04
 -2.01133636E-02 -4.56627649E-02 -5.93527717E-02 -5.48983426E-04 -9.98647119E-03
 -2.27687433E-02 -2.97324921E-02 -1.41049956E-02  5.56328212E-03  6.23534421E-04
 -2.48326836E-03  8.76363045E-03 -2.28599259E-02  9.00134906E-03  9.90848185E-04
 -4.01803326E-03  1.41984545E-02 -1.44342875E-02 -2.36648154E-02 -3.47003045E-02
  9.95613178E-03  1.39299372E-01  7.54189125E-02 -5.00899846E-02  1.44938047E-02
  2.01411692E-01  7.77894958E-02 -4.35012284E-02  5.27204507E-03  1.54991877E-01
 -5.21368051E-02 -4.78712020E-03  4.90657203E-03  2.88429645E-02 -2.95202115E-03
  9.44483096E-04 -7.79898043E-04 -4.10248202E-05  2.21363952E-04 -1.03585740E-02
  4.75064014E-03 -1.03163972E-03 -6.63729059E-04  6.87628908E-04  1.44306783E-02
  2.36593038E-02  8.85553293E-02  1.11892102E-01  1.84836359E-02 -7.54091444E-02
  1.27998377E-01  1.61777843E-01  2.68482279E-02 -7.77529324E-02  1.00989954E-01
  1.24774460E-01  1.33735078E-02  5.20901143E-02  1.71150127E-02  2.30191462E-02
  7.36768096E-03 -1.41653231E-03  7.69185519E-04  9.61327679E-04 -7.24341343E-04
  2.49108550E-03 -5.82678019E-03  1.59389694E-03  1.70111158E-03 -2.17201591E-03
  9.36951592E-03 -1.43974513E-02 -2.36045299E-02  3.48297315E-02 -9.71985729E-03
 -1.39052468E-01  7.52310646E-02  5.02764570E-02 -1.41522522E-02 -2.01052797E-01
  7.75962791E-02  4.36501128E-02 -4.99865343E-03 -1.54704099E-01 -5.21183106E-02
  4.79898676E-03 -4.87849274E-03 -2.87982592E-02 -2.94764833E-03  9.48739304E-04
 -7.72150070E-04 -4.30579416E-05  2.21155185E-04 -1.03348848E-02  4.76619788E-03
 -1.00005371E-03 -6.71067543E-04  6.81887444E-04  1.44176007E-02  2.36375114E-02
 -8.83603788E-02 -1.11792546E-01 -1.88671330E-02 -7.53332760E-02 -1.27717997E-01
 -1.61634876E-01 -2.74004716E-02 -7.76878219E-02 -1.00763957E-01 -1.24660732E-01
 -1.38221627E-02  5.21603154E-02 -1.71112440E-02 -2.30318138E-02 -7.42050356E-03
 -1.41075738E-03  7.74344282E-04  9.69747675E-04 -7.25790798E-04  2.48692271E-03
 -5.80885352E-03  1.62301594E-03  1.73933586E-03 -2.17886023E-03  9.34671377E-03
  6.45359016E-07  1.01542496E-06  8.27058221E-02 -6.96855769E-02  2.55847036E-02
 -2.62869686E-06  1.26266566E-01 -1.06388236E-01  3.90601929E-02 -6.44104725E-06
  6.25922284E-02 -5.27400159E-02  1.93641857E-02  1.54701925E-05  6.56815249E-03
 -5.52921397E-03  2.02805417E-03  3.71484797E-04  4.77418028E-04 -7.62604676E-04
 -1.18436549E-03  1.36160594E-05 -3.68981680E-05 -4.24069979E-05  7.99521521E-05
  1.44003895E-04  2.28384189E-06  2.78241347E-07  4.38046190E-07  8.27845446E-02
 -6.97534218E-02  2.56108868E-02 -1.19979209E-06  1.26380140E-01 -1.06486395E-01
  3.90981886E-02  7.54033946E-07  6.26476734E-02 -5.27890720E-02  1.93829092E-02
 -1.52552807E-05  6.61103381E-03 -5.56743387E-03  2.04287885E-03 -3.71643148E-04
 -4.73910918E-04  7.65882828E-04  1.20417679E-03 -1.05512795E-05  3.48914819E-05
  4.66010257E-05 -7.07538249E-05 -1.04825612E-04  2.82006543E-06 -6.62896117E-09
 -9.15940419E-09  9.18569143E-02 -7.73960348E-02  2.84144498E-02 -4.67503592E-09
  1.32180887E-01 -1.11371868E-01  4.08880622E-02  4.45940086E-07  1.11082703E-01
 -9.35951356E-02  3.43614925E-02 -9.83344574E-07  1.78522552E-03 -1.50453665E-03
  5.52539169E-04 -7.25529680E-04 -1.29815278E-03  1.05366759E-03 -5.67676454E-05
 -4.34827675E-04 -5.53616000E-03 -9.95499087E-03  7.98109849E-03 -7.53462226E-04
 -3.37292801E-03  4.53696928E-08  8.08894276E-08  9.17981366E-02 -7.73439999E-02
  2.83978136E-02 -4.06229327E-07  1.32095192E-01 -1.11296011E-01  4.08637537E-02
  1.11815029E-06  1.11016194E-01 -9.35355844E-02  3.43428847E-02 -1.85260462E-06
  1.78016550E-03 -1.50082830E-03  5.51220343E-04  2.19465560E-04  6.51490542E-04
 -1.15072798E-05  1.69054776E-03  4.19631862E-04  1.80279336E-03  5.18605047E-03
 -2.90891525E-04  1.28164361E-02  3.26269680E-03  3.33691082E-09  7.30372999E-09
  9.20070322E-02 -7.75242135E-02  2.84645404E-02 -6.42228020E-08  1.32397795E-01
 -1.11557025E-01  4.09603440E-02  2.06515604E-07  1.11265743E-01 -9.37512769E-02
  3.44228691E-02  7.27279558E-07  1.78437359E-03 -1.50321698E-03  5.52058118E-04
  7.26728630E-04  1.29976397E-03 -1.05569388E-03  5.46020479E-05  4.35149404E-04
  5.54553347E-03  9.96810780E-03 -7.99634892E-03  7.39475553E-04  3.37604644E-03
  4.83904031E-08  7.62248394E-08  9.19443007E-02 -7.74729423E-02  2.84444146E-02
 -1.64421445E-07  1.32306370E-01 -1.11482187E-01  4.09310456E-02 -1.16522684E-06
  1.11188753E-01 -9.36881698E-02  3.43979375E-02  1.99707830E-06  1.78424837E-03
 -1.50434167E-03  5.51950862E-04 -2.21140310E-04 -6.54769356E-04  1.35411055E-05
 -1.69279676E-03 -4.20875206E-04 -1.81283326E-03 -5.20577607E-03  3.03432916E-04
 -1.28289418E-02 -3.26989625E-03  4.09937697E-07  6.40846358E-07  5.20719129E-02
 -4.38740546E-02  1.61081881E-02 -1.56243875E-06  7.61673016E-02 -6.41757669E-02
  2.35618534E-02 -2.87151458E-06  4.14208925E-02 -3.49009429E-02  1.28136909E-02
  1.02668077E-05  3.17637555E-02 -2.67605361E-02  9.82377093E-03  2.50862824E-03
  3.20366383E-03 -5.16832910E-03 -8.11029745E-03  7.35051637E-05  6.32263477E-03
  8.06921353E-03 -1.30316205E-02 -2.04707227E-02  1.79827479E-04 -2.58040441E-07
 -3.99882120E-07 -5.19608792E-02  4.37815876E-02 -1.60747289E-02  7.54973168E-07
 -7.59938437E-02  6.40315442E-02 -2.35097453E-02  6.41514581E-06 -4.13266004E-02
  3.48227079E-02 -1.27855481E-02 -8.91861687E-06 -3.17513045E-02  2.67552444E-02
 -9.82393140E-03  2.50871866E-03  3.20334162E-03 -5.16769770E-03 -8.10986309E-03
  7.39490679E-05  6.32830154E-03  8.07884190E-03 -1.30352307E-02 -2.04632023E-02
  1.85261034E-04 -1.17185962E-08 -1.83458321E-08  1.08979653E-01 -9.18257947E-02
  3.37115732E-02  3.12262363E-08  1.56760731E-01 -1.32085948E-01  4.84921168E-02
  4.23822380E-07  1.32707122E-01 -1.11817957E-01  4.10511519E-02 -4.69268014E-07
  4.81634120E-03 -4.05839229E-03  1.48983622E-03 -7.08643941E-04 -1.29283007E-03
  9.99596063E-04 -2.16571305E-04 -4.52431946E-04 -5.18465574E-03 -9.35242531E-03
  7.43937477E-03 -8.96442500E-04 -3.19163337E-03 -1.56355979E-09  2.61844557E-09
  1.09002728E-01 -9.18411693E-02  3.37220362E-02 -1.26535570E-07  1.56791618E-01
 -1.32106017E-01  4.85064891E-02  1.16942215E-06  1.32732018E-01 -1.11834140E-01
  4.10626542E-02 -1.98889120E-06  4.81907126E-03 -4.06102140E-03  1.49172304E-03
  2.77948190E-04  7.42764891E-04 -1.12180022E-04  1.60899451E-03  4.39824804E-04
  1.76219295E-03  4.98097210E-03 -3.88983210E-04  1.19574084E-02  3.09092009E-03
 -2.52195934E-08 -4.31584894E-08 -1.08976709E-01  9.18213860E-02 -3.37145888E-02
  2.00378626E-07 -1.56756888E-01  1.32079927E-01 -4.84966027E-02 -8.31100662E-07
 -1.32697552E-01  1.11808174E-01 -4.10536834E-02 -1.18734813E-06 -4.82704522E-03
  4.06684536E-03 -1.49403844E-03 -7.08717957E-04 -1.29245218E-03  9.99964637E-04
 -2.14167553E-04 -4.52066165E-04 -5.18311920E-03 -9.34523861E-03  7.43970019E-03
 -8.76342177E-04 -3.18726208E-03 -9.78083030E-09 -1.39814845E-08 -1.08744888E-01
  9.16281861E-02 -3.36408941E-02  2.38233351E-08 -1.56422454E-01  1.31801132E-01
 -4.83902935E-02 -1.73868430E-07 -1.32421866E-01  1.11578986E-01 -4.09655001E-02
 -2.70045896E-06 -4.79524104E-03  4.04192257E-03 -1.48389420E-03  2.78595774E-04
  7.43202645E-04 -1.14094445E-04  1.60426361E-03  4.39326841E-04  1.76758609E-03
  4.98537379E-03 -4.03201979E-04  1.19240409E-02  3.08762517E-03 -1.15120888E-02
 -1.81853744E-02  1.11568179E-02  9.23813503E-03 -1.08999102E-02  4.39255128E-02
  8.99188077E-03  7.44562821E-03 -8.78176321E-03 -8.79053064E-02 -8.12006641E-02
 -6.71647992E-02  7.95549292E-02  4.13003852E-01  6.65501389E-02  5.50578661E-02
 -6.51625314E-02  3.56421174E-03  8.66029665E-03  1.23068572E-02 -3.33277645E-03
 -1.54535536E-03  1.02449255E-02  3.24195816E-02  4.23311452E-02 -1.10885084E-02
 -9.85831062E-03  1.14887746E-02  1.81486290E-02  1.10783534E-02  9.15215665E-03
 -1.08855641E-02 -4.38264406E-02  8.88960466E-03  7.33280896E-03 -8.76703978E-03
  8.79541802E-02 -8.13068933E-02 -6.73495754E-02  7.93807197E-02 -4.13000415E-01
  6.65948633E-02  5.51455694E-02 -6.50700639E-02 -3.56240972E-03 -8.67479233E-03
 -1.23246271E-02  3.33895103E-03  1.54178435E-03 -1.04632067E-02 -3.23539390E-02
 -4.23465266E-02  1.10590177E-02  9.99138416E-03 -4.21859453E-04 -7.90760066E-04
  1.05095502E-01  1.09536352E-01 -4.13832688E-02  4.35472644E-03  1.51127743E-01
  1.56915548E-01 -6.11386612E-02 -1.15561189E-02  1.24364802E-01  1.33603373E-01
 -3.81196275E-02 -5.88023981E-02  1.49563300E-02  2.25437913E-02  1.30558468E-02
  8.72678170E-04 -1.45056476E-03 -1.21452825E-03  4.69648583E-04 -1.29906196E-04
  3.54343788E-03 -6.05900633E-03 -5.73109238E-03  2.33630779E-03 -2.01681778E-03
 -4.19602102E-04 -7.86661790E-04  7.36351903E-02  3.82257856E-02 -1.33913334E-01
  4.33722519E-03  1.06716645E-01  5.62503433E-02 -1.91757342E-01 -1.16251457E-02
  8.15916584E-02  3.66401026E-02 -1.63949609E-01 -5.86649615E-02  8.28569334E-04
 -9.46818738E-03 -2.84673707E-02 -1.23273958E-03 -6.24301901E-04 -1.12692900E-03
  1.00839387E-04  1.17695684E-03 -6.40640656E-03 -2.17325416E-03 -5.33889899E-03
  5.99589286E-04  4.16350467E-03  4.21843296E-04  7.90382594E-04  1.05344011E-01
  1.09941003E-01 -4.10856093E-02 -4.34942747E-03  1.51486831E-01  1.57502149E-01
 -6.07031371E-02  1.16173887E-02  1.24688986E-01  1.34131682E-01 -3.77325654E-02
  5.86625788E-02  1.49673390E-02  2.25450861E-02  1.30219640E-02 -8.66981147E-04
  1.45183301E-03  1.21881770E-03 -4.70226983E-04  1.27222969E-04 -3.50885569E-03
  6.08416834E-03  5.77705226E-03 -2.34534390E-03  1.99603268E-03  4.18553861E-04
  7.85516995E-04  7.38106154E-02  3.85966812E-02 -1.33469738E-01 -4.34017364E-03
  1.06974081E-01  5.67921154E-02 -1.91112997E-01  1.15922407E-02  8.17935254E-02
  3.70919578E-02 -1.63373327E-01  5.88548164E-02  8.22675218E-04 -9.48410353E-03
 -2.84929300E-02  1.23793395E-03  6.18729684E-04  1.12145582E-03 -9.80760979E-05
 -1.18246051E-03  6.42374848E-03  2.12764408E-03  5.28873232E-03 -5.80613322E-04
 -4.17917713E-03  3.90232039E-08  5.22805563E-08 -4.64502948E-06  3.38529498E-06
 -1.59332171E-06  9.52642097E-08 -1.00690407E-05  7.63096649E-06 -3.53989963E-06
 -2.30411131E-06 -1.22683210E-05  8.26367259E-06 -6.08104407E-06 -6.92430640E-07
 -2.13006398E-05  1.69673840E-05 -6.12780860E-06  4.14567325E-03  8.55539543E-03
 -4.67122642E-03  7.67626969E-03  3.75067655E-03  7.01686151E-03  1.44848830E-02
 -7.90516226E-03  1.30072257E-02  6.35171547E-03  2.99613325E-08  3.85692351E-08
  2.74097527E-05 -2.33141761E-05  8.03160850E-06  9.02775155E-08  3.87684280E-05
 -3.34931953E-05  1.10071670E-05 -1.72924488E-06  2.82379791E-05 -2.38963575E-05
  9.27641867E-06  6.15036353E-07  1.53100047E-05 -1.23374356E-05  4.47202866E-06
  4.18093709E-03  8.62102692E-03 -4.71479507E-03  7.71174244E-03  3.77604134E-03
  7.08345711E-03  1.46078707E-02 -7.98690854E-03  1.30737602E-02  6.39907671E-03
  2.66868409E-08  4.86603812E-08  1.19294315E-01 -1.00506046E-01  3.69012171E-02
 -2.68933053E-07  1.71795794E-01 -1.44738791E-01  5.31415022E-02  1.34948786E-06
  1.46368685E-01 -1.23316404E-01  4.52750852E-02  3.10557432E-06  2.09555730E-02
 -1.76552955E-02  6.48101247E-03 -5.21221162E-04 -9.20976781E-04  7.70663423E-04
  3.42870294E-05 -2.99434991E-04 -4.38217481E-03 -7.75197302E-03  6.46942112E-03
  2.32929197E-04 -2.52713002E-03 -2.18665933E-08 -4.29629115E-08 -1.19416683E-01
  1.00614146E-01 -3.69354814E-02  2.76870752E-07 -1.71970135E-01  1.44892917E-01
 -5.31902374E-02 -1.23536639E-06 -1.46516888E-01  1.23446454E-01 -4.53174466E-02
 -1.18793046E-06 -2.09605302E-02  1.76601631E-02 -6.48370960E-03 -1.28483851E-04
 -4.19643059E-04 -3.86559498E-05 -1.23721350E-03 -2.88274789E-04 -1.10258854E-03
 -3.56545870E-03 -2.88722166E-04 -1.03834018E-02 -2.43368833E-03 -2.87276506E-08
 -5.07515086E-08 -1.20183227E-01  1.01272128E-01 -3.71810429E-02  2.12291083E-07
 -1.73077111E-01  1.45842963E-01 -5.35447184E-02  2.91311767E-07 -1.47455519E-01
  1.24253487E-01 -4.56185796E-02 -5.44724805E-07 -2.10762973E-02  1.77595925E-02
 -6.52038427E-03 -5.25369691E-04 -9.27919013E-04  7.77214493E-04  3.65055785E-05
 -3.01526806E-04 -4.41278022E-03 -7.80366720E-03  6.51564224E-03  2.40273579E-04
 -2.54388767E-03  3.07024157E-08  5.14097746E-08  1.20258851E-01 -1.01330343E-01
  3.72101039E-02 -1.77636387E-07  1.73184295E-01 -1.45925295E-01  5.35860877E-02
 -2.78146270E-07  1.47551822E-01 -1.24328112E-01  4.56551246E-02  2.12940458E-06
  2.10817556E-02 -1.77647509E-02  6.52323255E-03 -1.30277083E-04 -4.24271775E-04
 -3.77583816E-05 -1.24617548E-03 -2.90809885E-04 -1.11882784E-03 -3.60492043E-03
 -2.78545744E-04 -1.04520670E-02 -2.45408847E-03 -2.20124694E-08 -3.43462880E-08
  1.63625341E-05 -1.35359997E-05  5.04206455E-06  1.45430268E-07  2.47921603E-05
 -2.07631664E-05  7.70978840E-06 -1.48230569E-06  2.36977835E-05 -1.57550824E-05
  8.59947832E-06 -1.73473788E-05  5.02891940E-06 -1.01362342E-05  4.41699413E-06
  3.78963406E-03  7.81759462E-03 -4.27224143E-03  7.00269213E-03  3.42562480E-03
  7.47661648E-03  1.54285083E-02 -8.42870646E-03  1.38270644E-02  6.76214877E-03
 -2.98862471E-08 -4.78844289E-08 -4.07820726E-05  3.40949590E-05 -1.26728642E-05
  6.70775137E-08 -6.86730091E-05  5.73508110E-05 -2.12820370E-05  1.79671834E-06
 -5.19415937E-05  4.17216704E-05 -1.99752216E-05  1.74123924E-05 -1.45585419E-05
  9.23256210E-06  7.03760033E-07 -3.76236219E-03 -7.76023923E-03  4.24214903E-03
 -6.94716160E-03 -3.39993249E-03 -7.43387577E-03 -1.53299785E-02  8.38134178E-03
 -1.37213526E-02 -6.71540929E-03 -2.83069654E-08 -4.93926306E-08  1.21721445E-01
 -1.02557264E-01  3.76515773E-02  1.87846651E-07  1.75284925E-01 -1.47687499E-01
  5.42200635E-02  7.53712089E-07  1.49461518E-01 -1.25930621E-01  4.62320601E-02
 -1.42089482E-06  1.76387170E-02 -1.48612816E-02  5.45687285E-03 -5.46518295E-04
 -9.61875879E-04  8.12706068E-04  6.08298643E-05 -3.09708434E-04 -4.17048844E-03
 -7.49055262E-03  6.02308602E-03 -5.09970052E-04 -2.53106223E-03  1.96407066E-08
  3.14706860E-08 -1.21658963E-01  1.02502323E-01 -3.76334556E-02 -6.01051738E-08
 -1.75192618E-01  1.47606288E-01 -5.41933922E-02 -1.04209810E-06 -1.49386873E-01
  1.25864189E-01 -4.62107153E-02  5.28745866E-06 -1.76397403E-02  1.48653095E-02
 -5.45725308E-03 -1.24532860E-04 -4.22610172E-04 -5.62780711E-05 -1.30154269E-03
 -2.97065555E-04 -1.33243831E-03 -3.86373320E-03  1.78817242E-04 -9.67030960E-03
 -2.44555149E-03 -1.49745177E-08 -3.07004733E-08  1.20737377E-01 -1.01731846E-01
  3.73537089E-02  2.03871623E-07  1.73868238E-01 -1.46499246E-01  5.37914459E-02
 -1.94675599E-07  1.48253390E-01 -1.24916198E-01  4.58662711E-02 -4.50412350E-06
  1.74790552E-02 -1.47277244E-02  5.40512806E-03  5.42209995E-04  9.53743509E-04
 -8.06578959E-04 -6.24855287E-05  3.06895911E-04  4.13516101E-03  7.42400521E-03
 -5.97307509E-03  4.93881409E-04  2.50744808E-03  1.77599637E-08  3.87715042E-08
 -1.20910428E-01  1.01880296E-01 -3.74055236E-02 -2.90713585E-07 -1.74116459E-01
  1.46712281E-01 -5.38657175E-02  4.47556915E-07 -1.48466206E-01  1.25098992E-01
 -4.59295192E-02  5.25974013E-07 -1.74887634E-02  1.47353009E-02 -5.41160001E-03
  1.24808885E-04  4.21952509E-04  5.45865777E-05  1.29426937E-03  2.95843454E-04
  1.33476461E-03  3.85718987E-03 -1.94654224E-04  9.60316707E-03  2.43462254E-03
  8.76202918E-05  1.38628396E-04 -3.37399984E-03 -7.30040255E-03 -8.97735683E-03
 -3.87334783E-04 -5.78838709E-03 -1.27046300E-02 -1.58921881E-02 -2.30775109E-04
 -4.60845019E-03 -1.03254142E-02 -1.32263377E-02 -2.46105240E-04  2.73724049E-03
  6.13817762E-03  7.86951823E-03 -1.14704848E-02  4.55809782E-03  5.51969073E-04
 -2.03458121E-03  7.13285725E-03 -2.38277262E-02  9.42529627E-03  1.09002921E-03
 -4.20765225E-03  1.48075794E-02  8.33059330E-05  1.32754978E-04 -2.90308879E-03
 -6.91079420E-03 -9.43843573E-03 -3.87657554E-04 -5.20939106E-03 -1.22151618E-02
 -1.64307314E-02 -2.86525566E-04 -4.36935338E-03 -1.01414377E-02 -1.34980832E-02
  1.81061806E-04  2.57742645E-03  6.00047024E-03  8.01081019E-03  1.15231129E-02
 -4.48993884E-03 -4.38521248E-04  2.00534874E-03 -7.15026734E-03  2.40220380E-02
 -9.37297901E-03 -9.32179439E-04  4.18692910E-03 -1.49108281E-02  1.03556899E-03
  1.82454154E-03  9.40139149E-02  1.26795156E-01  4.14153414E-02 -7.71104732E-03
  1.34599890E-01  1.82219189E-01  6.11639021E-02  8.38941866E-03  1.20874145E-01
  1.57918888E-01  3.93508909E-02  2.83172619E-02  1.36138265E-02  1.32739760E-02
 -7.85848001E-03 -8.27407788E-04 -4.17327367E-04 -1.02143453E-03  2.31137523E-04
  1.21394721E-04 -2.44276251E-03 -6.72889385E-03 -9.44303162E-03  2.61175142E-03
  9.43574222E-04 -1.02710697E-03 -1.81085276E-03 -2.51130056E-02  2.82108656E-02
  1.58044450E-01  7.66198857E-03 -3.49861799E-02  4.18828952E-02  2.27210299E-01
 -8.39149159E-03 -3.94144078E-02  2.52669748E-02  1.96263779E-01 -2.83426746E-02
 -1.07459673E-02 -6.89828966E-03  1.59556561E-02 -1.33201440E-05  7.44805646E-04
  1.05514917E-03 -3.78566820E-04  4.04840248E-04  3.00395977E-03  6.48339051E-03
  9.40027374E-03 -2.51069883E-03 -1.26224330E-03 -1.03115457E-03 -1.81772593E-03
  9.34518497E-02  1.26413566E-01  4.22459947E-02  7.68894547E-03  1.33794334E-01
  1.81678374E-01  6.23709961E-02 -8.49778626E-03  1.20172652E-01  1.57414820E-01
  4.03133798E-02 -2.84486420E-02  1.35440713E-02  1.32034444E-02 -7.81460443E-03
  8.39773710E-04  4.10956066E-04  1.02068838E-03 -2.29462638E-04 -1.24833572E-04
  2.50723985E-03  6.69026072E-03  9.43499970E-03 -2.60306266E-03 -9.52822865E-04
  1.03358340E-03  1.82117845E-03 -2.61007007E-02  2.75112576E-02  1.59276439E-01
 -7.69806204E-03 -3.64171862E-02  4.08613563E-02  2.28974465E-01  8.45847606E-03
 -4.06490789E-02  2.43807049E-02  1.97770623E-01  2.82774514E-02 -1.08436513E-02
 -6.94513323E-03  1.61332345E-02  1.08199562E-06 -7.47144538E-04 -1.06149538E-03
  3.78090909E-04 -3.92823193E-04 -3.08187501E-03 -6.49313062E-03 -9.43575692E-03
  2.50705532E-03  1.33573129E-03 -2.04698917E-02 -3.22593387E-02  5.69536191E-02
  4.71013730E-02 -5.58221640E-02  8.28895954E-02  6.65695512E-02  5.50420302E-02
 -6.52803495E-02  9.06096675E-02  2.61714902E-02  2.16300637E-02 -2.56904640E-02
  9.33087102E-03 -1.72097602E-02 -1.42248239E-02  1.68862094E-02 -5.45617295E-03
 -1.15950876E-02 -1.72972605E-02  4.76497427E-03  1.18445743E-03 -7.05065706E-03
 -2.31339967E-02 -2.97809923E-02  7.72732010E-03  7.65696498E-03 -2.04749371E-02
 -3.22675132E-02 -5.70142042E-02 -4.72265535E-02  5.56653936E-02  8.29115844E-02
 -6.66499610E-02 -5.52213238E-02  6.50373022E-02  9.04929270E-02 -2.61558497E-02
 -2.16684134E-02  2.55284897E-02  9.77392892E-03  1.71635540E-02  1.42247687E-02
 -1.67364830E-02 -5.40259382E-03 -1.16124267E-02 -1.72948610E-02  4.77323005E-03
  1.15108640E-03 -6.93833878E-03 -2.31534890E-02 -2.97604387E-02  7.74174550E-03
  7.57372543E-03 -3.84527713E-05 -2.04259973E-05 -9.67704729E-02 -8.71423643E-02
  7.54754887E-02  3.58190812E-04 -1.38903108E-01 -1.24398773E-01  1.10200431E-01
 -2.90199932E-03 -1.19421019E-01 -1.07303431E-01  9.37839534E-02  4.63659226E-04
 -1.58880563E-02 -1.60377323E-02  7.67880877E-03 -1.11359504E-03  8.73975332E-04
  3.91005837E-04 -2.46267441E-04  2.28495614E-04 -5.94109624E-03  5.16897031E-03
  2.21602775E-03 -1.20783420E-03  8.83321838E-06 -4.32102777E-05 -2.91261960E-05
 -8.70931492E-02 -6.45817488E-02  1.05640312E-01  3.96137574E-04 -1.25955003E-01
 -9.41595633E-02  1.50705950E-01 -2.93787249E-03 -1.07858622E-01 -8.02665618E-02
  1.30047028E-01  2.62658375E-04 -1.19402856E-02 -6.96322372E-03  1.96344444E-02
  9.94954381E-04  5.20286686E-05  3.10843358E-04  1.20478498E-04 -1.07803316E-03
  4.61676317E-03  1.07984527E-03  1.84243617E-03  6.21371593E-04 -6.54394641E-03
 -4.00077271E-05 -2.36644793E-05  9.74996639E-02  8.81985316E-02 -7.49368518E-02
  3.76573345E-04  1.39948844E-01  1.25918489E-01 -1.09413815E-01 -2.96866450E-03
  1.20346902E-01  1.08607544E-01 -9.32017378E-02  2.50900123E-04  1.59971867E-02
  1.61585941E-02 -7.69870540E-03 -1.10457805E-03  8.78212882E-04  4.01196358E-04
 -2.48407896E-04  2.26081979E-04 -5.91075379E-03  5.22261340E-03  2.29656629E-03
 -1.22908954E-03 -2.25049987E-06 -3.91004700E-05 -2.15364406E-05  8.69219779E-02
  6.49347056E-02 -1.04102638E-01  3.62127337E-04  1.25716663E-01  9.46762370E-02
 -1.48494862E-01 -2.87100151E-03  1.07592313E-01  8.06325886E-02 -1.28161336E-01
  4.17378466E-04  1.18753922E-02  6.95372356E-03 -1.94462485E-02  9.95183972E-04
  4.22851072E-05  2.97904962E-04  1.24826841E-04 -1.08124494E-03  4.59028794E-03
  1.01732011E-03  1.75306926E-03  6.45113242E-04 -6.53311104E-03 -1.03793291E-05
 -1.73302332E-05 -1.06181128E-03 -2.42127977E-03 -3.16241491E-03  9.03732851E-06
  1.65312794E-03  3.70316943E-03  4.74253078E-03  6.65875543E-04  1.64910153E-03
  3.66162965E-03  4.63977786E-03 -2.26288395E-04  7.25106881E-04  1.69677084E-03
  2.27150709E-03 -6.24675881E-03  2.45985105E-03  2.70948494E-04 -1.09803354E-03
  3.87935642E-03 -5.69528508E-02  2.24165435E-02  2.49107847E-03 -1.00278810E-02
  3.54551166E-02  8.98576694E-06  1.53500182E-05  1.06972513E-03  2.41836163E-03
  3.12887898E-03 -2.28108004E-05 -1.60273761E-03 -3.67680580E-03 -4.83372719E-03
 -6.51049768E-04 -1.55200466E-03 -3.59068885E-03 -4.76047665E-03  2.26204598E-04
 -7.75009205E-04 -1.72729824E-03 -2.19326210E-03 -6.22305161E-03  2.44866664E-03
  2.67652966E-04 -1.09316494E-03  3.86542938E-03 -5.69635940E-02  2.24266328E-02
  2.43800147E-03 -9.99474823E-03  3.53153766E-02  2.77674471E-04  4.67248522E-04
  1.04654839E-01  1.31070736E-01  1.86870540E-02 -1.66085311E-03  1.50769922E-01
  1.88399818E-01  2.57614342E-02  2.99997856E-02  1.28226934E-01  1.54926475E-01
  7.46041754E-03 -1.09453402E-03  1.33676265E-02  1.75308070E-02  4.53754236E-03
 -3.28373145E-04 -8.32560659E-04 -1.14506063E-03  3.01170536E-04  2.19434144E-04
 -2.76114370E-04 -4.82157113E-03 -6.51090671E-03  2.14777715E-03 -1.20159970E-03
 -2.88412092E-04 -4.85647682E-04 -4.25450238E-02  9.26658123E-03  1.62772061E-01
  1.73821712E-03 -6.18884145E-02  1.24294561E-02  2.33917153E-01 -3.01428774E-02
 -6.01008215E-02 -9.31386965E-04  1.91748421E-01  9.02087532E-04 -4.37388141E-03
  2.83122032E-03  2.18546193E-02  2.77919956E-04  8.49426576E-04  1.14404120E-03
 -3.09198132E-04 -1.87197605E-04  4.09512163E-03  3.32211696E-03  6.34731007E-03
 -1.47602604E-03 -1.17845039E-03  2.84898177E-04  4.79529395E-04 -1.04110859E-01
 -1.30500787E-01 -1.89042915E-02 -1.71222141E-03 -1.49993319E-01 -1.87584234E-01
 -2.60665616E-02  3.01364425E-02 -1.27606063E-01 -1.54248859E-01 -7.63914956E-03
 -9.55185267E-04 -1.33036902E-02 -1.74490391E-02 -4.52260673E-03 -3.31918829E-04
 -8.26419948E-04 -1.13919247E-03  2.98831679E-04  2.21593290E-04 -2.96153642E-04
 -4.79736375E-03 -6.48722465E-03  2.13663766E-03 -1.18253828E-03 -2.72482752E-04
 -4.58433824E-04  4.28163521E-02 -8.90758304E-03 -1.62659481E-01  1.62899586E-03
  6.22780624E-02 -1.19131254E-02 -2.33753268E-01 -3.00050247E-02  6.03225059E-02
  1.25818865E-03 -1.91556908E-01  1.15698177E-03  4.35106934E-03 -2.86174244E-03
 -2.18628174E-02  2.85486839E-04  8.48169730E-04  1.14504757E-03 -3.08102793E-04
 -1.93548690E-04  4.12148112E-03  3.29004856E-03  6.32197547E-03 -1.46490071E-03
 -1.18899008E-03  5.37652955E-07  8.56545848E-07  1.35349309E-01 -1.14039474E-01
  4.18687065E-02 -2.21712770E-06  2.05641115E-01 -1.73264377E-01  6.36129709E-02
 -6.68699219E-06  1.75410931E-01 -1.47793001E-01  5.42602520E-02 -1.47680639E-05
  1.24753073E-02 -1.05155511E-02  3.86324934E-03 -4.21525966E-03 -5.38120241E-03
  8.68546855E-03  1.36387157E-02 -1.21654891E-04 -8.89208680E-03 -1.13518029E-02
  1.83219930E-02  2.87680742E-02 -2.57478037E-04 -2.41653677E-07 -4.03548648E-07
  1.35333239E-01 -1.14032960E-01  4.18693637E-02  1.60068787E-06  2.05621811E-01
 -1.73258155E-01  6.36150674E-02 -1.92823247E-06  1.75404780E-01 -1.47795166E-01
  5.42642052E-02  1.20915216E-05  1.24742342E-02 -1.05125035E-02  3.86118790E-03
  4.21224503E-03  5.37389925E-03 -8.68241364E-03 -1.36460504E-02  1.19161409E-04
  8.88304303E-03  1.13317707E-02 -1.83123157E-02 -2.87895836E-02  2.49107074E-04
 -3.02381839E-08 -4.98905828E-08 -8.10573638E-02  6.82954287E-02 -2.50734800E-02
  1.70830035E-07 -1.15962000E-01  9.77046773E-02 -3.58705574E-02  3.52904301E-07
 -1.10233287E-01  9.28770357E-02 -3.40984314E-02  2.05948248E-06 -4.28968569E-02
  3.61433579E-02 -1.32705193E-02 -3.20145504E-04 -5.39267183E-04  5.04766290E-04
  1.92014501E-04 -1.54510845E-04 -1.69781582E-03 -2.89388552E-03  2.63659421E-03
  7.97760477E-04 -8.57322471E-04 -3.97826264E-08 -6.85473996E-08 -8.10131778E-02
  6.82574407E-02 -2.50604825E-02  2.76912235E-07 -1.15898136E-01  9.76496724E-02
 -3.58518426E-02  2.15501066E-07 -1.10161751E-01  9.28166455E-02 -3.40764924E-02
  1.87674508E-06 -4.28678091E-02  3.61186853E-02 -1.32615305E-02  1.16237119E-05
  1.45140396E-04  1.30631510E-04  8.04654949E-04  1.45352057E-04  1.48723437E-04
  9.16665232E-04  5.56345010E-04  4.21791925E-03  8.13307411E-04  1.41909691E-08
  2.38791931E-08 -8.10294474E-02  6.82756539E-02 -2.50690368E-02 -7.98832443E-08
 -1.15923017E-01  9.76770860E-02 -3.58644712E-02  1.19355844E-07 -1.10191893E-01
  9.28481648E-02 -3.40912259E-02 -9.69301567E-07 -4.28804692E-02  3.61308360E-02
 -1.32670276E-02  3.19986746E-04  5.38740125E-04 -5.04651396E-04 -1.92824534E-04
  1.54269774E-04  1.69937009E-03  2.89515365E-03 -2.63961351E-03 -8.04060620E-04
  8.57165584E-04  4.76952253E-09  1.08583121E-08 -8.10397641E-02  6.82847363E-02
 -2.50715858E-02 -7.81756039E-08 -1.15936613E-01  9.76890616E-02 -3.58677814E-02
  2.87367632E-07 -1.10208802E-01  9.28629190E-02 -3.40956367E-02 -6.61087863E-07
 -4.28899883E-02  3.61391832E-02 -1.32694538E-02 -1.20692356E-05 -1.46057331E-04
 -1.30215503E-04 -8.05626505E-04 -1.45710216E-04 -1.50784070E-04 -9.19610202E-04
 -5.52355691E-04 -4.21309433E-03 -8.13398033E-04 -1.78465636E-03 -1.77346143E-03
 -4.06625492E-02 -3.36965646E-02  3.96092601E-02 -3.03610621E-02 -5.72173885E-02
 -4.74180164E-02  5.57224697E-02  4.55810104E-01 -1.74944615E-01 -1.44885137E-01
  1.70767214E-01  1.07309280E+00 -1.98580462E-01 -1.64541943E-01  1.93683501E-01
 -5.26121632E-03  4.00349917E-03 -2.89482361E-03  1.70541256E-03 -1.04125618E-02
 -6.62095153E-03  1.21630625E-02  2.81405173E-03  7.97296545E-04 -1.85534692E-02
 -1.78100997E-03 -1.76742492E-03  4.05941265E-02  3.35310608E-02 -3.98211414E-02
 -3.03986283E-02  5.71195392E-02  4.71717639E-02 -5.60502325E-02  4.56055674E-01
  1.74767360E-01  1.44434382E-01 -1.71355879E-01  1.07282749E+00  1.98472046E-01
  1.64080929E-01 -1.94577092E-01 -5.33193050E-03  4.03039472E-03 -2.89427927E-03
  1.69298776E-03 -1.03695428E-02 -6.75602951E-03  1.22195081E-02  2.82774196E-03
  7.68698593E-04 -1.84573260E-02  1.62606932E-02  2.73894374E-02  5.89868445E-03
  1.32712626E-02  1.71000014E-02 -9.78231263E-02  8.52308715E-03  1.96570797E-02
  2.60191855E-02 -1.47998429E-01  4.65871056E-03  2.68534699E-02  5.81132868E-02
 -5.21936424E-01  2.18913473E-02  7.17100373E-02  1.24602307E-01  1.53726117E-04
  3.15516353E-04  4.07855102E-04 -8.95768043E-05 -1.97900067E-04 -4.98469503E-03
  3.48020847E-03  1.66993524E-04 -2.88658161E-04 -1.62679802E-03  1.63166643E-02
  2.74836548E-02 -5.96591359E-03 -1.33665565E-02 -1.70990571E-02 -9.81591499E-02
 -9.29228664E-03 -2.03519892E-02 -2.53612358E-02 -1.48399865E-01 -2.76548844E-02
 -4.59382753E-02 -3.56939834E-02 -5.23045707E-01 -5.31207746E-02 -9.76682957E-02
 -9.42475258E-02 -9.09236270E-07  3.73704600E-04  4.12473698E-04 -1.16471107E-04
 -9.97359735E-05  1.87613172E-03  7.78172158E-04 -1.26824821E-04  9.14823690E-04
 -5.88235280E-03  1.63169935E-02  2.74842608E-02 -5.76631448E-03 -1.31843299E-02
 -1.72942109E-02 -9.81602481E-02 -8.32900789E-03 -1.95302780E-02 -2.63047872E-02
 -1.48480591E-01 -4.41587173E-03 -2.66943074E-02 -5.84690654E-02 -5.23248201E-01
 -2.15682315E-02 -7.15445249E-02 -1.25179153E-01  1.56890113E-04  3.12148397E-04
  4.05846956E-04 -8.87011867E-05 -1.97954305E-04 -4.97886967E-03  3.47882913E-03
  1.68527105E-04 -2.88973345E-04 -1.62676628E-03  1.62648004E-02  2.73963374E-02
  5.77461807E-03  1.31848549E-02  1.72193588E-02 -9.78477721E-02  9.01260867E-03
  2.00863617E-02  2.55380709E-02 -1.48021619E-01  2.73350007E-02  4.56441171E-02
  3.59223259E-02 -5.21976898E-01  5.26355561E-02  9.71893004E-02  9.45261126E-02
  2.44687486E-06  3.74751331E-04  4.14379601E-04 -1.16321580E-04 -1.03823410E-04
  1.88093543E-03  7.76031375E-04 -1.30560780E-04  9.17170935E-04 -5.89298226E-03
  8.29797016E-06  1.36148531E-05  1.78737319E-01 -1.50599770E-01  5.52910303E-02
 -4.01130705E-05  2.74108846E-01 -2.30954359E-01  8.47906215E-02 -8.17222301E-05
  4.43226304E-01 -3.73398502E-01  1.37068031E-01  4.85892974E-04  2.10255398E-01
 -1.76954506E-01  6.48755821E-02  2.93716054E-03  3.74575954E-03 -6.05078761E-03
 -9.51096929E-03  8.43354661E-05  1.00233024E-02  1.27825842E-02 -2.06636842E-02
 -3.24769955E-02  2.83848030E-04 -7.71071289E-06 -1.25210335E-05 -1.78746180E-01
  1.50614313E-01 -5.53034853E-02  3.24842016E-05 -2.74124807E-01  2.30984065E-01
 -8.48147042E-02  1.32284133E-04 -4.43179164E-01  3.73502576E-01 -1.37178059E-01
 -3.35591999E-04 -2.09943096E-01  1.77167982E-01 -6.51607189E-02  2.93396766E-03
  3.74621986E-03 -6.05213277E-03 -9.50984305E-03  8.06631719E-05  1.00267980E-02
  1.28004212E-02 -2.06633975E-02 -3.24789325E-02  2.80441829E-04 -2.82988195E-06
 -4.73586518E-06 -6.40830240E-02  5.39900637E-02 -1.98322544E-02  1.60229562E-05
 -9.08296317E-02  7.65235488E-02 -2.81102726E-02  3.30181529E-05 -1.06911442E-01
  9.00758949E-02 -3.30929073E-02  4.43960069E-05 -8.96896891E-02  7.55492886E-02
 -2.77540036E-02 -9.46876856E-04 -1.73786512E-03  1.32273593E-03 -3.58339776E-04
 -6.16295641E-04 -5.53281797E-03 -1.01011886E-02  7.79699780E-03 -1.73253529E-03
 -3.53930752E-03 -2.36906876E-06 -3.96507196E-06 -6.40901318E-02  5.40082741E-02
 -1.98211152E-02  1.33948778E-05 -9.08388138E-02  7.65498501E-02 -2.80932696E-02
  2.87820516E-05 -1.06924353E-01  9.01113164E-02 -3.30700279E-02  3.71011981E-05
 -8.96540781E-02  7.55487945E-02 -2.77179196E-02  3.98460408E-04  1.03756141E-03
 -1.93022667E-04  2.13120375E-03  6.00222112E-04  2.18548412E-03  5.82475922E-03
 -9.00179407E-04  1.25531354E-02  3.44185036E-03  4.68223036E-06  7.86419342E-06
  6.41030397E-02 -5.40186241E-02  1.98224785E-02 -2.73997401E-05  9.08582610E-02
 -7.65656139E-02  2.80952491E-02 -4.96322400E-05  1.06961558E-01 -9.01316417E-02
  3.30652519E-02 -1.19923985E-04  8.97026658E-02 -7.56159621E-02  2.77225972E-02
 -9.47635763E-04 -1.73904866E-03  1.32473098E-03 -3.55027986E-04 -6.16402336E-04
 -5.53743099E-03 -1.01024009E-02  7.80457493E-03 -1.71292652E-03 -3.53895880E-03
  4.21554745E-06  7.07661486E-06  6.40887817E-02 -5.39921980E-02  1.98332484E-02
 -2.45690790E-05  9.08364367E-02 -7.65254314E-02  2.81115513E-02 -4.56603331E-05
  1.06937328E-01 -9.00771945E-02  3.30905471E-02 -1.07470239E-04  8.96604814E-02
 -7.55238005E-02  2.77703881E-02  3.99867671E-04  1.04015560E-03 -1.95523771E-04
  2.12946271E-03  6.00870225E-04  2.19501592E-03  5.84075978E-03 -9.16223722E-04
  1.25438347E-02  3.44351826E-03 -7.11821243E-05 -1.15671072E-04 -3.14934189E-02
 -7.13143602E-02 -9.24412911E-02  3.36802877E-04 -4.85472595E-02 -1.09920809E-01
 -1.42468651E-01  7.90241913E-05 -1.17811871E-01 -2.66175401E-01 -3.44168546E-01
 -1.20223843E-02 -1.48451670E-01 -3.32886936E-01 -4.26866270E-01  2.08601129E-02
 -8.19276171E-03 -8.84588311E-04  3.66244521E-03 -1.29695672E-02  4.06269430E-02
 -1.59187745E-02 -1.67482316E-03  7.11761323E-03 -2.52537563E-02  1.12359559E-04
  1.83297785E-04 -3.14493573E-02 -7.12606644E-02 -9.24140606E-02 -4.90315586E-04
 -4.85066161E-02 -1.09865820E-01 -1.42414336E-01 -1.78875616E-03 -1.18054019E-01
 -2.66379906E-01 -3.43882036E-01  8.52897110E-03 -1.49213931E-01 -3.33560822E-01
 -4.26202658E-01 -2.08337236E-02  8.22210446E-03  9.43071029E-04 -3.67947671E-03
  1.29845643E-02 -4.05681970E-02  1.59173863E-02  1.72524433E-03 -7.13062978E-03
  2.52890776E-02 -1.98699970E-02 -3.34208210E-02  3.97032256E-02  2.76145877E-02
 -5.31320071E-02  1.17930858E-01  5.80173774E-02  4.01418842E-02 -7.82141770E-02
  1.75511733E-01  6.36055587E-02  3.66068035E-02 -1.05909424E-01  5.08668304E-01
  9.20807437E-02  4.21169511E-02 -1.82940401E-01 -9.30506933E-04  9.89908876E-04
  5.02956293E-04 -2.18691430E-04 -1.55337646E-04 -5.69039662E-05  2.14683005E-03
  2.31146621E-03 -6.48042278E-04 -6.28656438E-04  1.99050580E-02  3.34793824E-02
 -4.70564362E-02 -4.42036861E-02  3.17279551E-02 -1.18128340E-01 -6.90586162E-02
 -6.50541766E-02  4.60694974E-02 -1.75976539E-01 -8.60216909E-02 -8.72423908E-02
  4.04592411E-02 -5.08503352E-01 -1.39464018E-01 -1.49587209E-01  4.34524012E-02
 -7.00398218E-04 -3.49008338E-04 -4.33563029E-04 -6.76781971E-05  1.16885567E-03
 -8.61274602E-04 -1.79235148E-03 -2.27653948E-03  4.86947786E-04  1.20795530E-03
  1.98186562E-02  3.33346086E-02  3.97894061E-02  2.77668985E-02 -5.29892097E-02
 -1.17630421E-01  5.81496220E-02  4.03691416E-02 -7.80126921E-02 -1.75050009E-01
  6.37032718E-02  3.68606932E-02 -1.05521844E-01 -5.06555730E-01  9.23423191E-02
  4.26065391E-02 -1.82434610E-01  9.25499296E-04 -9.89883712E-04 -5.05404669E-04
  2.18796315E-04  1.57599035E-04  6.21129256E-05 -2.15971936E-03 -2.31520960E-03
  6.47302926E-04  6.50129670E-04 -1.99538217E-02 -3.35613866E-02 -4.70644569E-02
 -4.42795227E-02  3.15247300E-02  1.18414608E-01 -6.90653648E-02 -6.51611309E-02
  4.57672791E-02  1.76482165E-01 -8.61620211E-02 -8.75258580E-02  4.01019359E-02
  5.10745842E-01 -1.39572358E-01 -1.49937994E-01  4.28069001E-02  7.03581731E-04
  3.45745555E-04  4.30714653E-04  6.90393423E-05 -1.17157494E-03  8.66052519E-04
  1.77925840E-03  2.27319000E-03 -4.88843107E-04 -1.18477662E-03 -2.77546976E-02
 -4.49949732E-02 -7.07874861E-03 -5.84166748E-03  7.15104327E-03  1.09568526E-01
 -2.28527939E-02 -1.88804349E-02  2.27269870E-02  2.82950088E-01 -3.34364261E-01
 -2.76596358E-01  3.27961114E-01 -6.56880098E+00 -1.63451216E+00 -1.35266251E+00
  1.59965994E+00 -4.39008880E-03  1.77982862E-03 -3.78292914E-03  1.68620616E-03
 -7.36990352E-03  5.94329413E-03  3.22941214E-02  3.69863641E-02 -9.12381986E-03
 -1.54959115E-02  2.77464932E-02  4.49825767E-02 -7.08773128E-03 -5.71740303E-03
  7.16194084E-03 -1.09538739E-01 -2.28774684E-02 -1.87061245E-02  2.27314488E-02
 -2.82919848E-01 -3.34354483E-01 -2.76130286E-01  3.28239335E-01  6.56895777E+00
 -1.63435244E+00 -1.35184585E+00  1.60079625E+00  4.40401033E-03 -1.78140522E-03
  3.78101259E-03 -1.68641643E-03  7.35604312E-03 -6.27375169E-03 -3.21674113E-02
 -3.69960224E-02  9.06122262E-03  1.56881610E-02  1.72567248E-02  2.89347567E-02
  1.22474879E-02  2.38651929E-02  2.53495514E-02 -9.94793297E-02  1.97216654E-02
  3.71457867E-02  3.73363987E-02 -2.05262763E-01 -1.23632018E-03  3.32222418E-02
  9.43806579E-02 -4.92223952E-01  9.22384185E-02  1.48689890E-01  1.06748266E-01
  7.62496357E-04 -2.82680265E-04  1.22710082E-04  4.49863663E-05 -1.38693949E-04
 -3.57289158E-03  2.13370737E-03 -5.98210191E-04  1.03481822E-04 -1.88276327E-03
  1.71962041E-02  2.88326356E-02 -6.70511779E-03 -1.92296013E-02 -3.07600825E-02
 -9.91115101E-02 -9.02877399E-03 -2.82258717E-02 -4.77760471E-02 -2.04902931E-01
 -4.86911855E-02 -7.44666561E-02 -4.55238076E-02 -4.90986828E-01 -7.97080473E-03
 -7.87757254E-02 -1.88877909E-01 -4.59320268E-04  2.00645580E-04  1.76646021E-04
 -1.69517130E-04  6.18456379E-04  4.98334770E-04  5.37745004E-04 -7.72871477E-04
  8.20725078E-04 -4.41172023E-03 -1.72741712E-02 -2.89641434E-02  1.22138480E-02
  2.37922900E-02  2.53799134E-02  9.95806872E-02  1.96739614E-02  3.70427597E-02
  3.73798411E-02  2.05641538E-01 -1.34574663E-03  3.31072221E-02  9.46182626E-02
  4.93440673E-01  9.20582880E-02  1.48517707E-01  1.07029234E-01 -7.64198238E-04
  2.83564818E-04 -1.21346733E-04 -4.55497969E-05  1.38739240E-04  3.57867051E-03
 -2.13469683E-03  6.08645045E-04 -1.05292934E-04  1.87834650E-03 -1.71682182E-02
 -2.87857167E-02 -6.60887727E-03 -1.91810395E-02 -3.08182117E-02  9.89498947E-02
 -8.89219640E-03 -2.81574436E-02 -4.78605702E-02  2.04486316E-01 -4.84199875E-02
 -7.42481999E-02 -4.56068316E-02  4.89573137E-01 -7.61733526E-03 -7.84860744E-02
 -1.89062499E-01  4.57922536E-04 -2.00026528E-04 -1.76696232E-04  1.69864009E-04
 -6.16414602E-04 -4.96088343E-04 -5.38880310E-04  7.68018791E-04 -8.13951738E-04
  4.40883798E-03 -4.13927778E-07 -6.71442076E-07 -4.09256059E-02  3.44791510E-02
 -1.26620444E-02  2.44795258E-06 -5.36017522E-02  4.51596743E-02 -1.65839171E-02
  1.55920612E-05 -1.13115064E-01  9.53306102E-02 -3.50082584E-02 -3.59992319E-05
  5.03866381E-01 -4.24543887E-01  1.55887924E-01  4.26752974E-04  5.42649575E-04
 -8.79620138E-04 -1.38676153E-03  1.07064866E-05 -4.40805724E-04 -5.74459858E-04
  9.08250071E-04  1.40724573E-03 -1.97569189E-05 -2.92809061E-07 -4.42243196E-07
 -4.09187530E-02  3.44755472E-02 -1.26616929E-02  3.13015358E-07 -5.35974682E-02
  4.51595841E-02 -1.65853512E-02  1.18610999E-06 -1.13072009E-01  9.52980679E-02
 -3.49997641E-02  4.69157991E-05  5.04315287E-01 -4.24926265E-01  1.56029283E-01
 -4.28776156E-04 -5.46913430E-04  8.81904312E-04  1.38281807E-03 -1.25579214E-05
  4.29681563E-04  5.51694176E-04 -8.94641424E-04 -1.42205720E-03  1.12281913E-05
 -1.48525055E-07 -2.48166735E-07 -1.69259931E-02  1.42630976E-02 -5.23785899E-03
  8.55126507E-07 -2.88419268E-02  2.43038049E-02 -8.92492470E-03  1.98506406E-07
 -7.08251216E-03  5.97074496E-03 -2.19223400E-03 -2.53498406E-07 -5.78497521E-02
  4.87311893E-02 -1.79036771E-02  2.72955291E-04  5.01453110E-04 -3.80917888E-04
  1.05678938E-04  1.78077499E-04  1.81811648E-03  3.33276769E-03 -2.54669127E-03
  6.54014736E-04  1.17781330E-03  6.48734740E-07  1.09195331E-06 -1.69427529E-02
  1.42730101E-02 -5.24039588E-03 -3.97841017E-06 -2.88613785E-02  2.43135739E-02
 -8.92799898E-03 -2.90352583E-06 -7.13325829E-03  6.01246278E-03 -2.20097196E-03
  1.57399897E-05 -5.77541203E-02  4.86575841E-02 -1.78780516E-02 -1.15809989E-04
 -3.00612627E-04  5.73228404E-05 -6.12824699E-04 -1.73351884E-04 -7.53296037E-04
 -1.97230322E-03  3.51898326E-04 -4.09990513E-03 -1.14666136E-03  6.35549370E-07
  1.07546726E-06 -1.69450543E-02  1.42786328E-02 -5.24423509E-03 -3.97893792E-06
 -2.88686321E-02  2.43256112E-02 -8.93417944E-03 -3.26683003E-06 -7.12325076E-03
  6.00382085E-03 -2.20486910E-03 -1.55965893E-05 -5.78031895E-02  4.86929658E-02
 -1.78962904E-02 -2.72919096E-04 -5.01226596E-04  3.80991919E-04 -1.04906702E-04
 -1.77932707E-04 -1.81952554E-03 -3.33407807E-03  2.54907403E-03 -6.50176369E-04
 -1.17800376E-03 -1.87870292E-07 -3.08210619E-07 -1.69381799E-02  1.42697336E-02
 -5.23850950E-03  1.00216355E-06 -2.88597160E-02  2.43133958E-02 -8.92685166E-03
  1.80392893E-07 -7.10061242E-03  5.98482349E-03 -2.18972014E-03 -2.86750929E-05
 -5.78734100E-02  4.87653713E-02 -1.79155286E-02  1.16194040E-04  3.01335910E-04
 -5.78431390E-05  6.13011170E-04  1.73584693E-04  7.54589462E-04  1.97461345E-03
 -3.53840589E-04  4.09982154E-03  1.14708021E-03 -2.03051321E-03 -2.90080773E-03
 -2.59308176E-02 -2.15948438E-02  2.50215502E-02  3.43031694E-03 -3.87281466E-02
 -3.22557231E-02  3.73587296E-02 -9.15509108E-02 -2.30724632E-02 -1.94940773E-02
  2.15407977E-02 -2.25078592E-01  1.33260227E+00  1.10165777E+00 -1.30736072E+00
 -4.77187530E-03  2.45453206E-03 -3.71866660E-03  1.78472886E-03 -8.60868135E-03
 -1.86701038E-02 -5.77414654E-03 -2.85810496E-02  9.95501654E-03 -2.21628464E-02
 -2.04044711E-03 -2.91681695E-03  2.57938084E-02  2.12680742E-02 -2.54584504E-02
  3.46941097E-03  3.85288837E-02  3.17818500E-02 -3.79945094E-02 -9.11599847E-02
  2.31324454E-02  1.95934890E-02 -2.14217230E-02 -2.19794130E-01 -1.33222261E+00
 -1.09976553E+00  1.31129449E+00 -4.88643299E-03  2.49824739E-03 -3.71759120E-03
  1.76596649E-03 -8.54195132E-03 -1.92246591E-02 -5.56774906E-03 -2.85800717E-02
  9.86597280E-03 -2.18366906E-02  2.04784262E-03  3.45207395E-03 -1.66636449E-02
 -8.62370062E-03  3.03741481E-02 -1.20057878E-02 -3.06160885E-02 -1.83382171E-02
  4.90161993E-02 -1.35518760E-02  7.17243616E-03  1.60121218E-02  2.04153457E-02
 -2.28090250E-02 -1.66863892E-01 -1.48796351E-01  1.34125493E-01 -3.04690920E-04
  6.66346019E-04  5.39303037E-04 -1.76010367E-04 -1.51363190E-04  1.58009337E-04
  3.31796820E-03  2.65117988E-03 -3.63297532E-04 -3.69852562E-03  2.10381031E-03
  3.54442918E-03 -2.41197431E-02 -2.52065459E-02  9.30869166E-03 -1.22888137E-02
 -4.07279718E-02 -4.08191277E-02  2.04719989E-02 -1.43646088E-02 -7.33864774E-03
 -1.62743710E-02 -2.06222994E-02 -2.20543820E-02 -1.51892970E-01 -1.14985749E-01
  1.77841533E-01  3.59721987E-04  4.00733484E-04  5.07246844E-04 -5.86999937E-05
 -5.59736624E-04 -1.11027326E-03  3.79360604E-03  2.68781604E-03 -5.83637328E-04
 -2.88328145E-03  2.07706949E-03  3.49935900E-03  1.68165241E-02  8.65330809E-03
 -3.07915649E-02 -1.21275188E-02  3.08320849E-02  1.83695950E-02 -4.96344877E-02
 -1.40322554E-02 -6.93259715E-03 -1.58896474E-02 -2.08650785E-02 -1.89537648E-02
  1.66680836E-01  1.48727292E-01 -1.33734231E-01 -3.02209757E-04  6.61627748E-04
  5.35609552E-04 -1.74805918E-04 -1.50308485E-04  2.03222865E-04  3.27996294E-03
  2.63631868E-03 -3.54954124E-04 -3.69714021E-03  2.08907496E-03  3.52185974E-03
  2.38339603E-02  2.48845884E-02 -9.26555136E-03 -1.22619886E-02  4.03115397E-02
  4.03440532E-02 -2.04252150E-02 -1.39456367E-02  6.98873841E-03  1.59301109E-02
  2.08079974E-02 -2.66432392E-02  1.52294011E-01  1.15462545E-01 -1.77852091E-01
  3.62823441E-04  4.04023461E-04  5.11448289E-04 -5.92220014E-05 -5.64474621E-04
 -1.07882773E-03  3.80392496E-03  2.70014775E-03 -5.78285626E-04 -2.93744024E-03
  2.90552669E-05  4.96010977E-05  7.56780763E-03  1.71723942E-02  2.23118847E-02
 -2.16699610E-04  1.29144908E-02  2.93294835E-02  3.81427492E-02 -4.91903844E-04
  1.76200966E-01  3.99213081E-01  5.17749476E-01 -1.42979057E-02  8.71336279E-01
  1.97487900E+00  2.56212159E+00  1.47165089E-03 -5.77175854E-04 -6.63068112E-05
  2.60998762E-04 -9.27585267E-04  3.81051009E-02 -1.49085091E-02 -1.54598420E-03
  6.66798438E-03 -2.36829465E-02 -2.99233300E-05 -5.03240761E-05 -7.38678088E-03
 -1.68229430E-02 -2.19451296E-02  2.11139426E-04 -1.26713928E-02 -2.88174157E-02
 -3.75334942E-02  2.26194026E-04 -1.75957815E-01 -3.98906511E-01 -5.17698406E-01
  1.36388947E-02 -8.77118233E-01 -1.98077280E+00 -2.55948314E+00  1.55412671E-03
 -6.12628671E-04 -7.85496763E-05  2.79726401E-04 -9.90725940E-04  3.83398647E-02
 -1.52254429E-02 -1.85264955E-03  6.80888098E-03 -2.39071184E-02  9.94692210E-03
  1.68369020E-02  1.12832063E-03 -3.73263095E-03 -1.38112626E-02 -6.17050054E-02
  2.94072867E-03 -6.75271499E-03 -2.78926322E-02 -1.11008888E-01 -1.20490583E-02
  1.08490936E-02  6.84962346E-02 -1.07654710E+00 -6.02873860E-02 -3.05876413E-02
  1.11639598E-01  1.16252660E-03 -3.45995808E-04  2.27681011E-04  7.45313652E-05
 -3.64883872E-04 -1.27636389E-03 -2.95085991E-04 -1.58361925E-03  4.89637341E-04
 -8.90787439E-04 -9.95473727E-03 -1.68501813E-02 -7.61844881E-03 -1.09746346E-02
 -5.26589473E-03  6.17584141E-02 -1.57263005E-02 -2.22048976E-02 -9.64591808E-03
  1.10939662E-01  4.10258494E-02  5.47319169E-02  1.64517640E-02  1.07628967E+00
  8.71564096E-02  9.13621856E-02 -3.29321988E-02  7.81328811E-04 -4.17182617E-04
 -3.09980806E-04  2.66767059E-04 -8.44191563E-04  7.03071445E-04  5.23851340E-04
  1.60637984E-03 -5.87810255E-04  1.23188038E-03  9.92732041E-03  1.68053413E-02
 -1.17698507E-03  3.76100390E-03  1.40493810E-02 -6.16302381E-02 -2.99507830E-03
  6.81569477E-03  2.82456321E-02 -1.10558306E-01  1.19153621E-02 -1.08828430E-02
 -6.81493006E-02 -1.07879874E+00  6.11654300E-02  3.14332772E-02 -1.12107037E-01
  1.16056446E-03 -3.42069207E-04  2.30906303E-04  7.34260385E-05 -3.65485458E-04
 -1.28879862E-03 -2.66760176E-04 -1.56212828E-03  4.83341606E-04 -9.01900354E-04
 -9.90983060E-03 -1.67758631E-02  7.91006077E-03  1.13079525E-02  5.22780374E-03
  6.15249826E-02  1.61614901E-02  2.27055685E-02  9.59743912E-03  1.10474421E-01
 -4.06760312E-02 -5.43828999E-02 -1.66380362E-02  1.07872513E+00 -8.68991046E-02
 -9.12901868E-02  3.22332206E-02  7.78868260E-04 -4.20127902E-04 -3.13568991E-04
  2.67158098E-04 -8.40107802E-04  6.80653381E-04  5.24098513E-04  1.60554672E-03
 -5.93959634E-04  1.26771065E-03 -1.01087013E-04 -1.68659614E-04 -3.66046402E-02
 -8.28748710E-02 -1.07394442E-01  5.98580158E-04 -5.80201231E-02 -1.31388865E-01
 -1.70307192E-01  2.25066740E-03 -2.82595854E-02 -6.54808101E-02 -8.69725108E-02
  4.86192796E-02  2.10361636E-01  4.69040474E-01  5.97436519E-01  2.32762976E-02
 -9.13962837E-03 -9.81963644E-04  4.08416261E-03 -1.44656921E-02  8.80339925E-02
 -3.46626223E-02 -3.81913495E-03  1.54764673E-02 -5.46815221E-02  1.19768069E-04
  1.97541008E-04 -3.65872811E-02 -8.28687111E-02 -1.07433200E-01 -5.93947442E-04
 -5.79720227E-02 -1.31370283E-01 -1.70410884E-01 -4.24614274E-03 -2.96379890E-02
 -6.74025689E-02 -8.77528232E-02 -4.86909187E-02  2.13438611E-01  4.66637659E-01
  5.81068471E-01 -2.32361694E-02  9.17185528E-03  1.05526139E-03 -4.10558057E-03
  1.44855993E-02 -8.77981472E-02  3.47426672E-02  4.06495124E-03 -1.55283380E-02
  5.46676372E-02 -8.42888731E-03 -1.37871598E-02  2.69571859E-02  8.71371437E-04
 -8.47701552E-02  3.88068571E-02  3.71998750E-02 -2.36248269E-03 -1.26689745E-01
  1.39478076E-01  5.07901212E-02  2.13233297E-02 -1.06107764E-01 -5.98026599E-01
 -5.71779143E-02 -4.87119666E-02  5.21565598E-02 -6.17270949E-04  1.10774571E-03
  8.42843294E-04 -2.92177057E-04 -1.96736837E-04 -6.51440670E-03  7.19916444E-03
  3.71988461E-03 -1.55414319E-03 -1.40698427E-03  8.47165284E-03  1.38595720E-02
 -5.68409768E-02 -6.85289976E-02 -2.89827604E-03 -3.90756945E-02 -8.33892633E-02
 -1.02240264E-01 -8.89656926E-03 -1.39758823E-01 -7.97064864E-02 -8.67090203E-02
  2.15191133E-02  5.98796583E-01  5.58643784E-02  4.49101779E-02 -5.83263711E-02
 -6.77055494E-04 -5.98009563E-04 -7.86465680E-04  6.45707349E-05  1.00094313E-03
 -4.82033380E-03 -2.75938626E-03 -3.24631645E-03 -4.35667650E-04  8.47180141E-03
  8.45357034E-03  1.38296952E-02  2.69177112E-02  9.17364592E-04 -8.45067045E-02
 -3.89839687E-02  3.71005917E-02 -2.33019979E-03 -1.26266779E-01 -1.39621693E-01
  5.09500102E-02  2.15567687E-02 -1.05967047E-01  5.95894898E-01 -5.81674424E-02
 -4.94247858E-02  5.33743337E-02  6.17478521E-04 -1.11096538E-03 -8.46220392E-04
  2.93223850E-04  1.97417186E-04  6.50193347E-03 -7.22664498E-03 -3.74941186E-03
  1.55923330E-03  1.43507839E-03 -8.51617061E-03 -1.39347063E-02 -5.69077805E-02
 -6.86153883E-02 -2.93120529E-03  3.93420694E-02 -8.34953923E-02 -1.02356097E-01
 -8.88816875E-03  1.40261986E-01 -7.99368373E-02 -8.71177862E-02  2.11268491E-02
 -5.93296284E-01  5.42911949E-02  4.34490355E-02 -5.71990946E-02  6.81345912E-04
  5.92933385E-04  7.81498455E-04 -6.22069927E-05 -1.00522726E-03  4.83060374E-03
  2.72439977E-03  3.22290110E-03  4.39651697E-04 -8.44173853E-03 -2.35571516E-06
 -3.89851743E-06 -3.80514024E-02  3.20582937E-02 -1.17694574E-02  1.21431024E-05
 -5.73061448E-02  4.82796678E-02 -1.77252866E-02  5.56811952E-05 -1.26609727E-01
  1.06684264E-01 -3.91679240E-02  1.21459057E-03  1.90420532E+00 -1.60404754E+00
  5.88810558E-01 -1.01301596E-03 -1.29247591E-03  2.08692863E-03  3.27868239E-03
 -2.96503738E-05  2.87540859E-03  3.66808130E-03 -5.92566658E-03 -9.30523341E-03
  8.16062233E-05  2.02005140E-06  3.34525504E-06  3.80388225E-02 -3.20523623E-02
  1.17670573E-02 -9.68121182E-06  5.72905205E-02 -4.82738397E-02  1.77228195E-02
 -7.07141151E-05  1.26573278E-01 -1.06652466E-01  3.91543200E-02 -1.22243728E-03
 -1.90365067E+00  1.60426685E+00 -5.89156881E-01 -1.01289579E-03 -1.29253932E-03
  2.08760659E-03  3.27938092E-03 -2.85660197E-05  2.87321867E-03  3.66604802E-03
 -5.92468005E-03 -9.31328215E-03  7.97636062E-05  8.90651553E-07  1.50927017E-06
 -1.30469868E-02  1.09934557E-02 -4.03344784E-03 -5.55234182E-06 -2.53013906E-02
  2.13182936E-02 -7.82259985E-03 -7.36724946E-06  7.25417085E-03 -6.10793322E-03
  2.24798586E-03 -4.13235490E-05 -1.18047941E-01  9.94468553E-02 -3.64972464E-02
  2.80795901E-04  4.78259844E-04 -4.36233666E-04 -1.33650669E-04  1.41456190E-04
  2.80704935E-03  4.60072341E-03 -4.57659897E-03 -2.50620182E-03  1.21276009E-03
  6.68121701E-07  1.12861454E-06 -1.30729211E-02  1.10094823E-02 -4.04411383E-03
 -4.02769989E-06 -2.53401645E-02  2.13429449E-02 -7.83915117E-03 -5.48482557E-06
  7.21476817E-03 -6.08882083E-03  2.23221984E-03 -2.24140769E-05 -1.18096568E-01
  9.94952925E-02 -3.65346911E-02 -2.38368112E-05 -1.50132546E-04 -9.29771082E-05
 -6.97090215E-04 -1.33938743E-04  2.20718872E-04 -7.35493888E-04 -1.66246959E-03
 -7.29283743E-03 -1.12628233E-03 -3.49238892E-07 -5.90379587E-07  1.30605970E-02
 -1.10036922E-02  4.04219599E-03  2.08074515E-06  2.53214729E-02 -2.13340085E-02
  7.83580885E-03  3.89813811E-06 -7.22875399E-03  6.09209843E-03 -2.22979977E-03
  3.09432091E-05  1.18031871E-01 -9.94453365E-02  3.65197807E-02  2.80790088E-04
  4.78212356E-04 -4.36584893E-04 -1.34576092E-04  1.41374664E-04  2.80860793E-03
  4.60129102E-03 -4.57997572E-03 -2.51408999E-03  1.21269546E-03 -7.75840670E-07
 -1.30483497E-06  1.30439936E-02 -1.09934080E-02  4.03437578E-03  4.54792650E-06
  2.52947773E-02 -2.13173721E-02  7.82433599E-03  9.15358456E-06 -7.24960165E-03
  6.10215756E-03 -2.24686659E-03  3.48507522E-05  1.18007147E-01 -9.94524236E-02
  3.65139882E-02 -2.41593843E-05 -1.50788689E-04 -9.24360799E-05 -6.96713091E-04
 -1.34147285E-04  2.18305553E-04 -7.39844952E-04 -1.65775714E-03 -7.28832948E-03
 -1.12662744E-03  5.23183759E-02  8.67901645E-02  2.20458750E-02  1.81655830E-02
 -2.18494724E-02 -2.84326523E-01  1.86900054E-02  1.53360666E-02 -1.87393036E-02
 -1.39914549E+00 -1.57299885E-01 -1.30416070E-01  1.53041470E-01 -3.38770702E+01
 -5.75454856E+00 -4.76345348E+00  5.62784663E+00  7.36670693E-03 -2.77136439E-03
  6.55455934E-03 -2.88082213E-03  1.22384816E-02  3.55347677E-02  2.35887983E-02
  6.55414017E-02 -2.11642067E-02  3.18603796E-02 -5.22959330E-02 -8.67541313E-02
  2.19999133E-02  1.80831130E-02 -2.18073201E-02  2.84217030E-01  1.86130890E-02
  1.52037429E-02 -1.86727149E-02  1.39880237E+00 -1.57120970E-01 -1.30093312E-01
  1.53748750E-01  3.38775024E+01 -5.75314146E+00 -4.76027367E+00  5.63132007E+00
 -7.38432200E-03  2.77374025E-03 -6.55566858E-03  2.87853040E-03 -1.22209145E-02
 -3.60236219E-02 -2.33968252E-02 -6.55164131E-02  2.10778691E-02 -3.15491783E-02
 -1.70364662E-02 -2.88070039E-02  1.03271848E-02 -1.56130653E-02 -7.58989669E-02
  1.04661486E-01  1.93471160E-02 -1.95121756E-02 -1.15673464E-01  1.32465804E-01
 -1.10659208E-02 -5.23244834E-02 -1.06722526E-01  4.57946413E-01  1.55618944E-01
  8.34836017E-02 -2.75638802E-01 -7.88541159E-04 -5.34124045E-04 -1.01583732E-03
  1.96126377E-04  4.23981394E-04 -4.97560299E-03 -8.85271464E-04 -2.24749897E-03
 -4.06734597E-04  5.55650258E-03 -1.69849659E-02 -2.87216225E-02  4.38095599E-02
  6.03307012E-02  2.27151402E-02  1.04397617E-01  6.85934278E-02  9.21614632E-02
  2.92981602E-02  1.31557043E-01  4.86353482E-02  8.32275667E-02  6.95005585E-02
  4.57657106E-01  2.18916450E-01  2.26380608E-01 -9.10777166E-02  1.80628504E-04
 -9.17020270E-04 -1.05797938E-03  3.66082186E-04 -1.75394947E-04  5.25439213E-03
 -4.93216907E-03 -2.70664309E-03  1.39413108E-03 -7.85694542E-04  1.70260144E-02
  2.87896125E-02  1.04343628E-02 -1.54965517E-02 -7.59465046E-02 -1.04606608E-01
  1.95155216E-02 -1.93351881E-02 -1.15758031E-01 -1.32161022E-01 -1.09369926E-02
 -5.20775506E-02 -1.06517575E-01 -4.55926771E-01  1.55818549E-01  8.37547935E-02
 -2.75548412E-01  7.87678503E-04  5.31965342E-04  1.01186093E-03 -1.94971958E-04
 -4.24492406E-04  4.99199107E-03  8.76941860E-04  2.24373385E-03  4.09636492E-04
 -5.56039637E-03  1.69834701E-02  2.87195737E-02  4.36621534E-02  6.02038323E-02
  2.28265610E-02 -1.04397604E-01  6.83615947E-02  9.19604198E-02  2.94761195E-02
 -1.31637320E-01  4.85541493E-02  8.32355302E-02  6.97320299E-02 -4.60020089E-01
  2.18711080E-01  2.26299593E-01 -9.06380983E-02 -1.77969429E-04  9.17861966E-04
  1.06015772E-03 -3.66591081E-04  1.73350606E-04 -5.24074457E-03  4.92489393E-03
  2.70138214E-03 -1.39087843E-03  7.68143232E-04 -4.56741797E-02 -7.36315304E-02
 -9.03649102E-02 -7.48005775E-02  8.83901205E-02  2.09266293E-01 -1.46109328E-01
 -1.20928113E-01  1.42955578E-01  1.26043067E+00 -2.21396345E-01 -1.83432610E-01
  2.16125365E-01 -1.12190602E+00 -1.42031590E-01 -1.17505004E-01  1.39062848E-01
 -5.88800090E-03  6.06846966E-05 -7.23778695E-03  2.74023157E-03 -8.25344678E-03
 -2.95051055E-02 -8.67553525E-03 -4.44372369E-02  1.54496405E-02 -3.45631759E-02
 -4.51197042E-02 -7.27030740E-02  9.01777573E-02  7.46900462E-02 -8.80705155E-02
  2.06243865E-01  1.45875695E-01  1.20831276E-01 -1.42443217E-01  1.24480501E+00
  2.25911389E-01  1.87007298E-01 -2.20916853E-01 -7.21752324E-01  8.06937272E-02
  6.63727012E-02 -8.00865802E-02 -5.85285141E-03  2.88249913E-05 -7.21210838E-03
  2.72167037E-03 -8.14954047E-03 -2.94357173E-02 -8.44972251E-03 -4.41504276E-02
  1.53715308E-02 -3.46374340E-02  2.07258879E-02  3.42910384E-02  5.10136878E-03
  3.12601815E-02  6.86674878E-02 -1.06368171E-01  8.09142336E-03  5.02740970E-02
  1.10792512E-01 -3.67000575E-01  3.87844364E-03  4.04873808E-02  9.77845997E-02
  4.42860745E-01  7.53008397E-02  2.06346854E-01  3.18493529E-01  2.02643151E-03
  5.69659268E-04  2.02607849E-03 -4.40205134E-04 -1.15178910E-04  1.01169770E-02
  3.47222665E-03  1.17859204E-02 -2.99342927E-03  1.70193892E-03  2.07333618E-02
  3.43031327E-02 -3.25774506E-02 -5.40179840E-02 -4.18172445E-02 -1.06401579E-01
 -5.26262804E-02 -8.71512394E-02 -6.72493271E-02 -3.67246497E-01 -4.81336131E-02
 -7.71804230E-02 -5.46258201E-02  4.41617695E-01 -1.25605348E-01 -2.47980070E-01
 -2.69346308E-01 -1.54312288E-04  1.42575435E-03  2.11763987E-03 -8.22655418E-04
  1.23955574E-03  1.60211148E-03  6.80739665E-03  1.21379761E-02 -4.48594784E-03
  6.99882523E-03  2.06258223E-02  3.41287629E-02 -5.10356065E-03 -3.10056956E-02
 -6.79509026E-02 -1.05953270E-01 -8.05511835E-03 -4.98474500E-02 -1.09725278E-01
 -3.64487135E-01 -4.10891396E-03 -4.02809500E-02 -9.64397415E-02  4.29750497E-01
 -7.46898821E-02 -2.06370459E-01 -3.20564993E-01  2.01872522E-03  5.69082964E-04
  2.01790663E-03 -4.37688295E-04 -1.21010229E-04  1.00804863E-02  3.46685416E-03
  1.17390825E-02 -2.97775751E-03  1.66183056E-03  2.06338333E-02  3.41422319E-02
  3.21439689E-02  5.33928217E-02  4.15310169E-02 -1.06002948E-01  5.19857504E-02
  8.62234005E-02  6.68136229E-02 -3.64424627E-01  4.71743636E-02  7.58892692E-02
  5.42456170E-02  4.30684498E-01  1.25897618E-01  2.48871988E-01  2.70797501E-01
 -1.41850305E-04  1.42087842E-03  2.11349796E-03 -8.18266742E-04  1.22306400E-03
  1.66782646E-03  6.79059210E-03  1.21173801E-02 -4.46055641E-03  6.88897325E-03
 -5.75187336E-02 -9.63410176E-02 -2.37187272E-02 -1.96548165E-02  2.31597720E-02
  3.12768977E-01 -3.38943901E-02 -2.81084596E-02  3.30489537E-02  1.62189595E+00
  4.56454971E-01  3.77815465E-01 -4.46426018E-01 -3.94484298E+01 -5.99966876E+00
 -4.96553738E+00  5.86934988E+00 -5.49762603E-03  3.56187673E-03 -3.55905219E-03
  1.88027112E-03 -1.03290302E-02 -8.68867071E-03 -2.33322324E-02 -3.18551266E-02
  8.44821209E-03  5.86142626E-03  5.79413182E-02  9.70188908E-02 -2.44690050E-02
 -2.01869145E-02  2.40957554E-02 -3.14660414E-01 -3.49886067E-02 -2.88311340E-02
  3.45385515E-02 -1.63596976E+00  4.53660768E-01  3.75401396E-01 -4.44005697E-01
  3.94572909E+01 -6.00106454E+00 -4.96744025E+00  5.86892645E+00  5.57899088E-03
 -3.56028873E-03  3.63321009E-03 -1.90156085E-03  1.03713312E-02  8.71162163E-03
  2.34755646E-02  3.22030619E-02 -8.60405852E-03 -5.46182917E-03  1.11973315E-02
  1.82049453E-02 -2.13733613E-03  2.58434836E-02  7.72974625E-02 -4.75359928E-02
 -1.17311646E-03  4.10957720E-02  1.15723848E-01 -2.87403453E-01 -2.16987502E-02
  2.99958033E-02  1.51836515E-01  1.21041864E+00 -2.70857516E-03 -5.76830762E-02
 -1.48357887E-01  1.38304898E-03 -2.68586082E-04  6.66113278E-04 -1.01615770E-04
  1.21300182E-04  7.68640958E-03 -2.01468911E-03  3.47343369E-03 -6.15836479E-04
  1.68444586E-03  1.12011551E-02  1.82118465E-02 -4.05676688E-02 -6.11880939E-02
 -3.55156274E-02 -4.75697693E-02 -5.97293316E-02 -9.15048477E-02 -5.61487338E-02
 -2.87406547E-01 -8.84852181E-02 -1.21246114E-01 -4.41796136E-02  1.21027426E+00
  7.42638375E-02  1.16925685E-01  7.83251838E-02 -3.57727885E-04  4.15026658E-04
  7.41057199E-04 -4.07943505E-04  1.20686858E-03 -1.45677309E-03  1.55566509E-03
  3.83265044E-03 -2.21093249E-03  7.36231555E-03 -1.14173036E-02 -1.85695271E-02
 -2.21373934E-03  2.59929003E-02  7.79521242E-02  4.86788102E-02 -1.27308032E-03
  4.13867215E-02  1.16839992E-01  2.91360401E-01 -2.18979322E-02  3.00766334E-02
  1.52698564E-01 -1.21511952E+00 -1.75560424E-03 -5.49903441E-02 -1.44076527E-01
 -1.40841947E-03  2.67442767E-04 -6.84296818E-04  1.04927677E-04 -1.20183274E-04
 -7.80176846E-03  2.01648127E-03 -3.55944164E-03  6.36008792E-04 -1.71095995E-03
 -1.13779618E-02 -1.85032440E-02 -4.07470794E-02 -6.15265240E-02 -3.58567504E-02
  4.84498260E-02 -6.00394353E-02 -9.20851155E-02 -5.67258870E-02  2.90847017E-01
 -8.86616872E-02 -1.21543473E-01 -4.44223643E-02 -1.21315351E+00  7.24606862E-02
  1.13450659E-01  7.47234060E-02  3.55439043E-04 -4.30326015E-04 -7.62998693E-04
  4.15151687E-04 -1.21137618E-03  1.40439825E-03 -1.64677765E-03 -4.00259472E-03
  2.26707399E-03 -7.42141948E-03  1.02908738E-02  1.84987771E-02  4.22136276E-02
  3.49717723E-02 -4.12160311E-02 -7.16528626E-02  1.18706032E-01  9.82388830E-02
 -1.16172666E-01  1.06994371E+00 -2.79426518E-01 -2.30310587E-01  2.75979844E-01
  2.30261546E-01  1.20855909E-02  9.83198051E-03 -1.23526315E-02  5.22828311E-03
 -5.77010902E-03  1.21962800E-03 -1.33357162E-03  1.16277456E-02  4.19139099E-02
  1.49205269E-02  6.53451387E-02 -2.23595660E-02  4.67753069E-02  1.04047482E-02
  1.86924904E-02 -4.22373982E-02 -3.49657245E-02  4.13024614E-02 -7.23558919E-02
 -1.18808145E-01 -9.83927483E-02  1.16065386E-01  1.06676262E+00  2.82731797E-01
  2.34559806E-01 -2.75020314E-01  3.01896938E-01 -2.26857146E-02 -1.86340831E-02
  2.26734308E-02  5.25359386E-03 -5.78489420E-03  1.22815196E-03 -1.33603245E-03
  1.16490863E-02  4.17530176E-02  1.51256263E-02  6.55496060E-02 -2.24482878E-02
  4.69208929E-02 -5.39607960E-03 -9.13309346E-03 -2.76763887E-02 -5.55593842E-02
 -6.18085256E-02  3.24829466E-02 -3.57937202E-02 -7.13915657E-02 -7.86878552E-02
  1.22536498E-02 -7.44422517E-02 -1.42155211E-01 -1.46356260E-01 -5.01515982E-01
  1.37001912E-01  3.90962240E-01  6.21463264E-01  1.76409965E-04 -1.52862642E-04
 -1.67361435E-04  9.85052009E-05 -2.56937350E-04  4.43335507E-03 -7.02883341E-04
  4.32006448E-03 -1.61111515E-03  5.37621979E-03 -5.41938645E-03 -9.17248483E-03
  1.76798066E-02  4.72860332E-02  7.15929217E-02  3.26257467E-02  2.22665481E-02
  6.02028887E-02  9.19485891E-02  1.27733135E-02  3.73502247E-02  1.11523124E-01
  1.82825929E-01 -4.96320584E-01 -2.45845456E-01 -4.79746253E-01 -5.11366602E-01
 -3.54129751E-04  5.45040648E-05 -1.47831036E-04  6.74897612E-06  6.86728117E-05
  3.30666349E-03 -2.53143629E-04  4.36701768E-03 -1.80468339E-03  6.04803297E-03
 -5.44065978E-03 -9.20748528E-03  2.77100908E-02  5.56475069E-02  6.19408055E-02
  3.27262127E-02  3.58278888E-02  7.15238668E-02  7.89378419E-02  1.31399775E-02
  7.45809958E-02  1.42387217E-01  1.46550343E-01 -5.01033922E-01 -1.37841210E-01
 -3.90975607E-01 -6.18782689E-01  1.68440914E-04 -1.51692095E-04 -1.70866054E-04
  9.87562134E-05 -2.55608232E-04  4.39368477E-03 -6.82710951E-04  4.31623484E-03
 -1.61249926E-03  5.37116597E-03 -5.42980434E-03 -9.18868389E-03 -1.77846512E-02
 -4.74456159E-02 -7.16872401E-02  3.26487324E-02 -2.23887690E-02 -6.04077306E-02
 -9.21109459E-02  1.29748944E-02 -3.75718283E-02 -1.11755584E-01 -1.82732213E-01
 -5.04435361E-01  2.48551047E-01  4.83558920E-01  5.13008453E-01 -3.57403963E-04
  5.70528871E-05 -1.44974251E-04  4.97609610E-06  7.36065426E-05  3.29693755E-03
 -2.53814665E-04  4.36602751E-03 -1.80667656E-03  6.06405085E-03  8.50986944E-07
  1.80519526E-06  1.81183160E-05 -4.41014220E-06 -3.43031270E-07 -1.07480737E-05
  7.64980420E-05 -3.71850197E-05  2.20611107E-06  2.02567985E-04 -2.28233436E-04
  1.19296414E-04  1.83544956E-06  2.57458983E-05 -1.38792705E-04  1.38875040E-04
 -9.98987225E-05  1.53264006E-03  3.15941696E-03 -1.72606775E-03  2.83318638E-03
  1.38694423E-03  4.93653371E-03  1.01759430E-02 -5.55762985E-03  9.09273184E-03
  4.46799903E-03  8.25369903E-07  1.75258636E-06 -1.38412363E-05  3.92941331E-06
  4.54895352E-06 -1.06488668E-05 -4.90768083E-06 -2.43319277E-05  1.94304319E-05
  2.12753299E-04 -7.97508961E-05  1.75039364E-04 -4.64030607E-05 -6.66179974E-07
 -4.26733582E-05 -5.68371992E-08  2.09035324E-05  1.53382859E-03  3.15981660E-03
 -1.72868993E-03  2.82604163E-03  1.38599755E-03  4.93485146E-03  1.01735852E-02
 -5.55489407E-03  9.09744309E-03  4.46838218E-03  1.43169444E-09 -3.55922411E-08
 -4.76169294E-02  4.01072361E-02 -1.47396233E-02  6.76940976E-07 -5.05124513E-02
  4.25431788E-02 -1.56364555E-02 -9.54652387E-06 -1.74544395E-01  1.47030287E-01
 -5.40271265E-02 -7.84156220E-05  5.25326792E-01 -4.42516861E-01  1.62672791E-01
  2.77535515E-04  5.47447219E-04 -3.42230835E-04  3.51897306E-04  2.23091846E-04
  2.16162915E-03  4.90389523E-03 -1.90086138E-03  6.89308576E-03  2.45268961E-03
 -7.27962520E-07 -1.23359341E-06  4.75454535E-02 -4.00512544E-02  1.47191710E-02
  4.55497173E-06  5.04220740E-02 -4.24734748E-02  1.56141792E-02 -4.25582954E-06
  1.74356024E-01 -1.46885499E-01  5.39561524E-02 -5.27440039E-05 -5.24840966E-01
  4.42115013E-01 -1.62406270E-01  2.13478308E-04  4.65686003E-04 -2.10730025E-04
  5.57346386E-04  2.21031455E-04  3.29663029E-03  6.35212500E-03 -4.24516363E-03
  3.20305911E-03  2.48334998E-03 -6.75944082E-07 -1.17115320E-06  4.75666309E-02
 -4.00653621E-02  1.47235466E-02  4.71776252E-06  5.04502550E-02 -4.24909388E-02
  1.56172512E-02 -5.50249878E-07  1.74422865E-01 -1.46931599E-01  5.39845111E-02
 -1.71063191E-05 -5.25063081E-01  4.42319037E-01 -1.62511646E-01  2.77689012E-04
  5.47536694E-04 -3.42914140E-04  3.49870101E-04  2.22866171E-04  2.16353441E-03
  4.90710243E-03 -1.90788489E-03  6.87880785E-03  2.45191910E-03 -9.01075664E-08
 -1.62642248E-07 -4.76092853E-02  4.01045977E-02 -1.47391026E-02  7.08744241E-07
 -5.04986846E-02  4.25382363E-02 -1.56376688E-02 -1.23940851E-05 -1.74540842E-01
  1.47036032E-01 -5.40160883E-02 -1.07413974E-04  5.25396853E-01 -4.42492906E-01
  1.62596965E-01  2.14320421E-04  4.67126885E-04 -2.12132687E-04  5.56642304E-04
  2.21475249E-04  3.30270597E-03  6.36318201E-03 -4.25536058E-03  3.19833704E-03
  2.48720393E-03  5.26658457E-03  5.89657492E-03  2.37066815E-02  1.95761535E-02
 -2.33060455E-02  3.26875036E-02  3.81740978E-02  3.15063617E-02 -3.75653598E-02
  2.95836814E-01  1.73258931E+00  1.43367006E+00 -1.69587804E+00  1.79364155E+00
  3.89890521E-01  3.22636001E-01 -3.81530289E-01 -2.34460478E-03  7.29229107E-03
  3.74464683E-03 -3.10518303E-04 -8.74309461E-03 -2.59729706E-02 -7.78756405E-02
 -1.03222358E-01  2.71849534E-02  2.21489093E-02 -5.27772973E-03 -5.91591233E-03
  2.38008072E-02  1.97517158E-02 -2.31448017E-02 -3.26371764E-02  3.83819775E-02
  3.18468670E-02 -3.73498005E-02 -2.95642091E-01  1.73301439E+00  1.43479041E+00
 -1.69398501E+00 -1.79353085E+00  3.90041235E-01  3.22856455E-01 -3.81404911E-01
  2.34031585E-03 -7.28872705E-03 -3.74501337E-03  3.10774303E-04  8.73877390E-03
  2.62223107E-02  7.77729527E-02  1.03192587E-01 -2.71275430E-02 -2.23454517E-02
 -1.41631022E-04 -2.24213457E-05  1.45388074E-02  2.55168941E-02  2.24963553E-02
 -5.15424226E-03  2.25914693E-02  3.69852177E-02  2.76999844E-02  6.14272387E-02
  2.20655725E-02  3.20142821E-02  1.58510503E-02  1.47003991E+00 -1.02996679E-01
 -5.54266389E-01 -1.17675042E+00 -2.41068045E-03  2.41680566E-04 -1.39534007E-03
  2.37916544E-04 -1.11401900E-04 -7.71368125E-03 -2.52709672E-03 -9.02666787E-03
  2.35156408E-03 -1.76593904E-03 -1.11701130E-04  2.82061672E-05 -4.25262828E-03
 -1.70306432E-02 -3.26392822E-02 -5.33879819E-03 -2.92487119E-03 -2.07479905E-02
 -4.70592110E-02  6.12144201E-02  3.00039122E-03 -1.13530332E-02 -4.06098563E-02
  1.47023434E+00  5.49008098E-01  9.23543451E-01  7.40588552E-01  5.58677722E-04
 -9.27403190E-04 -1.52259432E-03  7.59004201E-04 -1.95180288E-03 -1.58750684E-03
 -4.93838015E-03 -9.29849526E-03  3.43274991E-03 -5.58502487E-03  1.14483028E-04
 -2.34991909E-05  1.45269472E-02  2.55066950E-02  2.25185029E-02  5.32360310E-03
  2.25580059E-02  3.69671585E-02  2.77738157E-02 -6.12681205E-02  2.21913340E-02
  3.20897267E-02  1.56841030E-02 -1.47036236E+00 -1.03343836E-01 -5.54429036E-01
 -1.17600900E+00  2.40987041E-03 -2.40985518E-04  1.39482791E-03 -2.37543279E-04
  1.08819957E-04  7.71547676E-03  2.52814335E-03  9.03162661E-03 -2.35371699E-03
  1.76877547E-03  1.45212979E-04  2.86779135E-05 -4.20232320E-03 -1.69391699E-02
 -3.25431765E-02  5.12690986E-03 -2.82871688E-03 -2.05986056E-02 -4.69503555E-02
 -6.13651447E-02  2.96847442E-03 -1.12420602E-02 -4.01787415E-02 -1.47043245E+00
  5.49289517E-01  9.23648936E-01  7.40042883E-01 -5.56272126E-04  9.26608667E-04
  1.52446636E-03 -7.59693967E-04  1.95518150E-03  1.58569807E-03  4.93961724E-03
  9.29081590E-03 -3.42808690E-03  5.56854500E-03  2.46393636E-05  3.97132360E-05
  1.13458347E-02  2.57881413E-02  3.35607148E-02 -5.72963361E-05  4.57610154E-03
  1.06658316E-02  1.42684496E-02 -8.66246621E-03  3.20723184E-01  7.23258613E-01
  9.33098327E-01 -1.22122850E-02  1.15457008E-02  2.98210868E-02  4.37755080E-02
 -2.77275446E-03  1.11568984E-03  1.39044458E-04 -4.90368460E-04  1.69611956E-03
  7.12986598E-02 -2.81412187E-02 -3.24126005E-03  1.26010352E-02 -4.44414634E-02
  5.51890524E-05  8.88948770E-05  1.14518395E-02  2.58748501E-02  3.34542565E-02
 -1.38155834E-04  4.99119028E-03  1.10242521E-02  1.39034679E-02 -1.08209820E-02
  3.15305186E-01  7.18733568E-01  9.38276993E-01  3.36758474E-03  1.40573621E-02
  3.18491740E-02  4.11757120E-02  2.77129409E-03 -1.07044324E-03 -1.03321638E-04
  4.84599266E-04 -1.74330473E-03 -7.15890770E-02  2.80611045E-02  2.86965384E-03
 -1.24871806E-02  4.42750265E-02  5.31410124E-04  6.81316644E-04  3.40111072E-02
  3.31846069E-02 -1.95551546E-02  3.13283095E-03  4.18061963E-02  4.15845454E-02
 -2.18736225E-02 -9.29980290E-02  8.77904657E-02  1.02568076E-01 -4.41278409E-03
 -1.38306572E+00 -4.56415008E-01 -1.28047865E-01  1.12668639E+00  2.10794064E-03
 -1.02037721E-03 -4.95088486E-06  2.47414560E-04 -5.15400510E-04  1.01272106E-02
 -5.51282881E-03 -6.91001340E-04  1.37393387E-03 -2.29351182E-03 -4.55005664E-04
 -5.54290238E-04 -2.70613658E-02 -1.73950605E-02  4.00788950E-02 -3.54772732E-03
 -3.22139883E-02 -1.97624813E-02  5.02920945E-02  9.16310927E-02 -4.58630330E-02
 -7.84559121E-03  1.26786046E-01  1.39791114E+00  8.07432604E-01  9.19272171E-01
 -1.06001919E-01  1.55164665E-03 -4.19679971E-04 -1.55099543E-04  3.96959691E-04
 -1.76397312E-03  7.69439652E-03 -1.52376598E-03 -8.81784843E-05  1.75508307E-03
 -8.73403597E-03 -4.56369572E-04 -5.56065294E-04  3.39926153E-02  3.31413300E-02
 -1.96259417E-02 -3.55593798E-03  4.17817849E-02  4.14905812E-02 -2.20645206E-02
  9.19065442E-02  8.76531938E-02  1.02705645E-01 -3.64393830E-03  1.39887690E+00
 -4.58364086E-01 -1.28108526E-01  1.13283239E+00 -2.12286650E-03  1.02666863E-03
  3.04567198E-06 -2.48380400E-04  5.17142993E-04 -1.01452259E-02  5.50535162E-03
  6.88080524E-04 -1.38103548E-03  2.34123943E-03  5.26768285E-04  6.73977637E-04
 -2.70256472E-02 -1.73313961E-02  4.01488364E-02  3.14760018E-03 -3.21139176E-02
 -1.95979012E-02  5.04300196E-02 -9.28417444E-02 -4.62887629E-02 -8.38811708E-03
  1.26731000E-01 -1.38233147E+00  8.03350234E-01  9.14280736E-01 -1.06408042E-01
 -1.54311187E-03  4.17905572E-04  1.53596233E-04 -3.94120969E-04  1.75088001E-03
 -7.65875735E-03  1.48388065E-03  7.15995560E-05 -1.74822780E-03  8.75071833E-03
  5.29573599E-07  8.88585049E-07 -1.39675903E-06  6.65726416E-06  7.84307025E-06
  1.18053922E-06 -3.00745037E-05  3.37362566E-05 -1.00717740E-05  9.79351187E-05
  3.29311581E-04 -4.32630626E-05  2.27182425E-04  1.15673064E-03  1.25989672E-03
 -8.46186516E-04 -3.79310678E-05  3.36697907E-04  6.92667765E-04 -3.79697061E-04
  6.17419298E-04  3.03831697E-04 -1.00595285E-02 -2.07404148E-02  1.13175059E-02
 -1.85855655E-02 -9.08756127E-03 -2.85043034E-06 -4.76542394E-06 -8.29105689E-06
  4.39124953E-06 -7.32907893E-06  8.86569427E-06  2.82783014E-05 -1.31773093E-05
 -1.16769483E-06  1.30190572E-04 -2.70563605E-04  2.11344341E-04 -3.04950259E-04
 -1.05067872E-03 -8.93859525E-04  1.29801427E-03 -4.75249815E-04 -3.34270758E-04
 -6.89904480E-04  3.74786561E-04 -6.22466146E-04 -3.03690081E-04  1.00673583E-02
  2.07645761E-02 -1.13342873E-02  1.85675329E-02  9.09800394E-03  8.25771098E-07
  1.36172924E-06 -4.33433079E-02  3.65241241E-02 -1.34114305E-02 -4.59440665E-06
 -4.20322535E-02  3.54205820E-02 -1.30061357E-02 -7.89699515E-06 -1.82660309E-01
  1.53916387E-01 -5.65253756E-02 -2.11865710E-04  6.86048698E-01 -5.78095811E-01
  2.12493787E-01  5.98362646E-04  1.09256432E-03 -8.42102566E-04  1.91448336E-04
  3.83411245E-04  3.63534431E-03  6.50599974E-03 -5.26447653E-03  3.37599480E-04
  2.18627008E-03 -5.42859831E-07 -8.61162958E-07  4.33671482E-02 -3.65358220E-02
  1.34140235E-02  1.65208096E-06  4.20626347E-02 -3.54363280E-02  1.30121363E-02
  2.52313526E-05  1.82719241E-01 -1.53925729E-01  5.65069437E-02  2.07799211E-04
 -6.86326646E-01  5.78434066E-01 -2.12252683E-01  2.38756342E-04  6.33715567E-04
 -1.00984639E-04  1.35566487E-03  3.72911371E-04  1.13094536E-03  3.31663664E-03
 -1.08331467E-04  8.45080229E-03  2.11704969E-03 -1.64256968E-07 -3.14354072E-07
 -4.33533878E-02  3.65308889E-02 -1.34189834E-02  2.46516558E-06 -4.20501577E-02
  3.54328665E-02 -1.30160719E-02 -1.73643191E-05 -1.82648640E-01  1.53909131E-01
 -5.65511746E-02 -3.04735254E-04  6.86362451E-01 -5.78373702E-01  2.12246770E-01
 -5.98259546E-04 -1.09334980E-03  8.42902018E-04 -1.90564228E-04 -3.83549897E-04
 -3.63380749E-03 -6.50975968E-03  5.26533985E-03 -3.49402410E-04 -2.18948810E-03
 -1.60940976E-06 -2.65054429E-06  4.33383872E-02 -3.65098639E-02  1.34073364E-02
  8.45678524E-06  4.20284826E-02 -3.54064319E-02  1.30037111E-02  3.10216140E-05
  1.82639684E-01 -1.53846752E-01  5.64962957E-02 -6.84605235E-05 -6.86014168E-01
  5.77865007E-01 -2.12155498E-01 -2.39003802E-04 -6.33957189E-04  1.01833513E-04
 -1.35482869E-03 -3.72986447E-04 -1.12495143E-03 -3.30623433E-03  9.87758965E-05
 -8.45070976E-03 -2.11563702E-03 -3.27421612E-02 -5.47626212E-02 -3.26471636E-02
 -2.70254981E-02  3.19157401E-02  1.42280021E-01 -5.86771614E-02 -4.86253021E-02
  5.72396940E-02  3.20994836E+00 -7.04815766E-01 -5.82114672E-01  6.92810409E-01
  1.53180172E+00 -2.58257564E-01 -2.13114240E-01  2.53944830E-01 -3.17110908E-03
 -4.64829385E-03 -8.17203119E-03  2.38146661E-03 -9.43968840E-04  2.88390997E-02
  2.34922402E-02  5.69409377E-02 -1.78815558E-02  2.20579620E-02 -3.27680880E-02
 -5.48073655E-02  3.26500968E-02  2.70589340E-02 -3.18493870E-02  1.42382440E-01
  5.86185646E-02  4.84786598E-02 -5.74383634E-02  3.21260487E+00  7.06072406E-01
  5.85866735E-01 -6.86784950E-01  1.52389646E+00  2.59848941E-01  2.14967752E-01
 -2.54744131E-01 -3.19953550E-03 -4.63130106E-03 -8.16817942E-03  2.37736503E-03
 -9.37788294E-04  2.85644451E-02  2.36270382E-02  5.70104004E-02 -1.79541833E-02
  2.22795271E-02 -1.06262579E-02 -1.75535309E-02  7.06106180E-03  2.47287917E-02
  4.45051059E-02  5.65495600E-02  1.08884938E-02  2.83533998E-02  4.20030373E-02
  2.23806909E-01 -1.35489016E-03  1.02091634E-01  2.82362727E-01 -2.69352387E+00
 -2.37285972E-02  2.21304366E-01  6.79931529E-01  3.94732812E-03 -2.77335900E-04
  2.09448073E-03 -2.29256663E-04 -6.52673037E-04  5.68477184E-03  4.26868785E-03
  5.05598175E-03  1.31596339E-04 -9.99225435E-03 -1.05867125E-02 -1.74852355E-02
 -1.94401004E-02 -3.49249590E-02 -3.23210315E-02  5.62638974E-02 -1.63101986E-02
 -3.27918766E-02 -3.66306143E-02  2.23991520E-01 -1.45403009E-01 -2.23222466E-01
 -1.38106436E-01 -2.68754621E+00 -3.56170676E-01 -5.35202795E-01 -3.05653878E-01
 -1.55691132E-03  1.88237663E-03  2.32493260E-03 -1.19462195E-03  2.76730841E-03
 -7.03252320E-03  9.27415287E-03  5.60095235E-03 -2.10122174E-03 -2.10720929E-03
 -1.05942182E-02 -1.74983503E-02 -6.77155172E-03 -2.44580358E-02 -4.47400720E-02
  5.63266586E-02 -1.05408050E-02 -2.80372634E-02 -4.23036839E-02  2.23870565E-01
  2.30666614E-03 -1.01090741E-01 -2.82848389E-01 -2.68791746E+00  2.19536162E-02
 -2.21913298E-01 -6.75042285E-01  3.94389269E-03 -2.82494182E-04  2.08775404E-03
 -2.27744465E-04 -6.49549599E-04  5.63799020E-03  4.28826577E-03  5.04854489E-03
  1.30358322E-04 -9.99546640E-03 -1.06163751E-02 -1.75370662E-02  1.92131110E-02
  3.48000197E-02  3.26418487E-02  5.64962886E-02  1.60324261E-02  3.26295592E-02
  3.70138542E-02  2.23633380E-01  1.44916241E-01  2.23190774E-01  1.39304943E-01
 -2.69401206E+00  3.59410553E-01  5.38605383E-01  3.05821041E-01 -1.55794978E-03
  1.88996579E-03  2.33355140E-03 -1.19699933E-03  2.76838659E-03 -7.05003410E-03
  9.28650481E-03  5.61296103E-03 -2.10742976E-03 -2.08087016E-03  2.20454581E-06
  3.74440657E-06 -1.74533700E-02  1.47069865E-02 -5.40749357E-03 -7.33940576E-06
 -7.38295748E-03  6.21797198E-03 -2.29410248E-03 -4.12516157E-04 -2.38785409E-01
  2.01208381E-01 -7.39744156E-02 -9.50159694E-04 -6.06252030E-01  5.10596459E-01
 -1.87432439E-01  9.23683180E-04  1.17855085E-03 -1.90154516E-03 -2.98820088E-03
  2.60692704E-05 -2.16118334E-03 -2.75341338E-03  4.44093000E-03  6.96039155E-03
 -7.05263317E-05  4.34561443E-06  7.41692684E-06 -1.74657462E-02  1.47065364E-02
 -5.40345734E-03 -2.28427088E-05 -7.39840140E-03  6.21011205E-03 -2.28299525E-03
 -2.43916131E-04 -2.39098544E-01  2.01199949E-01 -7.38732838E-02  5.37955977E-04
 -6.06876263E-01  5.11020461E-01 -1.87531798E-01 -9.21256871E-04 -1.17417419E-03
  1.90128681E-03  2.98982277E-03 -2.44963028E-05  2.13655405E-03  2.71526827E-03
 -4.42696407E-03 -6.95865696E-03  5.58279422E-05  1.70648167E-06  2.78175468E-06
 -4.56075940E-02  3.84220006E-02 -1.41129746E-02 -7.89575147E-06 -4.66113945E-02
  3.92659090E-02 -1.44217411E-02 -4.82523663E-05 -1.82683631E-01  1.53906939E-01
 -5.65492576E-02  4.64627136E-04  7.74573593E-01 -6.52618166E-01  2.39465028E-01
  4.97173843E-04  8.52005182E-04 -7.68992092E-04 -2.10922208E-04  2.55323681E-04
  3.06733116E-03  5.01026420E-03 -5.02532067E-03 -2.86078256E-03  1.30639004E-03
  6.95359819E-07  1.18680675E-06 -4.56432298E-02  3.84587501E-02 -1.41195232E-02
 -4.70712533E-06 -4.66399216E-02  3.92973964E-02 -1.44295552E-02 -5.57942062E-06
 -1.82872911E-01  1.54101408E-01 -5.65613116E-02  1.44802409E-04  7.75293372E-01
 -6.53199006E-01  2.39846022E-01 -5.22321809E-05 -2.83237843E-04 -1.49412869E-04
 -1.22988971E-03 -2.42425725E-04  2.92851654E-04 -7.20269137E-04 -1.89923683E-03
 -8.00977236E-03 -1.20710062E-03  1.18071298E-06  1.98970543E-06 -4.56484462E-02
  3.84617879E-02 -1.41155447E-02 -7.43887943E-06 -4.66455410E-02  3.93012085E-02
 -1.44237940E-02 -1.25352190E-05 -1.82912607E-01  1.54119085E-01 -5.65497298E-02
  1.78936091E-04  7.75619016E-01 -6.53448992E-01  2.39905154E-01 -4.98538285E-04
 -8.52469409E-04  7.69708147E-04  2.13399481E-04 -2.55102628E-04 -3.07332495E-03
 -5.01774351E-03  5.03557667E-03  2.87935403E-03 -1.30406310E-03  2.09289406E-06
  3.42258931E-06 -4.56248844E-02  3.84310168E-02 -1.41186345E-02 -1.01408700E-05
 -4.66278290E-02  3.92768808E-02 -1.44315216E-02 -5.32995762E-05 -1.82768844E-01
  1.53927717E-01 -5.65472930E-02  5.11238318E-04  7.74750782E-01 -6.52902229E-01
  2.39630559E-01  5.35280304E-05  2.84442857E-04  1.47263227E-04  1.22913613E-03
  2.42197525E-04 -2.84779998E-04  7.28968917E-04  1.88695905E-03  8.00220791E-03
  1.21041336E-03 -2.00628639E-02 -3.39311912E-02  1.15232243E-04  5.33404091E-05
 -2.22484956E-04  7.94135953E-02 -9.16815686E-02 -7.59104480E-02  8.96197711E-02
 -1.29477664E+00 -1.34472136E+00 -1.11346938E+00  1.31416308E+00 -1.33709655E+01
 -3.06087248E+00 -2.53229462E+00  2.99719685E+00 -4.59809420E-03 -1.04269977E-04
 -5.80475440E-03  2.17774888E-03 -6.36602274E-03  5.78308401E-02  1.28024306E-01
  1.88845599E-01 -5.20133004E-02 -1.43096219E-02  2.00568206E-02  3.39242319E-02
  1.58344121E-04  1.73192294E-04 -4.04699415E-05 -7.94385747E-02 -9.16769394E-02
 -7.58494267E-02  8.97458576E-02  1.29537422E+00 -1.34412478E+00 -1.11205426E+00
  1.31606793E+00  1.33714434E+01 -3.06322302E+00 -2.53684913E+00  2.99254340E+00
  4.63927683E-03  8.75119006E-05  5.80391919E-03 -2.17127422E-03  6.34439961E-03
 -5.91031065E-02 -1.27558253E-01 -1.88818588E-01  5.17850790E-02  1.51540923E-02
 -8.74892708E-03 -1.48196398E-02 -3.28555261E-02 -1.93132670E-02  5.35893480E-02
  5.90837126E-02 -3.65297718E-02 -2.23744962E-02  5.71267982E-02  2.28661165E-02
 -1.56921611E-01 -6.13945143E-02  3.39994566E-01 -1.47902984E+00  7.04826617E-01
  6.80114330E-01 -4.25719054E-01  1.97063776E-03 -3.59348721E-04  7.16838556E-04
  6.36490606E-06 -4.78572225E-04 -1.11104985E-02  1.27972631E-02  5.41978509E-03
 -1.89196230E-03 -6.28527613E-03 -8.74872444E-03 -1.48199671E-02 -4.38241130E-02
 -4.41565660E-02  2.14142372E-02  5.91113847E-02 -4.74723607E-02 -4.71569940E-02
  2.50368399E-02  2.22807925E-02 -2.52476515E-01 -2.77626485E-01  6.00577548E-02
 -1.48444985E+00  5.67359112E-01  3.72347877E-01 -8.20104596E-01 -1.06010723E-03
  8.30162680E-04  8.45503933E-04 -5.25953953E-04  1.40816222E-03  5.14679128E-03
  6.38290943E-03  4.69678128E-03  9.72725019E-04 -1.63891517E-02  8.73037171E-03
  1.47895639E-02 -3.28991760E-02 -1.93547060E-02  5.36296537E-02 -5.90179351E-02
 -3.65859723E-02 -2.24185139E-02  5.72019818E-02 -2.17611139E-02 -1.57141752E-01
 -6.14516818E-02  3.40577328E-01  1.48302760E+00  7.03428836E-01  6.79680901E-01
 -4.22635283E-01 -1.97648351E-03  3.64882870E-04 -7.14502806E-04 -7.65180022E-06
  4.78370689E-04  1.11067361E-02 -1.27849235E-02 -5.40413552E-03  1.88672174E-03
  6.29058579E-03  8.75171838E-03  1.48244321E-02 -4.38192706E-02 -4.41634302E-02
  2.13920112E-02 -5.91041762E-02 -4.74605959E-02 -4.71567949E-02  2.50126904E-02
 -2.28586569E-02 -2.52227053E-01 -2.77323058E-01  6.01070808E-02  1.47884237E+00
  5.70679494E-01  3.75998335E-01 -8.21146859E-01  1.05344646E-03 -8.31074208E-04
 -8.47610308E-04  5.24791692E-04 -1.39934250E-03 -5.18349867E-03 -6.38232318E-03
 -4.71102607E-03 -9.73655647E-04  1.64133075E-02 -6.63247179E-07  1.82550602E-06
 -8.82134019E-04 -2.00068263E-03 -2.60061745E-03 -1.40982120E-04 -2.37153375E-02
 -5.36703511E-02 -6.95355899E-02  2.06456004E-03  1.83802837E-02  4.13166385E-02
  5.31589178E-02  7.81435267E-03 -3.05009472E-01 -6.93426832E-01 -9.02627870E-01
  3.83735791E-03 -1.51089419E-03 -1.64672012E-04  6.73533342E-04 -2.37954343E-03
 -3.73368951E-02  1.45525817E-02  1.46840302E-03 -6.52515222E-03  2.32673400E-02
 -1.87623699E-05 -3.06238349E-05 -8.56536869E-04 -1.92237503E-03 -2.47011995E-03
 -1.02351360E-05 -2.35319993E-02 -5.34717059E-02 -6.95862206E-02  8.49327429E-04
  1.88331060E-02  4.22633221E-02  5.42645917E-02 -6.48940142E-03 -3.06272055E-01
 -6.95771728E-01 -9.04952237E-01 -3.83705837E-03  1.51277334E-03  1.66770001E-04
 -6.74052290E-04  2.37846864E-03  3.74309012E-02 -1.47869456E-02 -1.66235624E-03
  6.58606623E-03 -2.32040827E-02  5.64203756E-03  9.64076030E-03 -1.64848451E-02
 -3.18835337E-02 -3.35406317E-02 -4.02496119E-02 -1.33445223E-02 -2.82552412E-02
 -3.38105206E-02  3.68217709E-03 -7.90298054E-02 -1.68261202E-01 -2.02772865E-01
 -5.84021717E-02  5.02845866E-01  9.95987683E-01  1.08705556E+00 -2.26554327E-04
  7.91593146E-04  1.08839469E-03 -4.44424342E-04  7.09756289E-04  1.07361875E-02
  3.90302399E-04  9.91442197E-03 -2.79411782E-03  5.30853006E-03 -5.64548227E-03
 -9.64605211E-03 -8.85674584E-03 -2.55945061E-02 -4.10875441E-02  4.02527111E-02
 -1.05412044E-02 -2.59427071E-02 -3.65942893E-02 -3.28681617E-03 -6.40047146E-02
 -1.56005150E-01 -2.18018859E-01  5.60480889E-02  3.02870992E-01  8.30656217E-01
  1.28344549E+00 -1.17242902E-03 -2.42696140E-04 -1.02795267E-03  1.97948419E-04
  1.63991457E-04 -2.61892056E-03 -3.58797295E-03 -1.02692324E-02  4.22240307E-03
 -1.03531864E-02 -5.66306638E-03 -9.67545838E-03 -1.65300938E-02 -3.19528930E-02
 -3.35936364E-02  4.03588928E-02 -1.33953711E-02 -2.83145545E-02 -3.38176596E-02
 -3.15327367E-03 -7.91912601E-02 -1.68653919E-01 -2.03357801E-01  5.69285075E-02
  5.03017505E-01  9.97001718E-01  1.08942956E+00  2.23907428E-04 -7.91572150E-04
 -1.08814456E-03  4.43562349E-04 -7.05139940E-04 -1.08020133E-02 -3.69550331E-04
 -9.92868205E-03  2.79083794E-03 -5.29346987E-03  5.65623750E-03  9.66442713E-03
 -8.82468142E-03 -2.55313027E-02 -4.10099001E-02 -4.03266184E-02 -1.05172901E-02
 -2.58919325E-02 -3.65248101E-02  3.41921403E-03 -6.38215095E-02 -1.55679557E-01
 -2.17690292E-01 -5.95466304E-02  3.03729203E-01  8.31693840E-01  1.28334449E+00
  1.17544157E-03  2.38883218E-04  1.02727718E-03 -1.98105754E-04 -1.59481449E-04
  2.64376360E-03  3.58673683E-03  1.02800816E-02 -4.22189648E-03  1.03415947E-02
 -3.36547855E-05 -5.54729580E-05  3.80130910E-02  8.62606486E-02  1.12061364E-01
  6.09986592E-05  4.07745753E-02  9.27469436E-02  1.20803562E-01  3.96814964E-03
  4.32644534E-01  9.78958845E-01  1.26771651E+00 -5.98848030E-02 -1.11619161E+00
 -2.51560855E+00 -3.24400295E+00 -1.07334985E-03  3.95888629E-04  4.94102535E-06
 -1.72865057E-04  6.41527440E-04 -7.25357954E-02  2.84340839E-02  3.07409884E-03
 -1.27546839E-02  4.52660781E-02 -9.08717318E-06 -1.18590806E-05 -3.81619691E-02
 -8.63996701E-02 -1.11957232E-01  7.11554270E-05 -4.12115207E-02 -9.31610329E-02
 -1.20516730E-01 -9.64523572E-04 -4.30650113E-01 -9.77474529E-01 -1.27011072E+00
  6.00433886E-02  1.09531410E+00  2.49798742E+00  3.26350604E+00 -1.05750438E-03
  4.30351024E-04  6.94751271E-05 -1.95231968E-04  6.74039402E-04 -7.26265335E-02
  2.86975484E-02  3.17800843E-03 -1.27485972E-02  4.48781143E-02  1.73343787E-02
  2.88312953E-02 -2.59184285E-03  6.27081387E-04  1.01001037E-02 -9.45221751E-02
 -7.23357045E-03  2.61093880E-03  3.05103182E-02 -3.09349502E-01  8.22801216E-03
 -1.73946395E-02 -7.39280553E-02 -8.49341355E-01 -4.08929710E-01  2.09484767E-01
  1.89240212E+00  2.15640754E-03 -1.58107647E-03 -2.80216556E-04  2.24746883E-04
  4.13580914E-04  2.14721924E-02 -8.14778192E-03  4.57459289E-03  5.03537008E-04
 -4.83743527E-04 -1.73117701E-02 -2.87943716E-02  6.41433661E-03  7.95340249E-03
  8.99852939E-04  9.44380152E-02  1.91444586E-02  2.42639032E-02  4.17492276E-03
  3.08496328E-01 -4.23121526E-02 -5.96433325E-02 -2.57953720E-02  8.47630271E-01
  1.17116357E+00  1.51715585E+00  3.46808788E-01  1.11470598E-03  3.01015057E-04
  1.50087149E-04  3.45886316E-04 -2.44035749E-03  1.01772457E-02 -4.23234801E-03
 -5.86374353E-03  5.03805887E-03 -1.92130882E-02  1.73201749E-02  2.88080692E-02
  2.66286155E-03 -4.95956402E-04 -9.93420835E-03 -9.44697592E-02  7.35336490E-03
 -2.40087479E-03 -3.02864247E-02 -3.08803226E-01 -8.30845504E-03  1.75430865E-02
  7.47486283E-02 -8.49199798E-01  4.10665670E-01 -2.07619132E-01 -1.89336169E+00
  2.15205417E-03 -1.58700747E-03 -2.90842058E-04  2.27870675E-04  4.12631569E-04
  2.15056677E-02 -8.23832416E-03  4.49140108E-03  5.31389479E-04 -4.74913287E-04
 -1.73284685E-02 -2.88207110E-02 -6.50551770E-03 -8.14621046E-03 -1.16632408E-03
  9.44672624E-02 -1.92548556E-02 -2.45140163E-02 -4.53579899E-03  3.09544311E-01
  4.16336739E-02  5.86326168E-02  2.50878613E-02  8.47992505E-01 -1.16943488E+00
 -1.51518450E+00 -3.46617535E-01  1.11496826E-03  2.94803993E-04  1.41341961E-04
  3.49009475E-04 -2.44342518E-03  1.01272650E-02 -4.28315053E-03 -5.92858031E-03
  5.04438884E-03 -1.91356742E-02 -2.22838029E-03 -1.81073645E-03  2.22748966E-02
  1.83501430E-02 -2.20062354E-02 -8.14436317E-03  3.06169758E-02  2.51952391E-02
 -3.03278726E-02  2.97758171E-01  2.52253933E-01  2.07759850E-01 -2.49305703E-01
 -3.39077239E-01  1.61982521E+00  1.34118003E+00 -1.58232277E+00  1.10916515E-03
 -2.12330092E-03 -5.67306476E-04 -1.06201851E-04  3.12807159E-03  8.16648370E-03
 -1.73738855E-02 -5.80615998E-03 -4.08366881E-04  2.42070047E-02 -2.24468925E-03
 -1.83826615E-03 -2.23894058E-02 -1.85759392E-02  2.17796199E-02 -8.05506703E-03
 -3.08232010E-02 -2.56509633E-02  2.97852341E-02  2.97562208E-01 -2.52249778E-01
 -2.08289257E-01  2.47897980E-01 -3.48971549E-01 -1.61813122E+00 -1.34043985E+00
  1.57899750E+00  1.09115292E-03 -2.10949232E-03 -5.59614168E-04 -1.10664827E-04
  3.13511351E-03  8.13147950E-03 -1.72972202E-02 -5.73739418E-03 -4.33705371E-04
  2.42086609E-02  1.32835597E-03  2.33695255E-03  4.32523529E-02  3.54948988E-02
 -4.31155638E-02 -1.15599041E-02  4.72032129E-02  4.04480649E-02 -4.23953032E-02
  1.94542698E-02  1.64537551E-01  1.17251892E-01 -2.12420532E-01  8.55752902E-02
 -7.44454361E-01 -5.71340198E-01  8.49856810E-01  5.17254026E-04 -6.82668034E-04
 -5.36539089E-04  2.30910156E-04 -1.55721948E-04  1.00379237E-02 -6.36754901E-03
 -1.99462735E-03  1.83565106E-03 -2.81765243E-03  1.35467593E-03  2.38248713E-03
  4.35124523E-02  3.62726591E-02 -4.18459412E-02 -1.17517361E-02  4.51107665E-02
  3.59016435E-02 -4.80286658E-02  1.97315998E-02  1.90226914E-01  1.76224725E-01
 -1.34849437E-01  7.81853830E-02 -8.08521170E-01 -7.14993987E-01  6.65752513E-01
 -6.82856809E-04 -2.13372244E-04 -4.83713576E-04  1.82635726E-05  6.01936837E-04
 -8.63410145E-03  1.00174579E-03 -1.16646327E-03 -1.45138285E-03  8.78126907E-03
  1.32972897E-03  2.34179819E-03 -4.31065610E-02 -3.54128195E-02  4.28734899E-02
 -1.16365925E-02 -4.70587723E-02 -4.03758406E-02  4.21297239E-02  2.03806654E-02
 -1.63958851E-01 -1.16924377E-01  2.11471176E-01  7.94687666E-02  7.43729657E-01
  5.70404940E-01 -8.50198944E-01  5.21803965E-04 -6.86859818E-04 -5.35539508E-04
  2.30112149E-04 -1.48210431E-04  1.00124042E-02 -6.35000187E-03 -1.99282783E-03
  1.83404606E-03 -2.82121880E-03  1.33480585E-03  2.34722608E-03 -4.36591541E-02
 -3.64360152E-02  4.18807212E-02 -1.15840232E-02 -4.52680392E-02 -3.60889854E-02
  4.80315219E-02  1.92604177E-02 -1.90780942E-01 -1.76809349E-01  1.35075256E-01
  8.20651403E-02  8.08406994E-01  7.14675539E-01 -6.66379247E-01 -6.88156986E-04
 -2.09587423E-04 -4.85332809E-04  1.91084214E-05  5.95318293E-04 -8.65923989E-03
  1.00121559E-03 -1.17106612E-03 -1.45558777E-03  8.81050707E-03  5.76095864E-08
 -1.08671322E-09  3.04225504E-02 -2.56302731E-02  9.41632424E-03 -4.99107036E-06
  2.65104712E-02 -2.23411656E-02  8.21036281E-03  1.57265598E-05  5.37148722E-01
 -4.52530731E-01  1.66321784E-01  2.61392045E-04  2.28069976E+00 -1.92192993E+00
  7.05581146E-01  6.61404647E-04  8.44431974E-04 -1.36246665E-03 -2.13769061E-03
  1.87530669E-05 -1.05454746E-02 -1.34409681E-02  2.17260520E-02  3.41246648E-02
 -2.91971477E-04  1.94103555E-07  2.49669214E-07 -3.04355505E-02  2.56426635E-02
 -9.42127095E-03  4.63979356E-07 -2.65552735E-02  2.23722322E-02 -8.21825429E-03
  3.33958981E-05 -5.37130369E-01  4.52481738E-01 -1.66288195E-01 -1.46454778E-04
 -2.28062440E+00  1.92188019E+00 -7.05562144E-01  6.61034674E-04  8.42211662E-04
 -1.36186048E-03 -2.14273113E-03  1.80204920E-05 -1.05494717E-02 -1.34423113E-02
  2.17167993E-02  3.41351790E-02 -2.93561652E-04 -2.32980178E-07 -3.99923178E-07
  4.41989071E-02 -3.72487154E-02  1.36789669E-02  1.71767510E-06  4.39389632E-02
 -3.70300499E-02  1.35974174E-02  3.24238837E-06  1.95104572E-01 -1.64426257E-01
  6.03937942E-02 -2.74991229E-04 -9.94185610E-01  8.37843953E-01 -3.07517846E-01
 -5.92810182E-04 -1.00705538E-03  9.25323838E-04  3.02599244E-04 -2.95263098E-04
 -4.82662580E-03 -8.03750925E-03  7.71752999E-03  3.47751537E-03 -2.22887319E-03
 -8.99827616E-07 -1.55203972E-06  4.42047359E-02 -3.72508519E-02  1.36780815E-02
  6.75198145E-06  4.39515933E-02 -3.70375418E-02  1.36018618E-02 -4.45432504E-06
  1.95088247E-01 -1.64412902E-01  6.03517236E-02  6.95100451E-05 -9.93920758E-01
  8.37708971E-01 -3.07501421E-01  4.24920578E-05  3.03830249E-04  2.08865035E-04
  1.47634465E-03  2.78891990E-04 -4.91300930E-05  1.81275920E-03  2.32956306E-03
  1.22974964E-02  2.08553945E-03  3.90099709E-07  6.77716246E-07 -4.41807781E-02
  3.72314369E-02 -1.36708616E-02 -3.08453427E-06 -4.39312094E-02  3.70215519E-02
 -1.35930592E-02  5.96029354E-06 -1.94986588E-01  1.64315599E-01 -6.03320933E-02
 -1.72404945E-04  9.93758868E-01 -8.37427670E-01  3.07334518E-01 -5.92285853E-04
 -1.00566821E-03  9.24516443E-04  3.03580930E-04 -2.94722724E-04 -4.82262078E-03
 -8.03341992E-03  7.71209486E-03  3.47383410E-03 -2.22766108E-03 -3.57484005E-07
 -6.04743745E-07 -4.41964380E-02  3.72411985E-02 -1.36740426E-02  2.29687170E-06
 -4.39333022E-02  3.70201478E-02 -1.35947907E-02  7.50592574E-07 -1.95117909E-01
  1.64408968E-01 -6.03528147E-02  1.57354458E-04  9.94122245E-01 -8.37815255E-01
  3.07517403E-01  4.33730521E-05  3.05488895E-04  2.07840215E-04  1.47759685E-03
  2.79474883E-04 -4.54717601E-05  1.82146669E-03  2.32474204E-03  1.23060914E-02
  2.09053632E-03 -1.06937013E-05 -1.36213482E-05  2.30098571E-02  5.20672737E-02
  6.74283164E-02 -1.14989285E-04  4.21164109E-02  9.54221106E-02  1.23747785E-01
  1.50242895E-03  3.00822171E-01  6.79775084E-01  8.79015229E-01  2.37663299E-03
  1.80788988E-01  4.06206239E-01  5.21818061E-01 -7.08206928E-03  2.78770652E-03
  3.03963484E-04 -1.24350650E-03  4.39339891E-03  1.58646481E-02 -6.27199210E-03
 -6.51304375E-04  2.75740145E-03 -9.68063607E-03  1.27718043E-05  2.56233415E-05
  2.28830172E-02  5.19336408E-02  6.74745198E-02 -1.35902667E-04  4.20350783E-02
  9.52499044E-02  1.23541989E-01 -2.70375099E-03  2.99282095E-01  6.79640505E-01
  8.83620201E-01 -3.47123026E-03  1.75812421E-01  4.00891191E-01  5.23446943E-01
  7.05728279E-03 -2.78454230E-03 -3.10706499E-04  1.24150689E-03 -4.37924122E-03
 -1.53473167E-02  6.02858866E-03  6.77352582E-04 -2.71067342E-03  9.60356039E-03
 -1.19724973E-02 -1.88618817E-02 -1.37566127E-02  1.20080456E-03  4.77323039E-02
  3.58799330E-02 -8.52844499E-03  8.14521157E-03  4.97437571E-02  5.59346290E-01
 -9.24767021E-02 -3.33810692E-02  2.07995934E-01 -3.32845143E+00  1.08298810E-01
  4.64872315E-01  9.16295590E-01  3.11161870E-03 -8.38427964E-04  1.29573621E-03
 -1.90126597E-04  4.75969097E-04  4.76512906E-03  1.01600643E-03  5.60700929E-03
 -1.67285935E-03  2.82332055E-03  1.19716379E-02  1.88592863E-02  3.13317746E-02
  3.84936808E-02  3.54744150E-03 -3.58402142E-02  2.97570880E-02  3.97999398E-02
  1.21923754E-02 -5.59572327E-01  1.52606595E-01  1.69356060E-01 -3.20886511E-02
  3.32809838E+00  4.12958116E-01  7.16802513E-01  6.17552433E-01  7.72969781E-04
 -6.87880884E-04 -1.45927736E-03  8.71053421E-04 -2.88585952E-03 -2.15018740E-03
 -2.03856206E-03 -5.72035605E-03  2.13436755E-03 -4.46677317E-03  1.19756266E-02
  1.88662985E-02 -1.39897946E-02  9.36441341E-04  4.77620058E-02 -3.58644143E-02
 -8.75983705E-03  7.86955011E-03  4.97352458E-02 -5.59898604E-01 -9.35247924E-02
 -3.45938713E-02  2.08069185E-01  3.33497276E+00  1.11457621E-01  4.69774759E-01
  9.19271157E-01 -3.10942113E-03  8.38255677E-04 -1.29570111E-03  1.90515755E-04
 -4.78245331E-04 -4.77607678E-03 -1.05882195E-03 -5.67363326E-03  1.69367145E-03
 -2.83796208E-03 -1.19796936E-02 -1.88734490E-02  3.12475331E-02  3.83838125E-02
  3.52532750E-03  3.58959827E-02  2.96114741E-02  3.96414806E-02  1.22379014E-02
  5.59978464E-01  1.52536388E-01  1.69008382E-01 -3.27935186E-02 -3.33234824E+00
  4.13821018E-01  7.20032609E-01  6.23695578E-01 -7.68319965E-04  6.91641519E-04
  1.46735323E-03 -8.73099186E-04  2.88683954E-03  2.15264807E-03  2.10094696E-03
  5.79631162E-03 -2.15626031E-03  4.46212780E-03 -1.23752650E-05 -1.51379366E-05
 -1.80316000E-03 -4.13889785E-03 -5.45033148E-03 -3.16179313E-04 -7.20673567E-03
 -1.67240785E-02 -2.22627293E-02  1.31731957E-02 -1.96413294E-02 -4.89876868E-02
 -7.00186916E-02  6.05466841E-02 -1.95120361E-01 -4.55938545E-01 -6.11466325E-01
  5.07906063E-03 -1.98104828E-03 -2.01681030E-04  8.88366996E-04 -3.16556920E-03
 -1.16408768E-01  4.55785536E-02  4.94708450E-03 -2.04949102E-02  7.28281163E-02
  1.10461560E-05  1.43145045E-05  1.96840745E-03  4.39853044E-03  5.62334273E-03
  2.92137449E-04  7.92108902E-03  1.75497651E-02  2.22019141E-02 -1.27569730E-02
  2.71448192E-02  5.68196566E-02  6.70956274E-02 -6.03580464E-02  2.15171248E-01
  4.73413524E-01  5.94247557E-01  5.10374774E-03 -2.02806499E-03 -2.39064294E-04
  9.01312385E-04 -3.15899124E-03 -1.16727748E-01  4.62334879E-02  5.19137168E-03
 -2.04982968E-02  7.20087156E-02  1.15428960E-03  2.06325032E-03 -2.85515582E-02
 -3.79213195E-02 -1.09958271E-02 -1.25721436E-02 -2.15633075E-02 -3.18754868E-02
 -1.71191791E-02  1.19176404E-01 -1.70814094E-01 -2.37852488E-01 -9.56932715E-02
 -3.19222353E-01  8.66656893E-01  1.19787376E+00  4.61228952E-01 -3.24149543E-04
  8.27705802E-04  1.04130236E-03 -4.30997284E-04  6.49454167E-04  6.05306188E-03
  1.14103500E-02  1.65435991E-02 -4.19476167E-03 -3.52759094E-03 -1.18110685E-03
 -2.10833329E-03  8.70694023E-03 -7.04817307E-03 -4.73562541E-02  1.27342637E-02
  2.08939157E-03 -1.22402245E-02 -4.01120198E-02 -1.18981858E-01  3.63882901E-02
 -6.63931227E-02 -2.98490116E-01  3.14756702E-01 -1.99808046E-01  3.14690312E-01
  1.50321844E+00 -1.17626767E-03 -2.40969174E-04 -9.80166889E-04  1.68072680E-04
  2.84879175E-04 -3.15351359E-03 -1.25675051E-02 -1.66954736E-02  4.71407597E-03
  1.71078914E-03  1.22355535E-03  2.17480337E-03  2.84817330E-02  3.78747484E-02
  1.10963462E-02 -1.28494421E-02  2.15000880E-02  3.18282157E-02  1.71956105E-02
  1.16926259E-01  1.70244721E-01  2.37552140E-01  9.67154072E-02 -3.02537294E-01
 -8.66941591E-01 -1.19612129E+00 -4.55578053E-01 -3.42375971E-04  8.36983267E-04
  1.04015187E-03 -4.32243075E-04  6.49765740E-04  6.03500865E-03  1.14264180E-02
  1.65520099E-02 -4.19958576E-03 -3.52557259E-03 -1.20026579E-03 -2.13575672E-03
 -8.55285232E-03  7.25036615E-03  4.74074851E-02  1.27120723E-02 -1.93113385E-03
  1.24741458E-02  4.02371111E-02 -1.17026045E-01 -3.60545854E-02  6.67849267E-02
  2.98478887E-01  3.06317857E-01  1.99914515E-01 -3.13526400E-01 -1.50034752E+00
 -1.17103576E-03 -2.37201352E-04 -9.70498394E-04  1.65058609E-04  2.88939798E-04
 -3.12593445E-03 -1.25537691E-02 -1.66504980E-02  4.69971286E-03  1.73306925E-03
 -2.91804248E-05 -4.50352073E-05 -1.37670608E-02 -3.15507414E-02 -4.14357203E-02
 -2.82979574E-04 -5.34454308E-02 -1.21692340E-01 -1.58694257E-01  1.21112545E-02
  1.03800639E+00  2.34360461E+00  3.02777406E+00 -3.55784451E-02  1.34214851E-01
  3.11401252E-01  4.14054767E-01  6.37221891E-03 -2.46789395E-03 -2.38187794E-04
  1.11182643E-03 -3.98917803E-03  1.16870760E-02 -4.35246905E-03 -7.28635891E-05
  1.87995651E-03 -6.87136641E-03  1.74826501E-05  2.44965681E-05  1.42633411E-02
  3.19875542E-02  4.10230552E-02  3.65219910E-04  5.42933907E-02  1.22437151E-01
  1.57987750E-01 -1.07224440E-02 -1.02626847E+00 -2.33404639E+00 -3.03967684E+00
  3.57929190E-02 -1.44698100E-01 -3.19946473E-01 -4.03433445E-01  6.38092211E-03
 -2.55994929E-03 -3.19417604E-04  1.13049072E-03 -3.92647090E-03  1.13615088E-02
 -4.67069906E-03 -8.05366264E-04  2.11705022E-03 -7.28119063E-03 -1.91471995E-02
 -3.18455115E-02  8.75343631E-03  5.90304971E-03 -1.22222428E-02  1.01467862E-01
  1.82482228E-02  5.70496054E-03 -4.34603205E-02  4.02386653E-01 -4.65695968E-02
  6.61316849E-03  1.68555182E-01 -5.60475205E+00 -4.26582992E-01  3.78013145E-01
  2.40868698E+00  1.62628037E-03 -9.61855414E-04  3.24512525E-05  1.04511962E-04
  2.22406254E-04  1.21651770E-03  3.16768453E-03  9.62674401E-03 -4.39458314E-03
  1.24167432E-02  1.91397008E-02  3.18310159E-02 -1.06548449E-02 -1.00311883E-02
  7.11484095E-03 -1.01362896E-01 -3.13833262E-02 -3.51928978E-02  5.59366760E-03
 -4.03404887E-01  1.08957102E-01  1.35463374E-01  1.67029834E-02  5.60701969E+00
  1.44428219E+00  1.92597664E+00  5.77058006E-01  7.60832428E-04  1.34859663E-05
 -1.46870416E-04  3.18645756E-04 -1.70749801E-03 -1.25480418E-02  1.24278663E-03
 -9.21338812E-03  2.43118145E-03 -5.41393908E-03 -1.91335111E-02 -3.18228876E-02
 -8.99038251E-03 -6.22492525E-03  1.21153081E-02  1.01391300E-01 -1.85864736E-02
 -6.15918183E-03  4.33125420E-02  4.02461684E-01  4.59179560E-02 -7.32358979E-03
 -1.68332960E-01 -5.60665241E+00  4.28560240E-01 -3.75770795E-01 -2.40889314E+00
  1.62429268E-03 -9.52368175E-04  4.25199923E-05  1.01101001E-04  2.23171248E-04
  1.29353573E-03  3.18392315E-03  9.69577430E-03 -4.40807121E-03  1.24064006E-02
  1.91413571E-02  3.18370518E-02  1.06358775E-02  1.01602236E-02 -6.70589008E-03
 -1.01471465E-01  3.13421071E-02  3.53627918E-02 -4.99421708E-03 -4.01899694E-01
 -1.09328172E-01 -1.35631177E-01 -1.60077787E-02  5.60295479E+00 -1.44289857E+00
 -1.92518693E+00 -5.79436073E-01  7.67560901E-04  1.87210702E-05 -1.35864104E-04
  3.15927598E-04 -1.70691343E-03 -1.25660605E-02  1.30514746E-03 -9.12706996E-03
  2.39541247E-03 -5.35738949E-03 -8.20836767E-03 -1.37942618E-02 -4.99642330E-02
 -1.41920748E-01 -2.25028580E-01  1.75316792E-02 -9.37144051E-02 -2.76667522E-01
 -4.50601753E-01  1.51126910E+00 -1.24115618E-03 -6.31486864E-01 -1.71590547E+00
  5.46018513E+00  3.36865273E-01 -4.99709845E-01 -2.44984452E+00  3.03068454E-03
  3.59916176E-03  4.38635979E-03 -4.82511365E-04 -5.10633562E-03  3.07286972E-03
 -4.15644468E-03  6.22504375E-03 -4.44991508E-03  2.29680197E-02  8.22095128E-03
  1.38177114E-02  8.98573825E-02  1.74963549E-01  1.86074090E-01 -1.76106880E-02
  1.83127807E-01  3.50734630E-01  3.63316222E-01 -1.51268080E+00  8.74890486E-01
  1.35476723E+00  8.61800393E-01 -5.45992998E+00  1.41857416E+00  1.95266755E+00
  7.32769939E-01  2.72990095E-03 -5.85357163E-03 -4.61438261E-03  1.48674880E-03
  1.54278555E-03 -1.63841244E-02  9.41726363E-03 -5.53939360E-03  2.05006292E-03
 -1.44587323E-02 -1.11119403E-02 -1.88307448E-02  2.85791344E-02 -7.36759869E-03
 -1.12459061E-01  6.57327865E-02  3.42791889E-02 -1.36419996E-02 -1.47978089E-01
  1.82176634E-01  1.07929146E-01 -1.64657700E-02 -3.93757021E-01  1.48614744E+00
 -2.46398285E-01 -1.98678122E-01  2.55238927E-01 -4.07797296E-03  1.08546704E-03
 -1.29894206E-03 -9.78869097E-07  4.15600195E-04 -9.20782563E-03  5.55888501E-03
  8.52314237E-05 -7.14016423E-04 -9.36360322E-04  7.07212357E-03  1.22433256E-02
 -7.63557413E-02 -9.11192120E-02 -1.34243859E-03 -4.80443349E-02 -9.79551052E-02
 -1.17173020E-01 -2.47796214E-03 -3.79952812E-02 -2.82263482E-01 -3.45630299E-01
 -2.89157059E-02 -2.21433973E+00 -6.24192576E-02 -5.62822859E-02  4.85090098E-02
 -3.10881500E-03  8.16096977E-04  6.97551142E-04 -1.04238811E-03  4.57715117E-03
 -1.31177362E-02 -3.91686289E-03 -8.38947708E-03 -1.39708256E-04  1.32733135E-02
 -7.09087695E-03 -1.22735212E-02 -3.75448345E-02 -3.12163994E-03  1.12850988E-01
  4.81103013E-02 -4.77718614E-02 -3.39742938E-03  1.45154137E-01  3.87301910E-02
 -1.26613193E-01  7.34686364E-03  4.29259996E-01  2.21472854E+00 -5.54708966E-02
 -4.12550045E-02  6.69709889E-02 -5.13920946E-03  2.42938020E-03 -3.43153640E-04
 -4.06594288E-04  5.44940718E-04 -1.16411408E-02  1.36521216E-02  9.45124113E-03
 -4.21202324E-03  2.12174516E-03  1.11100850E-02  1.88283814E-02  7.17290123E-02
  9.03836631E-02  1.43133031E-02 -6.57426000E-02  9.27296920E-02  1.18757585E-01
  2.37099405E-02 -1.81984347E-01  2.55014932E-01  3.16834659E-01  3.86237349E-02
 -1.48631300E+00 -2.53344253E-01 -2.15006824E-01  2.33374905E-01 -1.90608016E-03
  1.26844956E-03  1.55641542E-03 -1.05023526E-03  3.30230576E-03 -4.70791332E-03
 -9.64511398E-05  5.04768253E-04 -1.72819293E-03  9.59249530E-03 -4.08744225E-02
 -6.87222353E-02  1.11649467E-01  1.12735119E-01 -5.38498529E-02  8.81412381E-02
  2.48244340E-01  2.45786537E-01 -1.32991976E-01  7.56024732E+00  2.26195178E+00
  1.99832711E+00 -1.86892131E+00  2.75177250E+01  4.53075513E+00  3.90554958E+00
 -4.00820765E+00  1.29932576E-04  2.34570133E-02  2.20966483E-02 -4.92113326E-03
 -1.60583198E-02  4.97122602E-02 -3.64994469E-02  2.71444573E-02 -1.54867370E-02
  9.38059890E-02  4.08697540E-02  6.87147697E-02  8.33869046E-02  4.86912599E-02
 -1.36919290E-01 -8.81293260E-02  1.92166247E-01  1.18733374E-01 -2.97757231E-01
 -7.55961332E+00  2.08676906E+00  1.60093853E+00 -2.38514097E+00 -2.75175077E+01
  4.31408781E+00  3.41503983E+00 -4.64384559E+00 -1.34800544E-03 -2.29809619E-02
 -2.20472037E-02  4.70760688E-03  1.68172410E-02 -4.72161707E-02  3.54876683E-02
 -2.72613588E-02  1.59158032E-02 -9.52879758E-02 -8.14721004E-03 -1.31314340E-02
 -2.81313212E-02 -2.44063836E-02  2.44593754E-02  3.19591970E-02 -4.08041908E-02
 -3.97860495E-02  2.35339943E-02  3.37859988E-01 -6.68768453E-02 -1.56894241E-02
  1.73456411E-01 -2.21167230E+00 -7.38193524E-01 -5.85684056E-01  7.91039598E-01
  3.61307500E-03 -3.65111651E-03 -2.12943318E-03  1.02835877E-03 -4.22833130E-04
  8.40749381E-03 -2.20104848E-02 -2.40102461E-02  9.13502459E-03 -7.69320517E-03
 -1.18777183E-02 -1.95038296E-02  3.36604460E-03  1.58621352E-02  3.23190224E-02
  5.52471200E-02  6.17181161E-03  2.69598387E-02  5.34720575E-02  3.83691414E-01
 -1.38426409E-02 -6.94901824E-03  2.58244592E-02 -1.47130625E+00 -8.11182672E-01
 -6.97935301E-01  7.21169644E-01 -2.46435735E-03 -1.28320461E-03 -2.28130505E-03
  2.06191796E-04  2.38843531E-03 -1.90493251E-02 -8.97688097E-03 -2.10837499E-02
  4.05932688E-03  6.97272975E-03  1.18688377E-02  1.94899018E-02 -1.48387884E-02
 -2.53555179E-02 -2.10936519E-02 -5.52228672E-02 -2.42357367E-02 -4.19083383E-02
 -3.58031108E-02 -3.83248551E-01 -2.02316190E-02 -2.12531979E-02  7.51298784E-03
  1.46998139E+00 -7.74011214E-01 -6.14236272E-01  8.29040439E-01 -1.73907962E-03
  2.93929587E-03  2.46515725E-03 -9.45798899E-04  2.23985446E-04 -4.11298832E-03
  1.80921285E-02  2.20843752E-02 -8.13085455E-03  7.42559299E-03  8.15039131E-03
  1.31364500E-02 -2.65705753E-02 -2.08656288E-02  2.90572898E-02 -3.19676426E-02
 -3.24412519E-02 -2.08313998E-02  4.81254167E-02 -3.38051474E-01 -1.22032795E-01
 -1.40655864E-01  1.13748364E-02  2.21197724E+00 -7.73385262E-01 -6.65457784E-01
  6.87476611E-01  3.48709684E-03  8.55244731E-04  1.82106264E-03  2.19720172E-04
 -3.98771476E-03  2.27303334E-02  9.74741603E-03  2.26577686E-02 -3.66256800E-03
 -1.16476951E-02  1.12216411E-03  2.93339174E-03  1.22739052E-01  1.01889578E-01
 -1.19260524E-01 -5.77923173E-02  1.90958512E-01  1.58683955E-01 -1.85117700E-01
 -1.19682927E+00  1.24024486E+00  1.02577211E+00 -1.21530600E+00 -3.24068996E+01
 -4.95951970E+00 -4.10353778E+00  4.85488808E+00  5.68778879E-04  1.76674045E-02
  1.68036663E-02 -3.66702598E-03 -1.24952875E-02 -2.96242990E-02  1.05541886E-01
  6.01355625E-02 -6.88100549E-03 -1.19021336E-01 -1.13832241E-03 -2.96254853E-03
  1.22331480E-01  1.00960190E-01 -1.20448383E-01  5.79200860E-02  1.90106811E-01
  1.56746022E-01 -1.87580004E-01  1.19779118E+00  1.24134839E+00  1.02786663E+00
 -1.21302782E+00  3.24072574E+01 -4.96145155E+00 -4.10786448E+00  4.84947690E+00
 -5.78927590E-04 -1.76718870E-02 -1.68129602E-02  3.66790658E-03  1.25034788E-02
  2.83067427E-02 -1.05074361E-01 -6.00909207E-02  6.63769302E-03  1.19966628E-01
  3.64981643E-03  5.13094780E-03 -3.93518782E-02 -6.31339602E-02 -4.47543935E-02
  5.82606569E-03 -4.38638108E-02 -7.28301815E-02 -5.65789861E-02 -3.56378269E-01
 -1.75641736E-01 -2.75796618E-01 -1.83436737E-01  3.37515233E+00  6.02910972E-01
  3.27749551E-01 -1.05633031E+00 -2.87646283E-03 -8.98626309E-04 -3.31435417E-03
  8.61257589E-04 -6.61840033E-04 -6.41083429E-03 -4.23993646E-04 -9.77194345E-03
  3.96453685E-03 -1.22351552E-02  3.52424023E-03  4.92240930E-03  3.59492765E-03
  3.37209628E-02  8.02179158E-02  6.48018377E-03  7.52140440E-03  4.30118438E-02
  9.28322259E-02 -3.53918521E-01  6.87620325E-03  1.36353004E-01  3.49113941E-01
  3.36397335E+00  8.35907466E-01  8.61119598E-01 -3.56747485E-01 -5.42074756E-04
 -1.81487732E-03 -3.41541906E-03  1.27258475E-03 -2.11882380E-03 -9.37750846E-03
  7.06997904E-04 -9.68401233E-03  3.45434031E-03 -1.03752942E-02 -3.52349739E-03
 -4.92131698E-03 -3.91736419E-02 -6.31787712E-02 -4.54450684E-02 -6.47853245E-03
 -4.36539087E-02 -7.29333946E-02 -5.75286496E-02  3.53748930E-01 -1.74870878E-01
 -2.75462485E-01 -1.84986268E-01 -3.36552001E+00  6.00531077E-01  3.27694427E-01
 -1.04864816E+00  2.90477000E-03  8.86101622E-04  3.31487472E-03 -8.57801956E-04
  6.51691510E-04  6.58903097E-03  3.89751284E-04  9.80575773E-03 -3.94644145E-03
  1.21158281E-02 -3.64768062E-03 -5.12706678E-03  3.14734040E-03  3.31790697E-02
  8.01957392E-02 -5.84607847E-03  6.92907876E-03  4.22752199E-02  9.27497776E-02
  3.56419624E-01  5.69382838E-03  1.35161707E-01  3.49720920E-01 -3.37499911E+00
  8.40968504E-01  8.67338488E-01 -3.56049840E-01  5.69225365E-04  1.80835488E-03
  3.41643610E-03 -1.26757099E-03  2.09557814E-03  9.56179220E-03 -8.11929225E-04
  9.64222025E-03 -3.41400334E-03  1.02815021E-02 -1.65187895E-06 -3.12876291E-06
 -1.17313458E-01  9.88489714E-02 -3.62931019E-02  1.48634539E-05 -4.46775377E-01
  3.76454653E-01 -1.38218989E-01  1.40746761E-04  8.99193317E-01 -7.57725409E-01
  2.78224701E-01  7.98614786E-04 -1.51618373E-01  1.27991873E-01 -4.70905887E-02
  1.00402310E-04  1.24070892E-04 -2.11440348E-04 -3.47036001E-04 -4.40276450E-07
  2.16376089E-02  2.75435257E-02 -4.46567804E-02 -7.04642226E-02  5.52674141E-04
 -5.17728845E-07 -1.19453332E-06 -1.17305918E-01  9.88394728E-02 -3.62883716E-02
  1.25362969E-05 -4.46763158E-01  3.76428514E-01 -1.38203178E-01 -2.88007099E-05
  8.99425812E-01 -7.57803390E-01  2.78191860E-01 -7.53117535E-04 -1.51236779E-01
  1.27600675E-01 -4.69122879E-02 -1.07232225E-04 -1.39528414E-04  2.17864607E-04
  3.34576480E-04 -4.67886253E-06 -2.18005894E-02 -2.78947638E-02  4.48520802E-02
  7.01519833E-02 -6.97959736E-04  1.81887907E-08 -5.82582184E-09 -1.57815635E-03
  1.33351898E-03 -4.88671335E-04  9.84503068E-07  3.79658048E-03 -3.19410412E-03
  1.17304955E-03 -1.57502233E-05 -6.27518558E-02  5.28887254E-02 -1.94021319E-02
 -9.49384242E-05 -2.16898723E-01  1.82722410E-01 -6.70572779E-02 -5.93438550E-04
 -1.10191956E-03  8.14183450E-04 -3.06195397E-04 -4.00325984E-04  3.06940615E-03
  6.63019663E-03 -3.10792025E-03  7.59679525E-03  3.10557030E-03  4.70704605E-08
  4.54055058E-08 -1.59202196E-03  1.34203558E-03 -4.94399073E-04  7.69017922E-07
  3.76772060E-03 -3.17256433E-03  1.16370293E-03 -1.73675318E-05 -6.28172447E-02
  5.29129894E-02 -1.94439097E-02 -1.13068996E-04 -2.17130994E-01  1.82891566E-01
 -6.71607024E-02  2.83070703E-04  7.07150720E-04 -1.72574308E-04  1.32039051E-03
  3.93102517E-04 -3.82981854E-03 -7.60194234E-03  4.67137142E-03 -5.14677706E-03
 -3.13050422E-03  1.95593756E-07  2.90939418E-07 -1.57953471E-03  1.32959116E-03
 -4.87822462E-04 -4.53344164E-08  3.78699329E-03 -3.19252562E-03  1.17301635E-03
 -2.05130801E-05 -6.28018819E-02  5.29113187E-02 -1.94315509E-02  3.15089187E-06
 -2.17425827E-01  1.83173974E-01 -6.72605562E-02  5.96143213E-04  1.10674228E-03
 -8.18400136E-04  3.04639805E-04  4.01766476E-04 -3.07233564E-03 -6.63475474E-03
  3.10865158E-03 -7.60715427E-03 -3.10900788E-03  2.39138867E-07  3.61802388E-07
 -1.58037108E-03  1.33061284E-03 -4.86782099E-04 -2.93040648E-07  3.79110526E-03
 -3.19587405E-03  1.17602141E-03 -1.83608459E-05 -6.27379688E-02  5.28602400E-02
 -1.94038406E-02  5.32836565E-05 -2.17005366E-01  1.82810871E-01 -6.71264020E-02
 -2.82727597E-04 -7.05581089E-04  1.73865220E-04 -1.31245654E-03 -3.91716312E-04
  3.82683770E-03  7.59522305E-03 -4.66891843E-03  5.13684943E-03  3.12578214E-03
 -3.30866458E-02 -6.63248450E-02  3.30350961E-02  2.72599305E-02 -3.25201067E-02
  5.21421228E-01  2.18828025E-01  1.80905546E-01 -2.14577174E-01  3.42287569E-01
 -1.19032228E+00 -9.83844506E-01  1.16786095E+00  3.16349546E-01 -1.72451267E-01
 -1.42384801E-01  1.69645825E-01 -2.59700144E-03 -2.21611255E-02 -2.34101246E-02
  5.48058180E-03  1.30479340E-02  7.15514485E-02 -9.15028657E-02  4.69840144E-03
 -1.54616630E-02  1.67148151E-01 -3.30826208E-02 -6.63149689E-02 -3.32102576E-02
 -2.75408743E-02  3.23513378E-02  5.21292647E-01 -2.19163805E-01 -1.81518227E-01
  2.14093190E-01  3.39152790E-01  1.19369714E+00  9.89020436E-01 -1.16502572E+00
  3.07572304E-01  1.74283083E-01  1.44431791E-01 -1.70012189E-01 -2.60910749E-03
 -2.21496920E-02 -2.34056859E-02  5.47610041E-03  1.30500509E-02  7.05600387E-02
 -9.09013784E-02  4.92583214E-03 -1.57149780E-02  1.67673821E-01  5.38570293E-03
  8.92902349E-03  2.86667272E-02  4.06225585E-02  1.79814796E-02 -2.56373110E-02
  3.99965386E-02  5.84208831E-02  2.98350237E-02 -3.43131837E-01  7.72038192E-02
  1.26804216E-01  9.58441638E-02 -3.35945984E-01  2.88487755E-01  2.44943960E-01
 -2.65286545E-01 -2.27222996E-03  2.67701317E-03  1.86694088E-03 -8.31214851E-04
  4.32887621E-04 -2.14495075E-03  1.25075053E-02  1.67424866E-02 -6.32082506E-03
  7.63634613E-03  5.41266217E-03  8.97542166E-03  5.08506526E-03 -1.27238274E-02
 -5.10838686E-02 -2.58437514E-02  4.69775672E-03 -2.14716470E-02 -7.36538265E-02
 -3.42534061E-01 -1.02893358E-02 -7.12876711E-02 -1.60858210E-01 -3.31480309E-01
  2.80418406E-01  2.25743266E-01 -2.91495698E-01  2.57956755E-03  7.69035815E-04
  1.66148494E-03  1.93999471E-05 -2.57743692E-03  1.51293330E-02  5.75907682E-03
  1.60657603E-02 -3.30956287E-03 -3.08291628E-03  5.41305542E-03  8.97530102E-03
 -2.86181850E-02 -4.05991803E-02 -1.80623720E-02 -2.58210570E-02 -3.99357386E-02
 -5.83851216E-02 -2.99175030E-02 -3.43091981E-01 -7.70044259E-02 -1.26481027E-01
 -9.55381689E-02 -3.30770507E-01 -2.89769849E-01 -2.46130332E-01  2.66388229E-01
 -2.26726067E-03  2.67572436E-03  1.86846239E-03 -8.31013276E-04  4.30178439E-04
 -2.04602902E-03  1.25164098E-02  1.67980348E-02 -6.32475690E-03  7.57605504E-03
  5.38259941E-03  8.92399255E-03 -5.16754053E-03  1.26136540E-02  5.10622763E-02
 -2.56249967E-02 -4.78326726E-03  2.13481487E-02  7.36097985E-02 -3.42936208E-01
  1.02691562E-02  7.14069630E-02  1.61316702E-01 -3.36707620E-01 -2.79624215E-01
 -2.24978873E-01  2.91193526E-01  2.58477825E-03  7.63352715E-04  1.65552470E-03
  2.26857777E-05 -2.58277969E-03  1.52101459E-02  5.66581483E-03  1.59807935E-02
 -3.26991763E-03 -3.13891450E-03 -1.07177704E-06 -1.97680705E-06 -1.22496619E-01
  1.03206025E-01 -3.78897787E-02  1.01677549E-05 -4.65597813E-01  3.92292588E-01
 -1.44028480E-01  2.89044707E-04  2.09140134E+00 -1.76187677E+00  6.46757889E-01
  9.87291009E-04  2.35574682E-01 -1.98236785E-01  7.26769934E-02  1.93978906E-03
  2.46380267E-03 -4.01170489E-03 -6.35530626E-03  4.26205850E-05 -3.95061621E-02
 -5.06610196E-02  8.11326302E-02  1.26415834E-01 -1.37273011E-03  3.39009495E-07
  6.50149837E-07  1.22482107E-01 -1.03207580E-01  3.78962286E-02 -2.72802307E-06
  4.65545532E-01 -3.92269342E-01  1.44029144E-01 -3.20662930E-04 -2.09125808E+00
  1.76235851E+00 -6.47185729E-01 -9.61711138E-04 -2.35333305E-01  1.98539163E-01
 -7.29916175E-02  1.94893001E-03  2.48253541E-03 -4.02194449E-03 -6.34033110E-03
  5.04563707E-05 -3.95634618E-02 -5.07918268E-02  8.11652658E-02  1.26042885E-01
 -1.49153638E-03  2.29306061E-07  4.07594046E-07 -4.07305932E-03  3.43303612E-03
 -1.25908418E-03 -1.96565528E-06  1.64653668E-03 -1.38396445E-03  5.10384884E-04
 -1.67280356E-06 -7.60413538E-02  6.40611216E-02 -2.35203235E-02  3.21372198E-05
 -5.27602290E-01  4.44513581E-01 -1.63239189E-01 -6.34624102E-04 -1.04410504E-03
  1.02982794E-03  5.40403125E-04 -2.78757016E-04 -1.03720634E-04 -1.79403108E-03
 -1.75672802E-03 -1.04066436E-02 -1.85251702E-03  5.04080561E-08  9.74402732E-08
 -4.19626510E-03  3.53427443E-03 -1.29892366E-03 -6.66704706E-07  1.42985392E-03
 -1.20633923E-03  4.40146234E-04  1.76769857E-06 -7.62545080E-02  6.42436636E-02
 -2.35834570E-02  6.22366649E-06 -5.28152858E-01  4.45023312E-01 -1.63362671E-01
 -3.84030549E-05  1.88554106E-04  3.61055929E-04  1.66003268E-03  2.63263603E-04
  4.09410168E-03  6.89547295E-03 -6.45388994E-03 -2.45708976E-03  1.97558312E-03
  1.52973096E-07  2.70461633E-07  4.10282227E-03 -3.45669645E-03  1.26976223E-03
 -1.20397838E-06 -1.58644487E-03  1.33830323E-03 -4.90426472E-04 -4.22775706E-06
  7.59324923E-02 -6.39885674E-02  2.34941181E-02 -2.11188634E-05  5.27758765E-01
 -4.44709911E-01  1.63260443E-01 -6.32843062E-04 -1.04050376E-03  1.02752004E-03
  5.42341213E-04 -2.77340098E-04 -1.30743559E-04 -1.84164848E-03 -1.72062175E-03
 -1.04089578E-02 -1.86746249E-03 -1.57829546E-08 -2.24299885E-08  4.17294224E-03
 -3.51641648E-03  1.29059687E-03  2.05631488E-09 -1.48717407E-03  1.25306362E-03
 -4.61831288E-04 -1.99567621E-07  7.64574387E-02 -6.44261477E-02  2.36614490E-02
 -3.70200148E-05  5.28224676E-01 -4.45059004E-01  1.63437431E-01 -3.63597689E-05
  1.93014107E-04  3.59232511E-04  1.66597548E-03  2.65391063E-04  4.10117532E-03
  6.89343918E-03 -6.48071109E-03 -2.53950256E-03  1.96534815E-03  4.73017684E-07
  8.63203903E-07 -2.38481837E-04  2.16304105E-04 -6.16332888E-05 -3.43768049E-06
 -8.95741395E-04  7.94239433E-04 -2.47129557E-04 -4.00488278E-06  4.15500007E-03
 -3.91146440E-03  9.41292599E-04  3.87365343E-05  5.26575404E-04 -4.41714848E-04
  1.50476737E-04  5.59679953E-03  1.15366581E-02 -6.31452733E-03  1.03035497E-02
  5.05088048E-03  2.18948842E-01  4.51725274E-01 -2.46931572E-01  4.04351281E-01
  1.97920208E-01  7.20132104E-07  1.32875190E-06  1.60457449E-04 -1.27449241E-04
  5.71457496E-05 -7.45475874E-06  6.28226709E-04 -5.19973369E-04  2.06925526E-04
  2.16684879E-05 -2.99265940E-03  2.33532917E-03 -1.07410407E-03 -4.76406535E-05
 -3.77918070E-04  3.20509478E-04 -1.37274780E-04  5.58800170E-03  1.15294391E-02
 -6.30165599E-03  1.03224072E-02  5.05207178E-03  2.18847373E-01  4.51435773E-01
 -2.46547969E-01  4.04938778E-01  1.97851680E-01  3.85853517E-07  8.23618801E-07
 -2.86450145E-02  2.41371186E-02 -8.85879922E-03 -8.00931807E-06 -4.58280567E-02
  3.86142622E-02 -1.41712977E-02  7.67089905E-05 -1.22319456E-01  1.03071945E-01
 -3.78881861E-02  4.26014504E-04 -1.46533436E-01  1.23463217E-01 -4.55070153E-02
 -2.95192775E-03 -5.17636463E-03  4.41249179E-03  4.51567576E-04 -1.65164525E-03
 -5.03944816E-03 -5.29364425E-03  1.17558236E-02  2.37365544E-02  1.13040496E-03
 -6.16994913E-07 -1.21750695E-06  2.85415457E-02 -2.40439829E-02  8.83084948E-03
  9.37458324E-06  4.56888720E-02 -3.84868801E-02  1.41342672E-02 -6.85502078E-05
  1.21710125E-01 -1.02604408E-01  3.76602260E-02 -4.27722286E-04  1.44019006E-01
 -1.21574194E-01  4.45425151E-02 -6.22174714E-04 -2.19619697E-03 -3.82234360E-04
 -7.05099565E-03 -1.57854517E-03  7.99833679E-03  1.13752052E-02 -1.50914866E-02
 -1.83185805E-02  1.52713170E-03 -4.44469963E-07 -8.26149618E-07  2.85661394E-02
 -2.40673126E-02  8.83873465E-03  5.46261142E-06  4.57015480E-02 -3.85057013E-02
  1.41411684E-02 -3.25157923E-05  1.22116096E-01 -1.02888061E-01  3.77456574E-02
 -2.66982516E-04  1.45973609E-01 -1.23004755E-01  4.50382348E-02 -2.94676026E-03
 -5.16415885E-03  4.40688648E-03  4.65849384E-04 -1.64624289E-03 -5.02217545E-03
 -5.23610145E-03  1.17268963E-02  2.37978298E-02  1.15617791E-03  1.76496760E-07
  3.50851437E-07 -2.86249495E-02  2.41188184E-02 -8.85383329E-03 -3.31194788E-06
 -4.58214801E-02  3.86083755E-02 -1.41733727E-02  3.61998643E-05 -1.22068723E-01
  1.02809723E-01 -3.77651885E-02  2.68450992E-04 -1.44761710E-01  1.21834848E-01
 -4.47953638E-02 -6.30036303E-04 -2.21197329E-03 -3.72429101E-04 -7.06161960E-03
 -1.58455653E-03  7.96792943E-03  1.13227620E-02 -1.50570255E-02 -1.83646578E-02
  1.51053562E-03  5.07854985E-02  9.43080823E-02  6.74051378E-02  5.05557182E-02
 -8.02235746E-02 -6.28195356E-01  2.64186063E-01  2.05320365E-01 -2.94902162E-01
  4.05823318E+00 -1.34497980E+00 -9.85306493E-01  1.66402139E+00  2.17787444E-02
 -4.02818282E-01 -3.26031744E-01  4.14088233E-01 -5.28978344E-03 -9.84054670E-03
 -1.37325592E-02  3.27322413E-03  4.49104117E-03 -1.00237258E-01  2.48822756E-01
  7.52289743E-02  1.58546399E-02 -3.95539392E-01  5.08203216E-02  9.43682600E-02
 -7.45079557E-02 -6.68323842E-02  5.87958064E-02 -6.28644988E-01 -2.82567243E-01
 -2.47090278E-01  2.40293870E-01  4.07213830E+00  1.51462414E+00  1.38043026E+00
 -1.13637012E+00  1.84482553E-02  4.13388533E-01  3.49684849E-01 -3.83921413E-01
 -1.41726459E-03 -1.13621876E-02 -1.38995228E-02  3.94482057E-03  2.09834167E-03
 -1.59752000E-01  2.71843905E-01  7.74030403E-02  5.26240122E-03 -3.57874260E-01
 -8.44150401E-03 -1.61433715E-02  1.88436840E-02  4.73940228E-03 -4.79911994E-02
  1.05625017E-01  3.23723054E-02  3.68843288E-03 -9.45838149E-02 -4.01266020E-01
 -1.16641064E-02  4.67207755E-02  1.65036427E-01 -1.69733822E+00  1.95780870E-01
  4.88540101E-01  6.97914641E-01 -2.59170725E-03  9.76862700E-04 -1.13641550E-03
  2.95435401E-04 -1.38148077E-03 -3.46744881E-02  2.37946643E-02 -4.45772114E-03
  1.30064807E-03 -2.41425241E-02 -7.73963845E-03 -1.48348067E-02  3.47863374E-02
  3.80373345E-02 -8.83201912E-03  9.65287180E-02  6.60493029E-02  7.57005421E-02
 -7.30415450E-03 -3.15838000E-01 -4.99111201E-02 -8.09179508E-02 -5.89830942E-02
 -1.02040483E+00 -9.54160220E-02 -3.23615975E-01 -5.72859114E-01  4.32445491E-06
  8.81843409E-05 -1.02994133E-03  6.66204984E-04 -2.85421500E-03 -1.84941713E-03
  1.34106740E-02 -1.93598816E-03  5.58008973E-03 -4.23980274E-02 -7.75105567E-03
 -1.48565045E-02 -2.19185119E-02 -8.86787820E-03  4.67180159E-02  9.66671084E-02
 -3.68042770E-02 -9.38809381E-03  9.34289177E-02 -3.16318245E-01 -4.89275833E-03
 -4.36253585E-02 -1.02927832E-01 -1.01971739E+00 -2.44432071E-01 -4.46913410E-01
 -4.26981539E-01 -2.41652273E-03  1.04087258E-03 -9.25758135E-04  2.41580519E-04
 -1.35264881E-03 -2.76343518E-02  2.35823920E-02 -8.19023880E-04  1.04176235E-03
 -2.64147614E-02 -8.43440887E-03 -1.61308148E-02 -3.39003771E-02 -3.89121896E-02
  3.61855833E-03  1.05565947E-01 -6.44501660E-02 -7.64390766E-02  1.68214769E-04
 -4.01058285E-01  9.02042536E-02  1.30991882E-01  6.52771167E-02 -1.69235757E+00
  2.57412768E-01  5.38785687E-01  6.35524537E-01 -2.94834260E-05 -3.10807323E-05
 -1.24455932E-03  7.45031188E-04 -2.96920566E-03  1.68095962E-03  9.48821822E-03
 -6.03492740E-03  7.68195691E-03 -4.67251407E-02 -3.88862657E-03 -7.23113759E-03
 -5.26626704E-02 -1.11559446E-01 -1.33613756E-01  4.85222997E-02 -1.42288607E-01
 -2.92089294E-01 -3.35581832E-01 -3.19442263E-01  1.26843498E+00  2.71461556E+00
  3.29349199E+00 -1.47571879E-03  9.92279601E-02  1.80371746E-01  1.70520288E-01
 -2.54558137E-02  1.09303118E-02  2.15951846E-03 -4.79096506E-03  1.57093212E-02
  3.99879139E-01 -1.72622767E-01 -2.21255145E-02  6.76370849E-02 -2.14043044E-01
 -3.87363850E-03 -7.20614874E-03 -4.17256333E-02 -1.02514677E-01 -1.44332188E-01
  4.85277875E-02 -1.00055422E-01 -2.57097183E-01 -3.76790605E-01 -3.15159105E-01
  1.04230148E+00  2.52810376E+00  3.51644232E+00 -3.93849679E-03  3.74430861E-02
  1.29087344E-01  2.30558809E-01  2.59532756E-02 -9.31765911E-03 -7.21794960E-05
  4.24712630E-03 -1.62153879E-02 -3.80291840E-01  1.33990297E-01  1.10796029E-02
 -6.92846338E-02  2.70648488E-01 -3.79726602E-03 -7.05903636E-03 -2.21655030E-02
 -2.78815549E-02 -4.30939933E-03  5.01246763E-02 -3.23050586E-02 -3.82240073E-02
  2.86602828E-04 -5.29048853E-01 -1.11347381E-01  1.32076266E-02  3.95859247E-01
 -4.32315752E+00 -3.37110787E-01  2.34300484E-01  1.72794962E+00 -9.98488644E-04
 -5.08132773E-04 -1.32459005E-03  3.34438780E-04 -7.36881534E-05 -4.36736908E-02
 -5.33656600E-05 -2.32922146E-02  1.46281343E-03  1.63914225E-02  5.02744070E-03
  9.41444407E-03  3.60338947E-03 -8.04325053E-03 -3.35406530E-02 -6.55142753E-02
  6.30584876E-03 -9.57220335E-03 -4.64282364E-02  5.84011134E-01  2.68737679E-01
  3.35263488E-01  4.44446354E-02  4.53444797E+00  1.07989142E+00  1.45038497E+00
  4.59439821E-01  1.84037731E-04  8.12903851E-04  1.51906659E-03 -5.81120588E-04
  1.02252950E-03 -2.32584924E-02  2.45815155E-02  2.66934296E-02 -1.42078890E-02
  3.19679469E-02  5.02606822E-03  9.41286969E-03 -1.89290722E-02 -2.66997800E-02
 -1.15196808E-02 -6.55362170E-02 -2.68700026E-02 -3.70380642E-02 -1.39975556E-02
  5.85089196E-01 -1.11793930E-01  2.04198314E-02  4.17004100E-01  4.53920474E+00
 -3.05941936E-01  3.04008536E-01  1.81688741E+00  1.38302570E-03  3.42939448E-04
  1.47172292E-03 -3.71544857E-04  2.81115502E-04  4.85162454E-02 -3.66484096E-03
  2.36073319E-02 -1.59323980E-03 -1.26118257E-02 -3.79553675E-03 -7.05609943E-03
  8.89419928E-03 -2.17546537E-03 -3.46943205E-02  5.01100379E-02  1.63053135E-02
  2.00490212E-03 -4.72749638E-02 -5.28868338E-01  2.57752134E-01  3.18681494E-01
  3.47320118E-02 -4.32179330E+00  1.05095298E+00  1.38297246E+00  3.69539744E-01
 -1.88260539E-04 -8.23466181E-04 -1.35615107E-03  4.74819548E-04 -5.76790716E-04
  2.31041447E-02 -2.63530739E-02 -2.61996435E-02  1.32016278E-02 -2.50888170E-02
 -9.26723425E-06 -1.56717689E-05 -3.06165095E-02  2.58432686E-02 -9.51132525E-03
  9.39279008E-05 -1.69942044E-01  1.43155281E-01 -5.25560271E-02 -4.57686890E-03
 -1.73606390E-01  1.42612489E-01 -5.07739043E-02  4.67813261E-04 -4.17813149E-02
  3.52697527E-02 -1.29686518E-02 -6.89832936E-03 -8.79516233E-03  1.42234736E-02
  2.23652581E-02 -1.92819774E-04 -1.64590644E-01 -2.09833157E-01  3.39600068E-01
  5.33703036E-01 -4.65573184E-03 -9.02655403E-07 -2.49457144E-06 -3.06324857E-02
  2.58909629E-02 -9.54213589E-03  4.84499894E-06 -1.69977252E-01  1.43333887E-01
 -5.26799801E-02  3.62993570E-03 -1.73255921E-01  1.41588789E-01 -5.01192621E-02
 -4.85525423E-04 -4.16604842E-02  3.49171533E-02 -1.27386325E-02  6.90819623E-03
  8.81757472E-03 -1.42249291E-02 -2.23481991E-02  1.99516658E-04  1.64948056E-01
  2.10344160E-01 -3.39991974E-01 -5.33445981E-01  5.00209309E-03  8.88370033E-07
  1.74550994E-06  2.80129681E-02 -2.36011938E-02  8.67268573E-03 -1.11252654E-05
  4.10039422E-02 -3.45572833E-02  1.27030530E-02 -2.12377726E-05  1.06259930E-01
 -8.94472319E-02  3.28733807E-02 -9.18932998E-04  9.33034799E-02 -7.83620501E-02
  2.91210315E-02  2.29890685E-03  4.27458681E-03 -3.14720471E-03  1.22683153E-03
  1.55816962E-03  5.27061370E-03  1.63430372E-02  5.33154555E-04  4.50707078E-02
  1.08600860E-02  1.04071614E-06  2.03240238E-06  2.81198937E-02 -2.37013679E-02
  8.69590337E-03 -1.32646645E-05  4.11952135E-02 -3.47328708E-02  1.27480968E-02
  9.65400924E-07  1.06416210E-01 -8.96398018E-02  3.28506832E-02 -7.59240187E-04
  9.35744528E-02 -7.90690368E-02  2.87332375E-02 -1.10929544E-03 -2.75933107E-03
  6.90625932E-04 -5.09389465E-03 -1.52636819E-03 -1.91327000E-02 -3.40627741E-02
  2.80158640E-02 -2.73721521E-04 -1.12566217E-02  9.18090156E-07  1.75446736E-06
  2.81194020E-02 -2.36747341E-02  8.69287627E-03 -1.26822599E-05  4.11904117E-02
 -3.46863938E-02  1.27358032E-02  1.18948168E-04  1.06519209E-01 -8.96505935E-02
  3.29831402E-02  1.23604253E-03  9.35303525E-02 -7.83303982E-02  2.92631489E-02
 -2.30628318E-03 -4.28824290E-03  3.16022286E-03 -1.21942472E-03 -1.56136288E-03
 -5.31471137E-03 -1.64304125E-02 -4.46358376E-04 -4.49793104E-02 -1.08677452E-02
  7.99591790E-07  1.52733295E-06  2.80237461E-02 -2.36035968E-02  8.65385280E-03
 -1.08630201E-05  4.10288013E-02 -3.45602520E-02  1.26753209E-02  9.97440654E-05
  1.06202720E-01 -8.94975591E-02  3.27706988E-02  1.09075157E-03  9.29466282E-02
 -7.86258554E-02  2.83570954E-02  1.11153234E-03  2.76026434E-03 -6.98297100E-04
  5.07222743E-03  1.52496578E-03  1.91590828E-02  3.40775481E-02 -2.80968041E-02
  8.25448056E-05  1.12532780E-02  1.41723944E-02  2.23125571E-02 -1.28973634E-01
 -1.06776234E-01  1.26044499E-01 -1.49385252E-01 -8.76939046E-02 -7.27238230E-02
  8.51553695E-02  1.37691486E+01  8.24439177E+00  6.82498980E+00 -8.06188648E+00
 -1.33982546E+00  1.83407465E-01  1.51008164E-01 -1.81734598E-01  3.71530143E-03
  1.54525331E-03  6.01839290E-03 -2.02749035E-03  4.01401181E-03 -2.16798587E-02
 -6.28358432E-01 -5.98865843E-01  1.30985489E-01  4.43328402E-01 -1.41060839E-02
 -2.21836134E-02 -1.29005205E-01 -1.06757982E-01  1.26165610E-01  1.48324515E-01
 -8.76567654E-02 -7.23649127E-02  8.58893493E-02 -1.37630885E+01  8.24514323E+00
  6.82439380E+00 -8.06484675E+00  1.34011507E+00  1.84852522E-01  1.53899225E-01
 -1.78358648E-01 -3.70454127E-03 -1.54694494E-03 -6.01927691E-03  2.03078596E-03
 -4.02975250E-03  2.05965649E-02  6.29037470E-01  5.99027018E-01 -1.31192781E-01
 -4.43053672E-01 -6.57877268E-04 -1.27138606E-03 -1.86288627E-02 -2.52579456E-02
 -8.52490372E-03  4.51530834E-03 -1.10627413E-02 -2.28179605E-02 -2.63123484E-02
  2.12733431E-01 -1.44034642E-01 -1.98795251E-01 -7.56803259E-02  3.36949722E+00
 -4.36788313E-01 -8.84933191E-01 -9.98256359E-01  1.53898402E-03  8.67189807E-04
  2.03147394E-03 -4.78382435E-04 -1.63928104E-04  2.74948629E-02 -5.74542934E-03
  8.39895356E-04  5.45995423E-03 -2.73789861E-02 -6.46910364E-04 -1.24737014E-03
 -5.03468474E-03  5.63872678E-03  3.16845292E-02  4.30626318E-03  7.75004112E-03
  1.99854237E-02  2.94602257E-02  2.14142480E-01 -3.35016403E-02  5.15366358E-02
  2.48830232E-01  3.37744872E+00  2.94658824E-01  7.68355048E-01  1.14032012E+00
  9.92600773E-05  1.43719859E-03  2.10933931E-03 -7.39888270E-04  7.47336001E-04
 -3.31582023E-02  1.79864391E-02  3.32347162E-03 -5.16786322E-03  1.03038380E-02
  6.40104076E-04  1.23622191E-03 -1.87065214E-02 -2.53096212E-02 -8.41764217E-03
 -4.27772349E-03 -1.11738844E-02 -2.28513837E-02 -2.60476190E-02 -2.13701382E-01
 -1.43847953E-01 -1.98372583E-01 -7.51243523E-02 -3.37699771E+00 -4.35204722E-01
 -8.84827066E-01 -1.00299100E+00 -1.56492900E-03 -8.65244478E-04 -2.04807147E-03
  4.81617044E-04  1.60973789E-04 -2.74742140E-02  5.86003100E-03 -7.05442410E-04
 -5.49810554E-03  2.73369389E-02  6.45008532E-04  1.24706743E-03 -4.98717935E-03
  5.66695372E-03  3.16038556E-02 -4.35582442E-03  7.86349559E-03  2.01001477E-02
  2.94009555E-02 -2.13511488E-01 -3.31201453E-02  5.22152745E-02  2.49449326E-01
 -3.37475583E+00  2.92127359E-01  7.65898604E-01  1.14189361E+00 -1.06990469E-04
 -1.42935565E-03 -2.09685982E-03  7.32752000E-04 -7.26634923E-04  3.31361836E-02
 -1.81191714E-02 -3.51233745E-03  5.22499881E-03 -1.03257700E-02 -7.12101793E-02
 -1.46140390E-01  2.58623615E-03  2.16919048E-03 -2.43728319E-03  1.75484476E+00
 -1.91180210E-01 -1.58166562E-01  1.87222632E-01 -1.57844106E+01 -1.62850965E+00
 -1.34981852E+00  1.58721606E+00 -4.25937873E+00 -6.57789899E-01 -5.44028696E-01
  6.44501510E-01  9.38779917E-03  3.74146420E-03  1.51186983E-02 -5.15702082E-03
  1.04731651E-02 -1.23133407E-01  3.16611686E-01  1.32402558E-01 -1.18849616E-03
 -4.18776647E-01  7.12236456E-02  1.46161559E-01  2.55348346E-03  2.09626269E-03
 -2.55293189E-03 -1.75504428E+00 -1.91312319E-01 -1.58473364E-01  1.86764752E-01
  1.57880376E+01 -1.62566002E+00 -1.34436692E+00  1.59365686E+00  4.25974661E+00
 -6.58257672E-01 -5.45237408E-01  6.42804056E-01 -9.56523340E-03 -3.67204725E-03
 -1.51085773E-02  5.12414282E-03 -1.03556958E-02  1.31676108E-01 -3.19574668E-01
 -1.32140154E-01  2.48406079E-03  4.13756786E-01  5.56137289E-03  1.18894700E-02
 -1.73698700E-02 -1.34334206E-02  1.95709134E-02 -1.13390849E-01 -3.42532953E-02
 -1.96099179E-02  5.73359185E-02  7.10048838E-01  6.78636891E-02 -1.48719129E-01
 -6.24466640E-01  3.08977316E+00  5.78089901E-01  1.67830533E-01 -1.41157456E+00
 -9.27673933E-04 -4.72901501E-04 -1.74842381E-03  6.27982967E-04 -1.35862965E-03
  5.93747509E-02 -2.25161345E-02  2.56045104E-02 -6.56225901E-03  3.10563903E-02
  5.54937592E-03  1.18697448E-02 -1.86923902E-02 -1.64216187E-02  1.57040460E-02
 -1.13431063E-01 -4.63287055E-02 -4.70312655E-02  2.16774281E-02  7.14909441E-01
  3.54543239E-01  4.99586075E-01  2.14594535E-01  3.07868142E+00  1.00696575E+00
  1.14219590E+00 -1.44075462E-01 -1.28918670E-03 -3.68069772E-04 -1.78092432E-03
  5.80285580E-04 -1.14114794E-03  4.51420464E-05  9.81057114E-04  2.83850989E-02
 -1.70690178E-02  6.79938208E-02 -5.54515250E-03 -1.18638524E-02 -1.73717690E-02
 -1.34260534E-02  1.95825056E-02  1.13454318E-01 -3.42509667E-02 -1.96705443E-02
  5.71340887E-02 -7.16362013E-01  6.80352446E-02 -1.49977479E-01 -6.28394968E-01
 -3.08205611E+00  5.77615278E-01  1.68872091E-01 -1.40719740E+00  9.60795583E-04
  4.93611110E-04  1.78980348E-03 -6.36094027E-04  1.34325441E-03 -5.95775377E-02
  2.24610932E-02 -2.58197501E-02  6.61161905E-03 -3.10563774E-02 -5.55876305E-03
 -1.18843087E-02 -1.86741454E-02 -1.63984557E-02  1.56954433E-02  1.13355361E-01
 -4.63930364E-02 -4.71356671E-02  2.15756911E-02 -7.10001692E-01  3.52840188E-01
  4.96921317E-01  2.12892057E-01 -3.08921759E+00  1.00978822E+00  1.14635495E+00
 -1.41879033E-01  1.29143786E-03  3.26050967E-04  1.72865929E-03 -5.62949700E-04
  1.13364423E-03 -2.65547036E-05 -8.58342190E-04 -2.81829236E-02  1.69922622E-02
 -6.79033600E-02  8.39887569E-05  1.59393905E-04  1.96374939E-02  4.46441720E-02
  5.81160655E-02 -1.03838635E-03  1.49703099E-01  3.38581630E-01  4.38258083E-01
 -3.86887105E-03 -3.11787008E+00 -7.04951041E+00 -9.12184009E+00  2.50893675E-02
 -7.91908153E-03 -2.28584822E-02 -3.66580218E-02  1.24455875E-02 -4.87423564E-03
 -4.96311460E-04  2.17079167E-03 -7.68414972E-03 -4.71804456E-01  1.85089999E-01
  1.97223189E-02 -8.27278048E-02  2.93662223E-01  1.30595024E-05  6.40853618E-05
 -1.98267745E-02 -4.47986488E-02 -5.79245676E-02 -2.13889164E-03 -1.48929268E-01
 -3.37806439E-01 -4.38648786E-01  2.55869123E-02  3.10322258E+00  7.03858297E+00
  9.13938695E+00 -2.29293346E-02  1.51713503E-02  2.88811897E-02  2.96181031E-02
  1.23919081E-02 -4.88793478E-03 -5.65506750E-04  2.19220875E-03 -7.76200911E-03
 -4.71055293E-01  1.87109583E-01  2.32301657E-02 -8.39321726E-02  2.94141564E-01
 -1.09961793E-02 -1.70732421E-02  1.54044069E-02  1.27596177E-02 -1.50956565E-02
  5.67691298E-03  1.08577612E-02  6.33781094E-03 -1.79326074E-02  1.80667441E+00
  2.50430554E-01 -5.26897016E-04 -8.11112105E-01  7.65630018E+00  5.62172200E-01
 -3.71095669E-01 -2.82832111E+00  2.46156961E-03  8.86702306E-06  2.32252734E-03
 -6.99594524E-04  1.58019780E-03  4.87590068E-02 -1.88891706E-02  2.18665298E-02
 -6.04192891E-03  2.87802701E-02  1.10703159E-02  1.72074381E-02 -1.55762730E-02
 -1.29326526E-02  1.51805070E-02 -6.37204612E-03 -1.48793178E-02 -1.50528561E-02
  7.19721196E-03 -1.80680706E+00 -5.40042580E-01 -6.54947392E-01 -3.80003863E-02
 -7.66621577E+00 -1.72858504E+00 -2.26768652E+00 -5.88379884E-01 -8.55580103E-04
 -6.42886514E-04 -2.38766467E-03  9.78472159E-04 -2.56742870E-03 -2.44459629E-03
  5.53822849E-04 -2.39563441E-02  1.41968678E-02 -5.74649536E-02 -1.10353023E-02
 -1.71466167E-02 -1.55088931E-02 -1.28201416E-02  1.51543909E-02  6.15255855E-03
 -1.10144321E-02 -6.41457157E-03  1.80229198E-02  1.80522965E+00 -2.50730597E-01
 -1.10815892E-04  8.10024925E-01  7.66007568E+00 -5.64811788E-01  3.68660499E-01
  2.82964779E+00  2.47946579E-03 -2.29306346E-06  2.31278672E-03 -6.94690525E-04
  1.57065986E-03  4.87476568E-02 -1.88561408E-02  2.18525981E-02 -6.04263141E-03
  2.87155153E-02  1.10463347E-02  1.71577147E-02  1.55025817E-02  1.28503200E-02
 -1.50525311E-02 -5.90581779E-03  1.47659920E-02  1.49188974E-02 -6.98973807E-03
 -1.81080094E+00  5.40922759E-01  6.56392832E-01  3.94103102E-02 -7.66741786E+00
  1.72725380E+00  2.26742028E+00  5.92497727E-01 -8.76327346E-04 -6.35997120E-04
 -2.38971124E-03  9.78545182E-04 -2.55578584E-03 -2.53224599E-03  6.06886687E-04
 -2.39902521E-02  1.42295658E-02 -5.75828292E-02  2.92206756E-02  6.65324605E-02
 -1.55693110E-02 -1.29481041E-02  1.50707743E-02 -9.74273883E-01  5.39238930E-03
  3.99845003E-03 -6.48498205E-03  7.17703988E+00 -1.79359884E+00 -1.47607192E+00
  1.77784513E+00  6.90161289E-01 -1.01820826E-01 -8.42265133E-02  9.97742051E-02
 -4.68770503E-04  7.41037522E-03  6.22652828E-03 -1.24125802E-03 -6.08974964E-03
  4.51704643E-01  2.09975348E-01  7.50052484E-01 -2.51038724E-01  4.69690418E-01
  2.91739738E-02  6.64348243E-02  1.55192659E-02  1.28384348E-02 -1.51926224E-02
 -9.73316938E-01 -5.54975217E-03 -4.55976363E-03  5.56603577E-03  7.17544242E+00
  1.79384690E+00  1.47861427E+00 -1.77129945E+00  6.88056074E-01  1.02095116E-01
  8.44622315E-02 -9.99984587E-02 -3.88892025E-04  7.38587606E-03  6.23204698E-03
 -1.22949178E-03 -6.13821841E-03  4.52680207E-01  2.09604563E-01  7.50014923E-01
 -2.50789692E-01  4.68932595E-01  1.40371382E-02  2.40264234E-02 -1.43597435E-02
 -3.29376137E-03  3.74482509E-02 -7.63654738E-02 -3.46668692E-02 -1.19908068E-02
  7.94056620E-02 -1.07451122E+00 -8.68596266E-02  1.45594247E-01  6.77382104E-01
 -2.80745491E+00  2.47287177E-02  3.69338793E-01  9.26073633E-01  3.51613781E-03
 -3.36200574E-03 -1.51434361E-03  7.28048322E-04  4.05847588E-04 -5.34592031E-02
 -5.05721654E-03 -3.22688591E-02  2.26188375E-03  2.58069691E-02  1.39803510E-02
  2.39288279E-02 -2.61653139E-02 -3.02406930E-02  2.21212704E-03 -7.60418647E-02
 -5.75972174E-02 -6.43263922E-02  1.09750726E-02 -1.06833662E+00 -3.88098988E-01
 -5.37704943E-01 -2.09925812E-01 -2.77893457E+00 -4.54358036E-01 -7.21491664E-01
 -4.96323059E-01 -2.55690940E-03 -9.74875315E-04 -1.25014403E-03 -3.41460173E-04
  4.19240856E-03  3.01445640E-02 -3.77240281E-02 -3.55590459E-02  1.68448872E-02
 -2.60323287E-02  1.40268047E-02  2.40055321E-02  1.43074490E-02  3.25550734E-03
 -3.73797495E-02 -7.62107869E-02  3.45387896E-02  1.19067280E-02 -7.92096578E-02
 -1.07451297E+00  8.78309186E-02 -1.44470316E-01 -6.77379234E-01 -2.80275767E+00
 -2.43992882E-02 -3.68226660E-01 -9.23985256E-01  3.51449929E-03 -3.36853083E-03
 -1.52116454E-03  7.29767114E-04  4.10434900E-04 -5.34412110E-02 -4.84804100E-03
 -3.20303785E-02  2.20061889E-03  2.57497221E-02  1.39969886E-02  2.39639576E-02
  2.62528756E-02  3.03130250E-02 -2.30166654E-03 -7.63442496E-02  5.78377218E-02
  6.45525773E-02 -1.11382407E-02 -1.06803618E+00  3.87323082E-01  5.37233836E-01
  2.11208204E-01 -2.78037496E+00  4.54298017E-01  7.21927626E-01  4.97811244E-01
 -2.55827183E-03 -9.68217777E-04 -1.24491608E-03 -3.42415570E-04  4.18671620E-03
  3.00408070E-02 -3.79257662E-02 -3.57893912E-02  1.68833939E-02 -2.58413997E-02
  3.38473157E-08  1.42991225E-07 -1.06349715E-04  8.10759748E-05 -3.96397909E-05
 -4.73003629E-06 -7.07053997E-04  5.11625854E-04 -2.87396544E-04  3.69642932E-05
 -3.18582131E-03  4.32198031E-03  4.21193452E-04 -2.00452114E-05 -5.59863903E-04
  4.81605584E-04 -1.51945671E-04  7.98637099E-03  1.64939274E-02 -8.99210947E-03
  1.48400989E-02  7.23680311E-03  3.15623979E-01  6.49902012E-01 -3.56991096E-01
  5.76331506E-01  2.84053872E-01  2.47241157E-07  5.42047464E-07  1.11401398E-04
 -8.89673009E-05  3.84696722E-05 -6.92510862E-06  7.26185330E-04 -5.54648296E-04
  2.73545982E-04  3.94051548E-05  3.27148787E-03 -4.49444262E-03 -4.85810166E-04
  2.74297662E-05  4.94305305E-04 -4.43146652E-04  1.39231512E-04 -8.02380249E-03
 -1.65331877E-02  9.05727124E-03 -1.47427384E-02 -7.23530375E-03 -3.12983324E-01
 -6.46800679E-01  3.51791894E-01 -5.84654988E-01 -2.84102717E-01  2.54633908E-06
  4.19092607E-06 -5.46775896E-02  4.60634175E-02 -1.69085049E-02 -9.08399509E-06
 -9.88113037E-02  8.32490630E-02 -3.05577562E-02 -3.06694604E-04 -1.28978219E-01
  1.08632363E-01 -3.97522350E-02 -1.28592343E-03 -5.48194566E-02  4.61752868E-02
 -1.64638287E-02 -3.77254135E-03 -6.51646128E-03  5.75362964E-03  1.20987847E-03
 -2.00176460E-03 -1.98062032E-02 -3.08385317E-02  3.41833937E-02  2.80714746E-02
 -6.77097928E-03 -2.29832957E-06 -3.75886651E-06  5.46494944E-02 -4.60390689E-02
  1.69010370E-02  7.52068292E-06  9.88872030E-02 -8.33089356E-02  3.05860097E-02
  2.90118025E-04  1.27306285E-01 -1.07094708E-01  3.93558079E-02  1.26246340E-03
  5.65358126E-02 -4.70279017E-02  1.74947952E-02 -5.34076297E-04 -2.36580990E-03
 -8.97614031E-04 -9.16016742E-03 -1.88942962E-03  5.92153371E-03  2.07912598E-03
 -1.86964697E-02 -5.45786450E-02 -5.91773893E-03  2.83442804E-06  4.59591087E-06
 -5.46429389E-02  4.60464964E-02 -1.69108861E-02 -7.65998966E-06 -9.88599593E-02
  8.33014487E-02 -3.05926122E-02 -3.54754396E-04 -1.27485190E-01  1.07455464E-01
 -3.96248797E-02 -1.39948530E-03 -5.60454158E-02  4.72371221E-02 -1.78732217E-02
  3.75165716E-03  6.47318673E-03 -5.73127737E-03 -1.24838794E-03  1.98279143E-03
  1.98261351E-02  3.07928465E-02 -3.43831952E-02 -2.88153088E-02  6.65394518E-03
 -2.72358022E-06 -4.40716375E-06  5.46734270E-02 -4.60746558E-02  1.69177064E-02
  7.05738523E-06  9.88156865E-02 -8.32708098E-02  3.05719731E-02  3.46440867E-04
  1.28770401E-01 -1.08725247E-01  3.98610302E-02  1.36487537E-03  5.44508546E-02
 -4.65250820E-02  1.68329199E-02  5.56485658E-04  2.41217087E-03  8.74381850E-04
  9.20434911E-03  1.91011670E-03 -5.63020677E-03 -1.61356656E-03  1.82273181E-02
  5.42719816E-02  6.05343600E-03  1.33722964E-06  2.64307975E-06  4.39746170E-02
 -3.70540506E-02  1.36054199E-02 -2.01506330E-05  2.25626479E-01 -1.90114955E-01
  6.98032221E-02  1.69074483E-04  1.24582151E+00 -1.04941828E+00  3.85194287E-01
  2.91623063E-04  7.42537996E-02 -6.24695617E-02  2.28955198E-02  3.47796830E-03
  4.46696792E-03 -7.13130817E-03 -1.10721173E-02  1.31677381E-04 -4.06184851E-01
 -5.17483062E-01  8.38059856E-01  1.32063893E+00 -1.06353946E-02 -5.44151412E-07
 -7.05130876E-07 -4.39811032E-02  3.70545540E-02 -1.36034935E-02 -2.79464958E-06
 -2.25617979E-01  1.90108470E-01 -6.97997873E-02 -2.65838180E-04 -1.24558619E+00
  1.04971370E+00 -3.85490494E-01 -2.95696547E-04 -7.41690567E-02  6.25798928E-02
 -2.30086218E-02  3.40487726E-03  4.31610937E-03 -7.05295720E-03 -1.12156424E-02
  6.36368561E-05 -4.08243937E-01 -5.21746649E-01  8.40397075E-01  1.31670920E+00
 -1.25163732E-02 -2.72563566E-07 -4.90168262E-07  4.03400704E-03 -3.40269180E-03
  1.24734607E-03  1.71455295E-06 -3.95857782E-03  3.32843891E-03 -1.22813404E-03
  4.19637916E-05  1.79914404E-01 -1.51603284E-01  5.56353472E-02  5.21056026E-05
 -2.08548637E-01  1.75684882E-01 -6.45200304E-02  2.70446523E-03  5.39677788E-03
 -3.26590595E-03  3.81815431E-03  2.24157885E-03 -3.74315611E-03  7.34281771E-03
  2.21044087E-02  9.05038843E-02  1.33803224E-02 -3.62320240E-07 -6.61957800E-07
  4.51752368E-03 -3.80549643E-03  1.40103943E-03  3.03479844E-06 -3.06884033E-03
  2.58936481E-03 -9.41429542E-04  3.01226468E-05  1.80967027E-01 -1.52459182E-01
  5.59829921E-02  6.57382511E-05 -2.08387951E-01  1.75594774E-01 -6.44330484E-02
 -2.24167507E-03 -4.81996725E-03  2.29404431E-03 -5.40938565E-03 -2.24452278E-03
 -3.45817320E-02 -5.63382753E-02  5.67655412E-02  3.30045742E-02 -1.45759652E-02
  1.75711550E-07  3.62608087E-07 -4.49398572E-03  3.78337247E-03 -1.39049059E-03
 -2.80048655E-06  3.10601748E-03 -2.62423058E-03  9.59072506E-04  1.80059946E-06
 -1.80990741E-01  1.52499090E-01 -5.59871336E-02 -2.52955550E-05  2.08421699E-01
 -1.75638891E-01  6.44736663E-02  2.73886965E-03  5.45463929E-03 -3.31898261E-03
  3.79904318E-03  2.25858908E-03 -3.53695309E-03  7.69448447E-03  2.17744777E-02
  9.03573431E-02  1.34839817E-02  1.59143984E-07  3.10070507E-07 -4.03365049E-03
  3.39872087E-03 -1.24582805E-03 -1.71356532E-06  3.96230310E-03 -3.33617006E-03
  1.22945803E-03 -1.52815549E-05 -1.79904868E-01  1.51592128E-01 -5.56454521E-02
 -2.78795609E-05  2.08573872E-01 -1.75738891E-01  6.45409574E-02 -2.24111996E-03
 -4.80511129E-03  2.31081860E-03 -5.31804333E-03 -2.22830181E-03 -3.45622525E-02
 -5.62296187E-02  5.68547777E-02  3.35744046E-02 -1.44713497E-02 -1.79781573E-05
 -7.51961383E-05  1.84936981E-02  4.19253528E-02  5.44084143E-02  1.40778410E-03
  2.38762289E-01  5.40853142E-01  7.01292133E-01  1.65321262E-03  1.07671893E+00
  2.43843279E+00  3.16094458E+00 -6.29726037E-05  7.77307086E-02  1.76850713E-01
  2.30415869E-01  1.88491338E-02 -7.43890502E-03 -8.13596653E-04  3.30477664E-03
 -1.16395739E-02  1.33641083E+00 -5.23590688E-01 -5.46836242E-02  2.33872834E-01
 -8.29652830E-01  9.99685255E-07 -3.46919070E-05  1.85384416E-02  4.19730553E-02
  5.43944596E-02  1.46965788E-03  2.38177322E-01  5.40620164E-01  7.02550050E-01
 -3.65056775E-03  1.07325107E+00  2.43527747E+00  3.16353554E+00 -3.53232127E-04
  7.86078346E-02  1.77654270E-01  2.29758472E-01 -1.88369887E-02  7.39558668E-03
  8.19958187E-04 -3.32094024E-03  1.17763690E-02 -1.33458932E+00  5.27482685E-01
  6.01488981E-02 -2.35269576E-01  8.28710965E-01  1.26433864E-02  1.91531063E-02
  4.87277353E-03  5.13816851E-03 -1.77301624E-03  1.86903720E-02  2.77882863E-02
  1.07452835E-02 -6.06051998E-02 -1.81509403E+00 -2.32685924E-01  2.85325243E-01
  1.52943485E+00 -3.26419456E+00 -2.00356518E-01  5.17667645E-02  7.88708574E-01
  1.48558692E-02 -2.21156295E-03  6.71708204E-03 -5.75136678E-04 -1.83432145E-03
 -4.43535307E-02  4.46092847E-02  3.90267481E-03  9.66261988E-04 -4.98480804E-02
 -1.26394803E-02 -1.91542125E-02 -3.22430087E-03 -1.57217208E-03  6.15818816E-03
 -1.84367731E-02 -4.45047801E-02 -4.91207480E-02  1.01240988E-02  1.81112431E+00
  8.95783834E-01  1.21857972E+00  4.23198727E-01  3.26351481E+00  5.04404955E-01
  6.34669518E-01  9.80645231E-02  6.08611468E-03 -6.02185913E-03 -7.60674409E-03
  4.24963441E-03 -1.11636325E-02  5.00989819E-03 -2.90083949E-02 -2.13874126E-03
 -7.87760063E-03  7.40907153E-02 -1.26380846E-02 -1.91487527E-02  4.80439587E-03
  5.07899802E-03 -1.69311413E-03 -1.85706977E-02  2.75405963E-02  1.05269128E-02
 -6.03326604E-02  1.81321456E+00 -2.32509757E-01  2.85128456E-01  1.52804060E+00
  3.26553646E+00 -2.02399309E-01  4.97381804E-02  7.89676262E-01 -1.48541099E-02
  2.21934450E-03 -6.70622955E-03  5.71494468E-04  1.83824698E-03  4.43040624E-02
 -4.45144912E-02 -3.86364157E-03 -9.63541046E-04  4.97246234E-02  1.26380968E-02
  1.91451287E-02 -3.33804204E-03 -1.66829518E-03  6.24407150E-03  1.86691934E-02
 -4.48408858E-02 -4.94068148E-02  1.03653423E-02 -1.81355022E+00  8.96588436E-01
  1.21981929E+00  4.24251772E-01 -3.26157454E+00  5.02620537E-01  6.33262892E-01
  1.00112800E-01 -6.07505357E-03  6.03502935E-03  7.62996096E-03 -4.25546310E-03
  1.11647836E-02 -5.04322457E-03  2.91178920E-02  2.18901028E-03  7.87054226E-03
 -7.42298649E-02 -4.03035480E-02 -1.06968839E-01 -3.56315778E-02 -2.95185557E-02
  3.47877178E-02  1.61766345E+00  2.86865982E-01  2.37500922E-01 -2.80389443E-01
 -8.79980981E-02 -1.13856175E+00 -9.43430767E-01  1.11092159E+00  3.95248571E-02
 -2.15080312E-01 -1.78002044E-01  2.10441223E-01  1.13787037E-02 -5.73785745E-03
  8.89131930E-03 -4.22826073E-03  2.02384870E-02  6.62752112E-02  8.18258844E-01
  8.28999574E-01 -1.89265034E-01 -5.19894237E-01 -4.03176357E-02 -1.06996390E-01
  3.55726508E-02  2.93946112E-02 -3.49246056E-02  1.61800844E+00 -2.86596017E-01
 -2.37229685E-01  2.80299065E-01 -9.41903155E-02  1.13910789E+00  9.41508486E-01
 -1.11790374E+00  3.25047904E-02  2.16256716E-01  1.78871744E-01 -2.11906455E-01
  1.14755787E-02 -5.77694301E-03  8.88343325E-03 -4.20919554E-03  2.01713199E-02
  6.86558907E-02  8.17744307E-01  8.29294234E-01 -1.88921595E-01 -5.21695863E-01
  4.93543656E-03  7.74001845E-03 -2.92916353E-02 -3.97751573E-02 -1.36494487E-02
 -1.23183156E-02 -5.56380735E-02 -9.76027519E-02 -8.59920405E-02 -4.39131392E-01
 -1.29647512E-01 -2.32265411E-03  4.12780727E-01 -6.90120488E-02  2.50387681E-01
  1.77224786E-01 -3.26683204E-01  4.45025059E-03 -6.47658543E-03 -5.56248214E-03
  2.34558602E-03 -1.87574236E-03  4.69509480E-02 -8.30439296E-03 -1.48589827E-02
  1.98694736E-02 -9.21456801E-02  4.97712759E-03  7.81570375E-03 -7.81403462E-03
  9.04204962E-03  4.98911510E-02 -1.27289609E-02  1.58445192E-02  6.45958070E-02
  1.24731556E-01 -4.39650891E-01 -2.75669784E-01 -3.32895056E-01 -1.56048318E-02
 -7.64833620E-02  2.90167743E-01  2.68984126E-01 -2.05335636E-01 -6.74195393E-03
 -2.09209024E-03 -5.10373973E-03  3.86321966E-04  5.07876549E-03 -9.50154606E-02
  4.74510422E-02 -8.92483340E-03 -5.00154603E-03 -4.07303327E-03  4.97600829E-03
  7.81206449E-03  2.93295430E-02  3.97701504E-02  1.35158692E-02 -1.26670322E-02
  5.56292448E-02  9.75061879E-02  8.57633864E-02 -4.40024112E-01  1.30408656E-01
  3.20521698E-03 -4.12849085E-01 -7.61702755E-02 -2.50744617E-01 -1.78718685E-01
  3.23808750E-01  4.43368011E-03 -6.49233734E-03 -5.58720160E-03  2.35042888E-03
 -1.86124371E-03  4.69288324E-02 -8.36053066E-03 -1.49880339E-02  1.99280890E-02
 -9.22650408E-02  4.93427178E-03  7.73849687E-03  7.68416097E-03 -9.17260402E-03
 -4.98225235E-02 -1.23164994E-02 -1.60529906E-02 -6.48319520E-02 -1.24690549E-01
 -4.39359621E-01  2.75692799E-01  3.33216304E-01  1.63895807E-02 -6.88049901E-02
 -2.92283425E-01 -2.71877361E-01  2.04337061E-01 -6.75996031E-03 -2.06153103E-03
 -5.07535194E-03  3.75110842E-04  5.08643784E-03 -9.48614301E-02  4.75380710E-02
 -8.70071031E-03 -5.05581363E-03 -4.05899974E-03  1.42499569E-04  3.27167056E-04
 -4.95727455E-03 -4.16093434E-03  4.68682917E-03  5.61463877E-01  4.35967074E-01
  3.61036164E-01 -4.25992045E-01 -5.13506993E+00  1.75109373E+00  1.45265089E+00
 -1.70436418E+00  8.77115722E+00  1.83488801E+00  1.52097639E+00 -1.78885252E+00
 -7.77469807E-03 -6.32723355E-03 -1.52959863E-02  4.79074221E-03 -5.82893457E-03
 -6.81260809E-01 -4.07995913E-01 -1.22924157E+00  4.05257563E-01 -6.76695012E-01
 -1.29940767E-04 -3.15866556E-04 -4.90013143E-03 -3.97955299E-03  4.99896404E-03
 -5.61968128E-01  4.36253055E-01  3.60875903E-01 -4.27260026E-01  5.14088035E+00
  1.74719570E+00  1.44264172E+00 -1.71817976E+00 -8.77057266E+00  1.83239184E+00
  1.51437822E+00 -1.79836439E+00  7.60752356E-03  6.40279923E-03  1.53417875E-02
 -4.83856837E-03  5.99586661E-03  7.12167966E-01  3.95665020E-01  1.22813238E+00
 -4.00009973E-01  6.58525553E-01 -1.52767858E-02 -2.42809333E-02 -3.25771482E-02
 -1.41445500E-02  6.67872161E-02  2.14192155E-02 -1.16724638E-01 -4.24922774E-02
  2.61611260E-01  1.64483426E+00  5.99915965E-01  3.42055302E-02 -1.84628095E+00
  2.28503788E+00 -3.64647048E-01 -4.55005554E-01 -6.04693609E-02 -1.43394538E-02
  9.02883084E-03  8.26912060E-04 -1.40300463E-03 -8.43287699E-04  3.01991714E-02
 -7.09408332E-03  1.43237551E-02 -2.53328469E-03  5.82203952E-03 -1.53466752E-02
 -2.43861983E-02 -5.05740639E-02 -5.48735652E-02  1.40176861E-02  2.10931153E-02
 -1.92245950E-01 -2.13739140E-01  3.92739251E-02  1.66774228E+00  1.25146989E+00
  1.50487870E+00  5.32818747E-02  2.29674510E+00 -1.51464603E-01  2.54678271E-02
  5.59004143E-01  8.12518891E-03  1.03488482E-04 -2.57763488E-04  2.58427913E-03
 -1.48283846E-02 -5.78678549E-03  7.08087903E-03  1.61160165E-02 -9.00060538E-03
  2.87376132E-02  1.53565430E-02  2.44026015E-02 -3.25080861E-02 -1.38613939E-02
  6.73355366E-02 -2.11242966E-02 -1.16357187E-01 -4.15908572E-02  2.62861547E-01
 -1.66934006E+00  5.99458133E-01  2.65246456E-02 -1.86546355E+00 -2.29933948E+00
 -3.61551916E-01 -4.50270742E-01 -5.76985983E-02  1.44569278E-02 -8.99012887E-03
 -7.11290781E-04  1.38191104E-03  8.09586628E-04 -3.07530532E-02  7.28423945E-03
 -1.45436366E-02  2.57624931E-03 -6.00023811E-03  1.53024151E-02  2.43249708E-02
 -5.04538155E-02 -5.46073620E-02  1.43603752E-02 -2.15788115E-02 -1.92200437E-01
 -2.13328282E-01  4.02479588E-02 -1.64587412E+00  1.24394377E+00  1.49262761E+00
  4.44441778E-02 -2.28673955E+00 -1.51897719E-01  2.74292698E-02  5.65640771E-01
 -8.09989358E-03 -1.87041674E-04  1.59338899E-04 -2.54590167E-03  1.47923383E-02
  5.83671657E-03 -7.08322951E-03 -1.58528093E-02  8.85284334E-03 -2.81622129E-02
  1.12072948E-05  1.58055084E-05  3.42081990E-05  5.59649990E-05 -4.66809630E-05
 -5.61710365E-04 -4.00540492E-04 -2.95909568E-04  3.32726159E-04  3.59352547E-03
 -4.76132817E-04 -7.94337067E-04  6.31543236E-04  4.34437992E-04 -2.12062454E-04
 -2.50432898E-04  1.18419582E-04 -1.21079749E-04 -2.97778203E-04  1.83003912E-04
 -2.64163968E-04 -9.50263343E-05  5.22532867E-02  1.07585125E-01 -5.91846909E-02
  9.69574370E-02  4.79907833E-02  1.11187894E-05  1.55945584E-05 -5.27516028E-05
 -3.52885289E-05  4.58806476E-05 -5.57683758E-04  2.74823550E-04  4.03943520E-04
 -3.58972875E-04  3.60332837E-03  6.80872358E-04  7.45184217E-04 -4.18966790E-04
  4.95405285E-04  2.37836300E-04  2.24807229E-04 -8.08219505E-05 -1.13454289E-04
 -2.86812910E-04  1.69567708E-04 -2.77808677E-04 -9.32185655E-05  5.23994304E-02
  1.07952713E-01 -5.94997068E-02  9.68848911E-02  4.81332065E-02  1.61345071E-05
  2.79465186E-05  9.70502860E-02 -8.18327719E-02  2.99411006E-02 -1.13346710E-04
  2.95998046E-01 -2.49642095E-01  9.12559455E-02 -2.81245379E-04 -6.70932921E-01
  5.66228220E-01 -2.06499433E-01 -1.53513215E-03  3.24927608E-01 -2.73797611E-01
  1.00598013E-01 -1.37269977E-03 -2.43666576E-03  2.04839687E-03  7.89572866E-05
 -7.91796926E-04 -1.32320941E-02 -1.93434363E-02  2.43253276E-02  2.67756202E-02
 -3.12443362E-03  1.68859087E-05  2.90359353E-05 -9.69962799E-02  8.18383602E-02
 -2.99425311E-02 -1.07352401E-04 -2.95811804E-01  2.49647536E-01 -9.12600935E-02
 -5.92525286E-04  6.70382408E-01 -5.66422212E-01  2.06396938E-01 -1.62027672E-03
 -3.25060225E-01  2.73880457E-01 -1.00396957E-01 -3.41465026E-04 -1.10912936E-03
 -8.39304377E-05 -3.27236983E-03 -7.57707909E-04  6.92878043E-03  6.33356651E-03
 -1.71600131E-02 -3.83848351E-02 -2.57350285E-03  1.56022239E-05  2.70556253E-05
 -9.70985655E-02  8.18748453E-02 -2.99547822E-02 -1.11593687E-04 -2.96149474E-01
  2.49774396E-01 -9.13004933E-02 -2.06121489E-04  6.71401294E-01 -5.66629610E-01
  2.06699081E-01 -1.37645735E-03 -3.25380732E-01  2.74177696E-01 -1.00695038E-01
 -1.37517306E-03 -2.43961275E-03  2.05208120E-03  8.31531961E-05 -7.92388065E-04
 -1.32366278E-02 -1.93547830E-02  2.43300388E-02  2.67659823E-02 -3.12585564E-03
  1.73582491E-05  2.98524947E-05  9.70844503E-02 -8.19097596E-02  2.99704125E-02
 -1.09774570E-04  2.96109097E-01 -2.49890540E-01  9.13539728E-02 -6.53034906E-04
 -6.71127166E-01  5.67091287E-01 -2.06621793E-01 -1.76249328E-03  3.25386825E-01
 -2.74095539E-01  1.00489028E-01 -3.43771179E-04 -1.11405369E-03 -8.12256789E-05
 -3.27771151E-03 -7.59792313E-04  6.93725904E-03  6.34244935E-03 -1.71849006E-02
 -3.84484632E-02 -2.58072072E-03  1.01197643E-02  1.43223828E-02  4.27229732E-02
  3.53457533E-02 -4.18344948E-02 -5.03403108E-01 -3.27993046E-01 -2.71438481E-01
  3.20981209E-01  3.21137952E+00 -5.78827049E-01 -4.78036248E-01  5.69186780E-01
  4.09641216E-01 -1.82239002E-01 -1.50838897E-01  1.78350928E-01  1.86772729E-02
 -4.65000906E-03  1.88396294E-02 -7.79963976E-03  2.93917809E-02  1.15567007E-01
 -4.16310295E-01 -2.36426481E-01  2.62305672E-02  4.73041384E-01  1.01275757E-02
  1.43342590E-02 -4.27277295E-02 -3.53542762E-02  4.18359523E-02 -5.03011459E-01
  3.27414180E-01  2.70884271E-01 -3.20505805E-01  3.21320062E+00  5.76423979E-01
  4.76950703E-01 -5.64169128E-01  4.23118432E-01  1.79497502E-01  1.48329446E-01
 -1.76329473E-01  1.86177043E-02 -4.63265439E-03  1.88389403E-02 -7.80515495E-03
  2.94282657E-02  1.15240443E-01 -4.17014901E-01 -2.37652010E-01  2.66739763E-02
  4.72568672E-01  1.47763690E-02  2.55105632E-02 -1.37290477E-02 -4.64288815E-02
 -8.27159796E-02 -9.91721085E-02 -5.83241344E-02 -1.82161376E-01 -3.09561316E-01
 -3.87068126E-01  2.42174630E-01  7.03445707E-01  1.13755323E+00 -1.40791695E+00
 -4.98841609E-02 -5.21082637E-02  1.71856096E-02  7.41618658E-03  3.08552000E-03
  9.54176462E-03 -2.55332625E-03  1.88568952E-03 -9.98507759E-03  1.27050638E-02
  1.34044067E-02 -6.55814446E-03  1.22207131E-02  1.47646759E-02  2.54916079E-02
  3.54832235E-02  6.44496252E-02  6.14692596E-02 -9.91102141E-02  1.29191793E-01
  2.40836040E-01  2.40260926E-01 -3.86965299E-01 -4.60639559E-01 -8.84265247E-01
 -9.23746865E-01 -1.40375165E+00 -3.24200712E-02 -1.51586801E-02  6.56332989E-02
  2.09692668E-03  5.17755675E-03  9.77241575E-03 -3.48314613E-03  5.18320283E-03
  2.09051088E-02  6.84951169E-04  1.22843616E-02 -1.09187387E-03 -7.09792740E-03
  1.47582055E-02  2.54808835E-02  1.38148320E-02  4.65152505E-02  8.26822562E-02
 -9.90796014E-02  5.85930312E-02  1.82383987E-01  3.09323746E-01 -3.86775260E-01
 -2.42726185E-01 -7.03901495E-01 -1.13703800E+00 -1.40485551E+00  5.10313924E-02
  5.38873304E-02 -1.59707278E-02  7.42624064E-03  3.08869896E-03  9.54693326E-03
 -2.55238570E-03  1.87083084E-03 -1.00480963E-02  1.28825433E-02  1.35499140E-02
 -6.60642575E-03  1.21640269E-02  1.47591618E-02  2.54844172E-02 -3.54174807E-02
 -6.43479602E-02 -6.13999217E-02 -9.91956576E-02 -1.28996540E-01 -2.40543656E-01
 -2.40080447E-01 -3.84487028E-01  4.58764446E-01  8.81903502E-01  9.23369850E-01
 -1.40419122E+00  3.33828288E-02  1.66678225E-02 -6.45756660E-02  2.13123584E-03
  5.16396343E-03  9.76787962E-03 -3.47523201E-03  5.15537166E-03  2.09008837E-02
  5.09992691E-04  1.21351681E-02 -1.07088438E-03 -6.92128374E-03  7.01928975E-05
  1.50503109E-04 -7.36199292E-03 -1.67415379E-02 -2.17971552E-02 -5.72046335E-03
  7.90662168E-02  1.80187493E-01  2.35196825E-01  8.31606731E-02  6.38400572E-01
  1.43776290E+00  1.85236859E+00  2.50917720E-02  3.72301137E-01  8.39903455E-01
  1.08408684E+00 -5.38981984E-03  2.18902401E-03  3.47564030E-04 -9.92682289E-04
  3.42977602E-03  2.40512439E+00 -9.44602438E-01 -9.78317768E-02  4.19703744E-01
 -1.48505662E+00 -8.23111359E-05 -1.84091769E-04  7.44039175E-03  1.67821261E-02
  2.16552855E-02  6.52787072E-03 -8.06436172E-02 -1.81556713E-01 -2.33820340E-01
 -8.42522295E-02 -6.26064394E-01 -1.42709611E+00 -1.86317985E+00 -2.53586744E-02
 -3.67630695E-01 -8.36088189E-01 -1.08879094E+00 -5.47942893E-03  2.09354698E-03
  1.24217214E-04 -9.16839472E-04  3.31434230E-03  2.39552224E+00 -9.45768850E-01
 -1.10648804E-01  4.24331233E-01 -1.49727570E+00  5.13826407E-03  7.24455649E-03
 -2.02621976E-02 -4.38705208E-02 -5.39654306E-02  4.53887473E-02 -9.28211327E-02
 -1.58923473E-01 -1.32740778E-01 -2.11080785E+00  2.89914827E-01  9.81923238E-01
  1.73729309E+00 -1.43996438E+00 -4.49729504E-01 -6.39273751E-01 -2.87330844E-01
  1.24740817E-02  5.17936919E-03  1.28535772E-02 -2.33003627E-03 -4.82434571E-03
 -3.22754571E-02  2.69609374E-02  1.50808850E-03 -4.96485173E-04 -2.29154202E-02
 -4.89334707E-03 -6.82570029E-03 -1.72056462E-02 -4.11740616E-02 -5.65394187E-02
 -4.67763145E-02 -2.01138285E-02 -9.80407911E-02 -2.02040130E-01  2.09469356E+00
  7.31612238E-01  1.34117930E+00  1.28785424E+00  1.40239584E+00  7.25780575E-02
 -2.08756336E-01 -8.03209224E-01  3.37856285E-03 -1.14008665E-02 -1.34753381E-02
  5.08390538E-03 -4.91579357E-03 -3.85605762E-03 -1.31852757E-02 -3.87170628E-04
 -5.74540502E-03  4.56264275E-02  4.87328436E-03  6.79130849E-03  2.03425373E-02
  4.38036299E-02  5.34516195E-02  4.68907941E-02  9.33725973E-02  1.58750401E-01
  1.30253030E-01 -2.09492629E+00 -2.92573872E-01 -9.77952216E-01 -1.71705590E+00
 -1.40027206E+00  4.46977040E-01  6.39186540E-01  2.95684909E-01  1.23628479E-02
  5.21149110E-03  1.28000574E-02 -2.31739890E-03 -4.87289804E-03 -3.16774885E-02
  2.71728113E-02  1.93724441E-03 -5.07904144E-04 -2.35225322E-02 -5.14190124E-03
 -7.25019553E-03  1.73948113E-02  4.14945104E-02  5.68718418E-02 -4.53837446E-02
  2.12700866E-02  9.97124647E-02  2.03086849E-01  2.11087406E+00 -7.41724353E-01
 -1.35597094E+00 -1.29625673E+00  1.43894215E+00 -7.80470476E-02  2.02676301E-01
  8.04630920E-01  3.36384705E-03 -1.14195974E-02 -1.35466241E-02  5.11579882E-03
 -5.01633845E-03 -4.36010083E-03 -1.25735947E-02  3.38477538E-05 -5.92656163E-03
  4.56630497E-02  4.03881386E-07  1.03094126E-06 -8.70870688E-05  7.11495571E-05
 -2.44327046E-05  5.42819933E-06 -3.96694455E-04  2.97962942E-04 -1.32213578E-04
 -3.91581093E-04 -6.44815028E-04  3.57687954E-04 -2.95070714E-04 -3.44691773E-04
  4.61823261E-04 -5.93807102E-04  1.01833271E-04 -1.72910551E-03 -3.56876900E-03
  1.94605499E-03 -3.20756000E-03 -1.56518024E-03 -1.53544526E-01 -3.16435314E-01
  1.72757626E-01 -2.84254629E-01 -1.38718823E-01 -3.41924403E-07 -9.07914358E-07
  4.09016664E-05 -3.70953672E-05  1.52520818E-05 -7.96574408E-06  4.00498428E-05
 -2.52174969E-05  3.77098421E-05  3.99689880E-04  5.71361536E-04 -4.34559260E-04
  2.76913930E-04  3.46374898E-04  2.78847647E-04 -1.93160228E-04  2.55936439E-04
  1.73103961E-03  3.57533431E-03 -1.94676408E-03  3.22181054E-03  1.56940145E-03
  1.53699693E-01  3.17104478E-01 -1.73685553E-01  2.82659524E-01  1.38898582E-01
 -8.43563058E-07 -1.29041216E-06 -8.71561482E-02  7.34382670E-02 -2.69558021E-02
 -1.71945017E-06 -2.87185779E-01  2.41987269E-01 -8.88222802E-02  1.85886811E-04
  7.80566595E-01 -6.57762754E-01  2.41290557E-01  1.89895481E-04 -4.65437549E-01
  3.92236463E-01 -1.43967413E-01  2.62421837E-03  4.54288556E-03 -3.99681807E-03
 -7.91844796E-04  1.40191972E-03  2.29792692E-02  3.83211343E-02 -3.66761799E-02
 -1.62249024E-02  1.06674785E-02 -1.49074020E-07 -4.20745163E-07  8.68075982E-02
 -7.31358601E-02  2.68528063E-02  7.85838684E-06  2.86104939E-01 -2.41050356E-01
  8.85041086E-02 -1.26638092E-04 -7.78039949E-01  6.55427071E-01 -2.40709850E-01
  2.71882136E-06  4.63758215E-01 -3.90662563E-01  1.43489776E-01  4.01623345E-04
  1.70233885E-03  5.82903679E-04  6.38301199E-03  1.33478966E-03 -1.87119296E-04
  8.71800542E-03  1.10113989E-02  5.84924024E-02  9.95755351E-03  2.28507312E-07
  5.08500092E-07 -8.69924952E-02  7.32948364E-02 -2.69150110E-02 -6.57082455E-06
 -2.86712989E-01  2.41565585E-01 -8.87030925E-02  1.01393111E-04  7.79659483E-01
 -6.56865798E-01  2.41268238E-01 -7.56257805E-05 -4.64914011E-01  3.91678062E-01
 -1.43918944E-01 -2.62644808E-03 -4.54257528E-03  3.99653202E-03  7.98109463E-04
 -1.40054957E-03 -2.29724211E-02 -3.82968891E-02  3.66835583E-02  1.63318912E-02
 -1.06441960E-02  8.29483110E-07  1.31752179E-06  8.68110068E-02 -7.31509120E-02
  2.68487112E-02 -8.61297634E-08  2.86108456E-01 -2.41086755E-01  8.84840997E-02
 -1.60333095E-04 -7.77915441E-01  6.55638271E-01 -2.40547485E-01 -1.26001851E-04
  4.63816542E-01 -3.90842715E-01  1.43405770E-01 -4.04946596E-04 -1.70534213E-03
 -5.76465216E-04 -6.38054929E-03 -1.33464783E-03  1.26051643E-04 -8.81555319E-03
 -1.09043850E-02 -5.84239060E-02 -9.98480803E-03 -9.84697216E-07 -2.63193937E-06
 -1.54868956E-02  1.30519166E-02 -4.79580823E-03  1.33474918E-05 -1.07874258E-01
  9.09158835E-02 -3.33890107E-02  4.72478390E-04 -5.63432734E-03  4.89241971E-03
 -1.78822016E-03  6.83904658E-04  2.81816737E-01 -2.37265614E-01  8.70288776E-02
  2.39388104E-03  3.05445943E-03 -4.93156922E-03 -7.75342296E-03  6.86771760E-05
 -3.71887424E-02 -4.73766278E-02  7.68210056E-02  1.21394230E-01 -8.53941169E-04
  7.12301577E-07  1.67000628E-06 -1.55089675E-02  1.30708033E-02 -4.80285264E-03
 -9.20430171E-06 -1.07984094E-01  9.10257282E-02 -3.34357185E-02 -4.02473554E-04
 -5.75931863E-03  5.02108546E-03 -1.85019794E-03 -6.55778641E-04  2.82361204E-01
 -2.37745699E-01  8.72179177E-02 -2.39768566E-03 -3.06527976E-03  4.93718649E-03
  7.73485424E-03 -7.34858031E-05  3.70701956E-02  4.71395143E-02 -7.66321830E-02
 -1.21414070E-01  7.94196595E-04  9.42338692E-07  1.69453313E-06 -9.46489452E-02
  7.97494896E-02 -2.92816236E-02 -8.49830270E-06 -2.99627645E-01  2.52459935E-01
 -9.26993774E-02 -1.70309426E-05  7.35294821E-01 -6.19524028E-01  2.27511241E-01
 -1.65290589E-04 -4.84652795E-01  4.08331613E-01 -1.49870765E-01  1.64681008E-03
  3.00841664E-03 -2.31704254E-03  5.30922874E-04  1.05619225E-03  1.15841757E-02
  2.42950461E-02 -1.25871797E-02  2.39913414E-02  1.09189968E-02  4.09568565E-07
  7.11901850E-07 -9.49199038E-02  7.99748311E-02 -2.93556983E-02 -3.14618576E-06
 -3.00490618E-01  2.53182094E-01 -9.29298607E-02 -9.04959732E-06  7.37585987E-01
 -6.21476828E-01  2.28091150E-01 -5.73734592E-05 -4.86128738E-01  4.09568189E-01
 -1.50322154E-01 -6.58021344E-04 -1.74909769E-03  2.77927924E-04 -3.74736544E-03
 -1.03070247E-03 -1.25894386E-02 -2.56099209E-02  1.46308524E-02 -2.09083089E-02
 -1.09738123E-02 -5.52879743E-07 -1.03552765E-06 -9.47287445E-02  7.98188635E-02
 -2.93068044E-02  6.11816150E-06 -2.99850002E-01  2.52654205E-01 -9.27669057E-02
  6.67674952E-06  7.35810091E-01 -6.19978262E-01  2.27653817E-01  1.09507569E-04
 -4.85184183E-01  4.08792055E-01 -1.50049101E-01 -1.64738625E-03 -3.00905232E-03
  2.31898269E-03 -5.26793431E-04 -1.05597412E-03 -1.15964493E-02 -2.43168926E-02
  1.26088700E-02 -2.39725105E-02 -1.09229352E-02 -4.99364943E-08 -1.12514672E-07
 -9.49453000E-02  7.99965638E-02 -2.93653620E-02  1.21526113E-06 -3.00600610E-01
  2.53272307E-01 -9.29699093E-02 -1.45358416E-06  7.37897546E-01 -6.21716320E-01
  2.28205650E-01  7.91628259E-06 -4.86252999E-01  4.09683921E-01 -1.50371038E-01
  6.60213101E-04  1.75328954E-03 -2.81076421E-04  3.74754844E-03  1.03217768E-03
  1.25994010E-02  2.56265559E-02 -1.46481275E-02  2.09012676E-02  1.09803153E-02
 -2.41703468E-02 -5.40343759E-02  8.77956493E-02  7.26817868E-02 -8.58297721E-02
 -4.58087842E-02  6.79151079E-01  5.62360017E-01 -6.63638756E-01  1.84170793E+01
  4.10596850E+00  3.40885184E+00 -3.98763546E+00  1.25029979E+01  2.03855678E+00
  1.68780877E+00 -1.99271948E+00  2.87444415E-03  5.08214994E-03  8.05266206E-03
 -2.23440433E-03 -1.68377884E-04  4.29804301E-01 -1.24205856E+00 -6.01063625E-01
  3.92445826E-02  1.52914821E+00  2.41836263E-02  5.40711533E-02  8.77448034E-02
  7.26132506E-02 -8.58639150E-02  4.50966150E-02  6.78913351E-01  5.61710904E-01
 -6.64653490E-01 -1.84160435E+01  4.09194718E+00  3.37695281E+00 -4.02974521E+00
 -1.25029121E+01  2.03776497E+00  1.68607560E+00 -1.99476049E+00 -2.57314819E-03
 -5.20238305E-03 -8.06805433E-03  2.28984289E-03 -2.29279009E-05 -4.27271159E-01
  1.24072401E+00  6.00641240E-01 -3.87561784E-02 -1.53042344E+00  1.51348604E-02
  2.73588640E-02 -2.89220508E-02 -3.36911878E-02  1.74976833E-03 -1.36538848E-01
 -9.29838649E-02 -1.22496154E-01 -3.30059601E-02 -5.80460505E-01  2.87543582E-01
  5.90461331E-01  6.78663630E-01 -1.83028575E+00 -7.29391037E-01 -6.25115134E-01
  6.55215412E-01  5.04897798E-04  4.51667693E-03  7.31676511E-03 -2.68801605E-03
  3.75509510E-03 -2.71898571E-02 -1.65655894E-04  1.43954539E-02 -1.68977492E-02
  8.29622106E-02  1.50462818E-02  2.72176778E-02 -1.61987812E-02 -3.15204900E-03
  4.38225878E-02 -1.36350352E-01 -3.24356548E-02  2.00530506E-02  1.59600607E-01
 -5.71270498E-01 -1.93633074E-01 -5.14431778E-01 -7.75480101E-01 -1.78960381E+00
 -6.96563719E-01 -5.48044088E-01  7.59134604E-01  6.10912333E-03  2.34004503E-03
  7.10029411E-03 -1.70791079E-03  2.47351921E-04  7.84399700E-02 -4.16686391E-02
  1.03692569E-02  1.36527765E-03  1.84573192E-02 -1.50499016E-02 -2.72238257E-02
 -3.04578847E-02 -3.54578340E-02  1.87560575E-03  1.36374869E-01 -9.76148232E-02
 -1.27667784E-01 -3.21943426E-02  5.71857475E-01  2.98723761E-01  6.01336054E-01
  6.72200861E-01  1.79065424E+00 -7.36038735E-01 -6.37484771E-01  6.42965948E-01
 -4.79144041E-04 -4.55092716E-03 -7.33759120E-03  2.69576513E-03 -3.74560050E-03
  2.72501609E-02  7.54695779E-05 -1.49046587E-02  1.71944480E-02 -8.40544700E-02
 -1.51241251E-02 -2.73391599E-02 -1.53836379E-02 -2.97721320E-03  4.16395256E-02
  1.36436851E-01 -2.97274177E-02  2.09344086E-02  1.53182091E-01  5.80068381E-01
 -2.02348268E-01 -5.19820264E-01 -7.61936621E-01  1.82840403E+00 -6.99242092E-01
 -5.57107123E-01  7.43078123E-01 -6.08913614E-03 -2.31514182E-03 -7.07097897E-03
  1.70484506E-03 -2.85002259E-04 -7.73202420E-02  4.13224323E-02 -9.86844545E-03
 -1.47227728E-03 -1.80720818E-02 -1.24232306E-06 -2.62623468E-06 -3.49053297E-02
  2.94110578E-02 -1.08017119E-02  2.55635930E-05 -8.44228547E-02  7.11792523E-02
 -2.61008757E-02  5.47954901E-05 -1.00723863E-01  8.53123294E-02 -3.08422904E-02
  3.67192880E-04  1.01283440E+00 -8.53115972E-01  3.13322103E-01  9.13599684E-04
  1.16443465E-03 -1.87181747E-03 -2.92313392E-03  2.68088014E-05  1.22392533E-03
  1.43866076E-03 -2.30254509E-03 -3.35699255E-03  4.12200289E-05  6.64615478E-07
  2.19566964E-06  3.49009124E-02 -2.94003338E-02  1.07947634E-02 -1.93586129E-05
  8.43951546E-02 -7.11446901E-02  2.60843923E-02 -1.82392051E-04  1.00692376E-01
 -8.52491479E-02  3.08049879E-02 -3.86509474E-04 -1.01258835E+00  8.53101579E-01
 -3.13395109E-01  8.95896952E-04  1.12992714E-03 -1.85175374E-03 -2.94407774E-03
  1.28098137E-05  1.12582990E-03  1.26599422E-03 -2.21604703E-03 -3.68080637E-03
 -1.05136392E-04  5.44623883E-07  7.23980748E-07 -9.69160891E-02  8.16749790E-02
 -2.99885047E-02  4.37345780E-06 -3.02696915E-01  2.55087688E-01 -9.36648189E-02
 -1.37897277E-04  7.46927109E-01 -6.29409129E-01  2.31214459E-01 -3.53922655E-04
 -5.81561664E-01  4.90062941E-01 -1.79858472E-01  1.22548873E-03  2.22793557E-03
 -1.73371029E-03  3.35163025E-04  7.74897615E-04  1.06387971E-02  2.13470304E-02
 -1.27046713E-02  1.57842792E-02  8.94158867E-03 -1.60362133E-06 -2.73795719E-06
 -9.70118790E-02  8.17213853E-02 -2.99900994E-02  8.60044142E-06 -3.03020227E-01
  2.55255601E-01 -9.36768939E-02  1.32140961E-04  7.47867640E-01 -6.29859360E-01
  2.31215858E-01  3.29755335E-04 -5.82021310E-01  4.90386139E-01 -1.79933389E-01
 -4.64105119E-04 -1.25889048E-03  1.68189117E-04 -2.79580226E-03 -7.54653798E-04
 -9.07326967E-03 -1.93651243E-02  9.49747091E-03 -2.08410869E-02 -8.90528941E-03
  4.92148949E-07  7.29924946E-07  9.69222015E-02 -8.16839131E-02  2.99903291E-02
  1.75716701E-06  3.02748948E-01 -2.55146043E-01  9.36784677E-02 -1.17973068E-04
 -7.47178500E-01  6.29676243E-01 -2.31269885E-01 -2.73510180E-04  5.81690994E-01
 -4.90205785E-01  1.79916156E-01  1.22709360E-03  2.22999559E-03 -1.73786822E-03
  3.29295987E-04  7.74898256E-04  1.06849712E-02  2.14074674E-02 -1.27995476E-02
  1.56516446E-02  8.94178776E-03 -1.64157895E-06 -2.70625613E-06  9.68961896E-02
 -8.16241895E-02  2.99579577E-02  5.87288059E-06  3.02625033E-01 -2.54920893E-01
  9.35683923E-02  1.52331406E-04 -7.46786045E-01  6.28924957E-01 -2.30931718E-01
  4.07641214E-04  5.81381955E-01 -4.89870780E-01  1.79765006E-01 -4.65853602E-04
 -1.26054507E-03  1.71850192E-04 -2.78624326E-03 -7.54038890E-04 -9.09733093E-03
 -1.93767264E-02  9.55285056E-03 -2.06854150E-02 -8.89187759E-03  2.87375714E-04
  6.88475515E-04 -4.38604318E-03 -8.35898158E-03 -8.56008847E-03 -4.26002309E-03
  5.99520146E-02  1.43726891E-01  1.97733604E-01 -1.19548573E-01  8.74650509E-01
  2.02163704E+00  2.67897904E+00 -9.47935956E-02  2.58980134E-01  6.09812912E-01
  8.22928336E-01  2.54366777E-02 -1.01037479E-02 -1.21957182E-03  4.51127593E-03
 -1.58234044E-02  5.17407702E-01 -1.93030928E-01 -1.37214763E-02  8.95266577E-02
 -3.31923354E-01 -2.80171588E-04 -6.70318483E-04  2.16111399E-03  6.51985566E-03
  1.07434383E-02  3.98312598E-03 -7.07848934E-02 -1.52649570E-01 -1.87017130E-01
  1.20426214E-01 -9.30607369E-01 -2.06860052E+00 -2.62600150E+00  9.48584365E-02
 -2.90114884E-01 -6.35508584E-01 -7.92270453E-01  2.55055903E-02 -9.94082100E-03
 -9.73508874E-04  4.44020912E-03 -1.58225863E-02  5.19575815E-01 -2.15421452E-01
 -3.13149887E-02  9.27468483E-02 -3.11926115E-01  6.97998946E-03  1.12519035E-02
  8.54882162E-02  8.52090705E-02 -4.41934523E-02 -1.44116923E-02  2.56567911E-01
  2.45140339E-01 -1.61468627E-01 -8.50254010E-01 -6.65976051E-01 -4.27399786E-01
  9.88183749E-01 -2.35741072E+00  3.49076027E-01  5.18767630E-01  2.85077474E-01
  6.88601245E-03 -1.76321130E-03  2.02564679E-03  1.30862364E-04 -1.33653720E-03
  8.60607305E-03 -2.66131468E-03 -2.10701144E-02  1.44991697E-02 -5.93798787E-02
 -7.15610034E-03 -1.15684477E-02 -6.52404958E-02 -3.98663085E-02  1.02396598E-01
  1.60412619E-02 -2.10784184E-01 -1.43002271E-01  2.92147696E-01  8.52704624E-01
  8.38755651E-01  8.23950425E-01 -4.67839040E-01  2.38232108E+00 -1.81523630E-02
  2.13262987E-01  6.39967158E-01  3.59822668E-03 -2.47032158E-03 -2.63261464E-03
  1.76749494E-03 -5.23797198E-03  5.38627552E-02 -2.21532727E-02  1.77261975E-02
 -3.20666277E-03  1.96494641E-02  7.17020597E-03  1.15958622E-02 -8.50684793E-02
 -8.45794146E-02  4.45354218E-02 -1.62251248E-02 -2.55089028E-01 -2.42724413E-01
  1.63217640E-01 -8.52997398E-01  6.59666477E-01  4.16487136E-01 -9.97340722E-01
 -2.38453507E+00 -3.36489039E-01 -5.07269761E-01 -2.94381460E-01  6.88418428E-03
 -1.65789932E-03  2.17735715E-03  7.58909470E-05 -1.27390576E-03  8.41055319E-03
 -2.44837067E-03 -2.05269403E-02  1.41835520E-02 -5.83315773E-02 -6.99079581E-03
 -1.12729086E-02  6.53688419E-02  3.96241235E-02 -1.03455720E-01  1.45593937E-02
  2.10913961E-01  1.41697229E-01 -2.96073754E-01  8.50056158E-01 -8.37943417E-01
 -8.17136621E-01  4.83614692E-01  2.35915011E+00  2.88348559E-02 -2.06415389E-01
 -6.55909455E-01  3.71912475E-03 -2.41109911E-03 -2.48302017E-03  1.73277840E-03
 -5.24989902E-03  5.50204522E-02 -2.23555020E-02  1.83904766E-02 -3.34629800E-03
  1.99396115E-02  8.33989803E-06 -9.98564888E-06 -1.85061112E-02 -4.17906903E-02
 -5.39976335E-02  4.20890075E-04  9.52637007E-03  2.22098369E-02  2.97193645E-02
 -3.68326418E-03  2.74918382E-01  6.19981616E-01  7.99935933E-01  1.06933399E-03
 -1.65022483E-02 -3.05206400E-02 -2.98469948E-02 -6.22851901E-03  2.49787383E-03
  3.74734069E-04 -1.14207733E-03  3.99720506E-03 -4.17349331E-02  1.77674320E-02
  3.78284615E-03 -8.06401444E-03  2.68309983E-02 -1.40329644E-05 -6.10171842E-05
 -1.84185621E-02 -4.17347084E-02 -5.41283793E-02  8.29282858E-04  1.03707059E-02
  2.30026483E-02  2.91471631E-02 -1.50369947E-03  2.70293866E-01  6.15699764E-01
  8.03209895E-01  6.22566931E-04 -6.49792491E-03 -2.17179472E-02 -3.82042057E-02
  6.37334308E-03 -2.45903758E-03 -1.70649334E-04  1.07355669E-03 -3.84125228E-03
  4.23015831E-02 -1.57472978E-02 -2.78131506E-04  6.82084736E-03 -2.50918271E-02
  9.20026008E-03  1.74487815E-02  8.04527101E-02  7.91718285E-02 -4.44193335E-02
 -1.10122031E-01  2.64395582E-01  2.60866590E-01 -1.44122796E-01  1.10859905E-01
 -6.79440062E-01 -6.43982255E-01  4.42241608E-01 -1.42667227E+00  3.39636256E-01
  5.42374559E-01  3.79457321E-01  1.74245843E-03 -2.62409783E-03 -1.74975286E-03
  6.22889495E-04  6.04901906E-04 -1.92221789E-02 -5.40895946E-02 -6.98340947E-02
  1.73885148E-02  2.20534468E-02 -9.09726163E-03 -1.72606279E-02 -6.22398607E-02
 -3.90595247E-02  9.48351626E-02  1.09080051E-01 -2.03236374E-01 -1.26615369E-01
  3.12194913E-01 -1.11559500E-01  5.56908129E-01  3.80282066E-01 -7.64676303E-01
  1.42870706E+00  3.12904019E-02  2.87312770E-01  6.81510180E-01  1.47813546E-03
  1.30142725E-03  1.55655164E-03 -4.37846284E-05 -2.57408807E-03  1.19793021E-02
  5.64544942E-02  6.97667261E-02 -1.86058505E-02 -1.70433879E-02 -9.10049984E-03
 -1.72673128E-02  7.94453764E-02  7.81670793E-02 -4.38991424E-02  1.09122186E-01
  2.60755071E-01  2.57309492E-01 -1.42048243E-01 -1.11038587E-01 -6.68440238E-01
 -6.33529051E-01  4.35183082E-01  1.42756651E+00  3.31664775E-01  5.35393148E-01
  3.86127338E-01 -1.69041290E-03  2.54833686E-03  1.69345557E-03 -6.00854846E-04
 -6.05247120E-04  1.95734649E-02  5.34642538E-02  6.94302109E-02 -1.72651141E-02
 -2.17870823E-02  9.20557893E-03  1.74578826E-02 -6.29423315E-02 -3.95897071E-02
  9.56592772E-02 -1.10145629E-01 -2.05889959E-01 -1.28629433E-01  3.15285856E-01
  1.10299360E-01  5.65991959E-01  3.87745429E-01 -7.73725719E-01 -1.42664462E+00
  2.37414218E-02  2.80247488E-01  6.86737216E-01 -1.54223807E-03 -1.31963451E-03
 -1.59224325E-03  4.01924588E-05  2.64899239E-03 -1.20826624E-02 -5.68491949E-02
 -7.00493517E-02  1.86022360E-02  1.76985371E-02  2.94458270E-04  9.75736107E-03
  4.49563552E-04  1.42942746E-04 -1.06164786E-03 -2.04519524E-01  5.88998140E-02
  4.92009655E-02 -5.63927485E-02 -9.51007817E-02 -2.76179016E-02 -2.05835398E-02
  3.32099835E-02 -2.29576041E-01  7.98236074E-01  6.60757295E-01 -7.80879405E-01
 -1.31982097E-02  2.05809267E-03 -1.45098481E-02  5.79331864E-03 -2.00340242E-02
 -1.01577205E-01 -1.50009668E-01 -2.62776602E-01  7.64911127E-02 -2.93792870E-02
  2.90417360E-04  9.74522123E-03 -8.36119003E-04 -9.37720985E-04  1.39475509E-04
 -2.04539465E-01 -5.79448914E-02 -4.73476576E-02  5.83300998E-02 -9.47907655E-02
  3.22088530E-02  2.91643368E-02 -2.46567875E-02 -2.36383441E-01 -7.96498541E-01
 -6.58776388E-01  7.80658086E-01 -1.33253341E-02  2.11425348E-03 -1.44944076E-02
  5.76897986E-03 -1.99525541E-02 -1.01780521E-01 -1.49812790E-01 -2.62550293E-01
  7.63747755E-02 -2.90819721E-02 -9.67265620E-03 -1.78355660E-02 -7.31433067E-02
 -6.81671445E-02  5.07849662E-02  1.03038883E-01 -2.55361017E-01 -2.32286246E-01
  1.92833685E-01  1.40025139E-02  7.58807508E-01  6.54487807E-01 -6.70394478E-01
  1.95073485E-01 -5.23563823E-01 -4.40611837E-01  4.92456517E-01 -5.02084920E-03
  4.98314040E-03  2.85519479E-03 -1.39836692E-03  6.01378593E-04 -2.11620119E-02
  4.32018122E-02  2.37131018E-02 -4.91469664E-03 -3.55731935E-02 -9.80109391E-03
 -1.80782495E-02 -6.35070983E-02 -4.49141291E-02  8.29834339E-02  1.04544340E-01
 -2.29383380E-01 -1.68869691E-01  2.81627520E-01  1.21573355E-02  7.30713803E-01
  5.78679668E-01 -7.86157290E-01  2.13875456E-01 -5.13946007E-01 -4.15823408E-01
  5.28942981E-01  4.83320607E-03  1.12236196E-03  2.43759887E-03  3.34934678E-04
 -5.55225826E-03  1.56807415E-03  3.52182647E-02  2.35905003E-02 -1.09152250E-03
 -5.04415290E-02 -9.79946395E-03 -1.80754843E-02  7.40926496E-02  6.89604920E-02
 -5.16933525E-02  1.04541505E-01  2.58433055E-01  2.34846757E-01 -1.95783109E-01
  1.17788950E-02 -7.66855167E-01 -6.60852250E-01  6.79015970E-01  2.13084744E-01
  5.26968517E-01  4.45477667E-01 -4.90204157E-01 -5.07382574E-03  5.02467183E-03
  2.86873546E-03 -1.40736894E-03  6.01126401E-04 -2.10604722E-02  4.41313128E-02
  2.45594553E-02 -5.06775095E-03 -3.64240545E-02 -9.65814776E-03 -1.78103090E-02
  6.24864735E-02  4.40490221E-02 -8.20410202E-02  1.02933210E-01  2.26062962E-01
  1.66025829E-01 -2.78633617E-01  1.39292175E-02 -7.21333555E-01 -5.70133343E-01
  7.79057534E-01  1.93261523E-01  5.13253952E-01  4.17423570E-01 -5.22342612E-01
  4.79354165E-03  1.11892949E-03  2.43228656E-03  3.24921117E-04 -5.48732080E-03
  1.72750766E-03  3.42067374E-02  2.27581054E-02 -9.09069147E-04 -4.97341346E-02
  3.25567844E-05  6.78917563E-05 -3.22384741E-02 -7.30593336E-02 -9.47787030E-02
 -1.05365531E-03  5.02112883E-02  1.14407908E-01  1.49295744E-01  3.58422071E-04
 -1.29279047E-01 -2.92102063E-01 -3.77682912E-01  7.32792133E-03  1.23023518E-01
  2.79439093E-01  3.63430935E-01  2.09241824E-02 -8.17916976E-03 -8.12521520E-04
  3.64173749E-03 -1.29346622E-02 -3.20561488E-01  1.25676878E-01  1.35647407E-02
 -5.63414434E-02  1.99901526E-01  5.49672597E-06  2.14119969E-05 -3.23093250E-02
 -7.31477199E-02 -9.47898013E-02 -8.09527309E-04  5.10146572E-02  1.15148124E-01
  1.48712284E-01  7.98823702E-04 -1.29991588E-01 -2.91584332E-01 -3.73973107E-01
 -6.16630376E-03  1.26247111E-01  2.82451925E-01  3.61208545E-01 -2.08805474E-02
  8.26617991E-03  9.63191859E-04 -3.68950670E-03  1.29866734E-02  3.21080952E-01
 -1.27107156E-01 -1.44121248E-02  5.64906426E-02 -1.98600804E-01  3.97633681E-03
  7.54964966E-03 -1.63508185E-02 -6.00089708E-02 -1.10585225E-01 -5.40246314E-02
 -4.30595653E-02 -1.82805181E-01 -3.58694849E-01  4.44692794E-01  8.21967367E-02
  3.72231405E-01  7.48089026E-01 -3.30571294E-02 -1.26767562E-01 -3.90987012E-01
 -6.55108322E-01  5.08536883E-03 -1.91714729E-03  9.54922137E-04  2.02888924E-04
 -4.74347128E-04  2.71234028E-02 -2.86290837E-02  1.39363135E-02 -1.11158044E-02
  7.54271595E-02 -3.90511519E-03 -7.41675933E-03 -4.80681206E-02 -8.62675374E-02
 -7.95935818E-02  5.32299804E-02 -1.60786453E-01 -2.80222705E-01 -2.43519608E-01
 -4.44207964E-01  3.37900927E-01  5.83471787E-01  4.96998571E-01  2.90522710E-02
 -2.69991285E-01 -5.09701520E-01 -5.15565290E-01  2.69368718E-03 -1.14079407E-03
 -1.27914101E-03  1.15828888E-03 -4.33952109E-03 -4.09738837E-02  3.37613842E-02
 -1.35379984E-02  8.68807949E-03 -6.63720911E-02 -3.92501432E-03 -7.45180582E-03
 -1.66047725E-02 -6.02562725E-02 -1.10446372E-01  5.33797734E-02 -4.39096443E-02
 -1.83596002E-01 -3.58130046E-01 -4.43941263E-01  8.46082166E-02  3.74298141E-01
  7.46018414E-01  3.40954509E-02 -1.28318561E-01 -3.92128150E-01 -6.53264236E-01
 -5.06771960E-03  1.91422248E-03 -9.46902420E-04 -2.03793506E-04  4.73785819E-04
 -2.70327227E-02  2.83527187E-02 -1.40482526E-02  1.11060641E-02 -7.50314612E-02
  3.97596017E-03  7.54907358E-03 -4.83351901E-02 -8.64604343E-02 -7.92460145E-02
 -5.40226430E-02 -1.61761628E-01 -2.80975962E-01 -2.42386268E-01  4.44694531E-01
  3.41266624E-01  5.86368909E-01  4.93906549E-01 -3.24362144E-02 -2.71538964E-01
 -5.10782846E-01 -5.13435337E-01 -2.70733087E-03  1.14755277E-03  1.28836840E-03
 -1.16540309E-03  4.36562368E-03  4.10769998E-02 -3.41240170E-02  1.33190471E-02
 -8.65268940E-03  6.67237557E-02 -9.91404283E-03 -9.57516138E-03  6.39665078E-03
  5.36856423E-03 -6.02775170E-03 -3.42317035E-01  4.38148687E-01  3.62126904E-01
 -4.30004349E-01  1.22900376E+01  5.82710819E+00  4.81874347E+00 -5.71155778E+00
 -1.09780986E+01 -1.63578710E+00 -1.35597616E+00  1.59456675E+00 -7.84141816E-03
 -8.53025409E-03 -1.73809029E-02  5.24536052E-03 -4.25722588E-03  3.58049598E-01
 -5.52912288E-01 -6.12634172E-02 -6.02488994E-02  9.12471864E-01  9.92140476E-03
  9.58309027E-03  6.24276738E-03  5.06132807E-03 -6.42364481E-03  3.42373819E-01
  4.38908888E-01  3.63815840E-01 -4.27890923E-01 -1.22887340E+01  5.83299839E+00
  4.83176262E+00 -5.69504531E+00  1.09783993E+01 -1.63286282E+00 -1.34937728E+00
  1.60292370E+00  7.67097710E-03  8.60670860E-03  1.74055370E-02 -5.27900034E-03
  4.37037679E-03 -3.56398105E-01  5.52221248E-01  6.11538134E-02  6.06292408E-02
 -9.13634411E-01  3.92960225E-03  8.05403610E-03  4.67828104E-02  7.54612256E-02
  5.42986827E-02 -6.09655959E-02  1.72599547E-01  2.76574633E-01  1.95336052E-01
 -2.92143745E-01 -6.42191244E-01 -8.89037655E-01 -3.45389525E-01  2.43485944E+00
  1.53316958E-01 -2.76225334E-02 -5.71031530E-01 -3.47817723E-03 -2.68945287E-03
 -5.16803011E-03  1.16518631E-03  1.15987611E-03 -2.66889902E-02 -1.91205885E-02
 -3.11439850E-02  4.26308729E-03  2.56208826E-02  4.05221263E-03  8.28007965E-03
 -3.92911048E-03 -3.99579188E-02 -9.61462330E-02 -6.22719313E-02 -1.19035853E-02
 -1.43392965E-01 -3.52132825E-01 -2.90843837E-01 -1.50118808E-01  2.32482041E-01
  1.11869677E+00  2.41796423E+00  3.69207643E-01  4.59295455E-01  5.72354868E-02
 -4.55310344E-05 -4.05049268E-03 -5.31325768E-03  1.76279227E-03 -9.37646411E-04
  1.54470172E-02 -3.60857084E-02 -3.32491321E-02  1.17010591E-02 -1.43225357E-04
 -4.04787391E-03 -8.27312201E-03  4.70732730E-02  7.56402408E-02  5.38539177E-02
  6.22621346E-02  1.73682944E-01  2.77224966E-01  1.93642639E-01  2.90870541E-01
 -6.46011177E-01 -8.91407005E-01 -3.39727122E-01 -2.41963338E+00  1.55330252E-01
 -2.53917944E-02 -5.71158231E-01  3.44725678E-03  2.71468420E-03  5.17103116E-03
 -1.16726402E-03 -1.17298384E-03  2.67817295E-02  1.94233412E-02  3.13885211E-02
 -4.28477857E-03 -2.60426379E-02 -3.93243928E-03 -8.05916306E-03 -4.33507499E-03
 -4.03622755E-02 -9.59280955E-02  6.09876729E-02 -1.34241655E-02 -1.44932389E-01
 -3.51371351E-01  2.92514559E-01 -1.45021049E-01  2.37649621E-01  1.11605967E+00
 -2.43495288E+00  3.68099182E-01  4.59103467E-01  6.05898025E-02  3.29696739E-05
  4.04650285E-03  5.31776358E-03 -1.77116235E-03  9.81094264E-04 -1.51764269E-02
  3.56318751E-02  3.30017958E-02 -1.16463725E-02  4.37908639E-04  3.47590428E-02
  8.46971591E-02 -1.53400603E-01 -1.26173857E-01  1.52227356E-01 -1.15930371E+00
 -3.10112852E-01 -2.59026649E-01  2.96924441E-01 -6.14135986E-01 -2.78929108E+00
 -2.31668070E+00  2.70679217E+00  4.48725160E+00  6.03045258E-01  4.84076990E-01
 -6.30774182E-01  7.05652897E-03 -6.21389106E-03  3.77419237E-03 -2.52630529E-03
  1.62445633E-02  4.86568088E-01  5.81218135E-01  1.10198390E+00 -3.20634471E-01
  1.65092114E-01 -3.47397972E-02 -8.46513729E-02 -1.54556401E-01 -1.28689633E-01
  1.49087687E-01  1.15879454E+00 -3.06679868E-01 -2.51330254E-01  3.06829771E-01
  6.12749209E-01 -2.77837298E+00 -2.29106606E+00  2.74082732E+00 -4.48718217E+00
  6.23930382E-01  5.31352153E-01 -5.69729748E-01 -8.50638938E-03  6.78810148E-03
 -3.70075115E-03  2.27023527E-03 -1.53363701E-02 -4.22525952E-01 -6.06860998E-01
 -1.10531111E+00  3.32038879E-01 -2.04881776E-01  1.83512671E-02  3.41314733E-02
 -5.80570615E-02 -4.38502750E-02  6.82371338E-02 -1.92542490E-01 -1.42391753E-01
 -9.99605882E-02  1.88015980E-01 -7.06695209E-01  9.30972392E-02  1.88405898E-01
  2.12311268E-01 -2.02633086E+00 -7.75777893E-02  1.84515236E-01  7.53320301E-01
  2.45411450E-03 -6.12163127E-03 -5.47962233E-03  1.83843178E-03  6.63433797E-04
 -5.56952340E-02 -4.58484276E-02 -7.75172924E-02  1.44093005E-02  4.01191533E-02
  1.94161283E-02  3.62007775E-02 -6.19879892E-02 -5.39474243E-02  5.34443257E-02
 -2.07948510E-01 -1.58676221E-01 -1.43814206E-01  1.21219027E-01 -6.39041950E-01
 -7.57747268E-02 -1.76590498E-01 -2.35952971E-01 -2.09778480E+00 -4.15583092E-01
 -5.90346106E-01 -2.64513124E-01 -4.05014633E-03 -3.81400495E-03 -5.44888081E-03
  7.56409292E-04  4.84273069E-03  1.90547863E-02 -7.84796307E-02 -8.21748488E-02
  2.72450447E-02 -1.60812895E-04 -1.93887133E-02 -3.61467735E-02 -5.83536814E-02
 -4.56405051E-02  6.43193329E-02  2.07525839E-01 -1.41470126E-01 -1.04542390E-01
  1.72570438E-01  6.41314179E-01  8.27284637E-02  1.82418744E-01  2.29366483E-01
  2.09823841E+00 -7.29976547E-02  1.86148021E-01  7.42982275E-01 -2.54288708E-03
  6.41099416E-03  5.73600834E-03 -1.91639615E-03 -7.45886967E-04  5.52121298E-02
  4.91053325E-02  7.88594286E-02 -1.41968501E-02 -4.57726886E-02 -1.83651262E-02
 -3.41585464E-02 -6.38922962E-02 -5.70718013E-02  5.10900058E-02  1.92750924E-01
 -1.67198436E-01 -1.56230232E-01  1.14962933E-01  7.05998979E-01 -6.19118054E-02
 -1.62627539E-01 -2.42878936E-01  2.02638857E+00 -4.23168699E-01 -5.98907605E-01
 -2.63286985E-01  3.92140315E-03  3.61454502E-03  5.20631969E-03 -7.19110389E-04
 -4.62438474E-03 -1.62611717E-02  7.42855673E-02  8.07082141E-02 -2.70810803E-02
  4.47425768E-03 -6.81031904E-04 -1.70860740E-03  2.39420990E-02  4.93743740E-02
  5.70858697E-02  2.59561541E-02 -6.34891690E-02 -1.49851646E-01 -2.02913316E-01
 -4.38697228E-02 -1.99449639E-01 -5.13059013E-01 -7.52663351E-01 -9.72879168E-02
 -4.28145619E-01 -9.49921470E-01 -1.20325162E+00 -2.66142988E-02  1.05294320E-02
  1.00881700E-03 -4.57081521E-03  1.60096283E-02  1.63536339E+00 -6.57473164E-01
 -9.38564528E-02  2.96590804E-01 -1.03210124E+00  6.77718394E-04  1.69260399E-03
 -1.71571627E-02 -4.37426145E-02 -6.36778930E-02 -2.57317879E-02  7.18084762E-02
  1.56678931E-01  1.94617434E-01  4.44624274E-02  2.84433200E-01  5.83306743E-01
  6.69285537E-01  9.76522644E-02  4.00282788E-01  9.26793765E-01  1.23032322E+00
 -2.61833194E-02  1.02544561E-02  1.28263952E-03 -4.71333736E-03  1.68009829E-02
  1.65820896E+00 -6.39539227E-01 -4.91435768E-02  2.82417961E-01 -1.01373111E+00
 -2.37884871E-02 -4.65006636E-02  1.53515304E-02  4.59274073E-02  7.54688020E-02
  3.54029986E-01  1.84543810E-03  1.15050458E-01  3.07400792E-01 -1.61285875E+00
  1.72423403E-01  1.29374247E-01 -2.04940627E-01  1.55977263E+00 -7.72674436E-02
 -3.97146320E-02  1.41531800E-01 -9.17004285E-04  6.66196651E-03  6.60963376E-03
 -1.88284652E-03 -2.09585571E-03 -5.12234050E-03  7.73100742E-02  3.68981072E-02
  4.24098410E-03 -1.33392885E-01  2.28547208E-02  4.47570127E-02  3.39323879E-02
  6.16027043E-02  5.80930932E-02 -3.43973691E-01  1.64067089E-01  2.50473284E-01
  1.51838627E-01  1.64658400E+00 -1.87139425E-01 -1.63871936E-01  1.58567347E-01
 -1.47437111E+00  1.30206661E-01  1.42401763E-01 -3.30007449E-02 -2.52369915E-03
 -5.05675470E-03 -6.20058464E-03  1.21044038E-03  4.12533259E-03  6.33387844E-02
 -9.68320253E-02 -3.54930320E-02  4.82817017E-03  9.67981089E-02 -2.28299227E-02
 -4.47068602E-02 -1.27435245E-02 -4.40553610E-02 -7.87916182E-02  3.43548594E-01
  4.37220701E-03 -1.11025852E-01 -3.16504451E-01 -1.64597899E+00 -1.74393262E-01
 -1.35477327E-01  1.94696737E-01  1.47303472E+00  8.19128694E-02  3.31189218E-02
 -1.74560854E-01 -8.03553225E-04  6.37011480E-03  6.34726386E-03 -1.79590452E-03
 -2.06115866E-03 -7.67792994E-03  7.48394433E-02  3.30396598E-02  4.92971598E-03
 -1.31175103E-01  2.37923060E-02  4.65083285E-02 -3.08475621E-02 -5.87493641E-02
 -6.03012982E-02 -3.54093566E-01 -1.56033198E-01 -2.42656512E-01 -1.56548267E-01
  1.61285286E+00  1.91035661E-01  1.71416860E-01 -1.50623538E-01 -1.55975920E+00
 -1.11075257E-01 -1.16134980E-01  4.27449515E-02 -2.71390792E-03 -5.23230138E-03
 -6.45246671E-03  1.24517120E-03  4.35044913E-03  6.41180214E-02 -1.00529874E-01
 -3.94320699E-02  6.14092278E-03  9.67509542E-02  3.26274238E-06  1.69165363E-05
 -8.93759459E-03 -2.02302531E-02 -2.62087863E-02 -2.67976052E-04  8.47037052E-02
  1.91809524E-01  2.48616496E-01 -6.73438889E-04  1.68098069E-01  3.76689923E-01
  4.82597808E-01  1.10377422E-04 -9.04130067E-02 -2.04391475E-01 -2.64429980E-01
  1.08946768E-02 -4.23623235E-03 -4.30056573E-04  1.90895690E-03 -6.81148100E-03
  2.30417359E-01 -9.07838225E-02 -9.98679537E-03  4.04801776E-02 -1.42921942E-01
  6.48601377E-06  2.62631515E-05 -8.86380463E-03 -2.01884542E-02 -2.63328926E-02
 -1.69180124E-04  8.45877866E-02  1.91771164E-01  2.48884951E-01 -7.88222284E-03
  1.64360293E-01  3.74621083E-01  4.89034664E-01  4.43693339E-04 -8.96609358E-02
 -2.03697068E-01 -2.64966402E-01 -1.09363336E-02  4.34871625E-03  4.90234096E-04
 -1.91669654E-03  6.71524691E-03 -2.30560238E-01  9.08851959E-02  9.99855401E-03
 -4.04915690E-02  1.42919523E-01 -5.62835397E-02 -1.13008358E-01  4.82264482E-03
  4.20498248E-03 -4.13686890E-03  9.10880789E-01  3.01588231E-02  2.81086264E-02
 -2.09315712E-02 -1.88019110E+00 -1.51578406E-01 -4.04098544E-02  3.79947806E-01
  8.86876897E-01  2.42216133E-02 -7.33838861E-03 -9.82893274E-02  6.81130503E-03
 -2.62149977E-03  1.16354318E-03  3.22962799E-04 -7.61333477E-04  1.13433676E-01
 -9.43308764E-02 -1.75141784E-02  9.43205855E-03  4.86610669E-02  5.63814626E-02
  1.13205151E-01 -4.54817461E-03 -3.56560401E-03  4.99203396E-03 -9.12466961E-01
 -2.58129579E-02 -1.83093238E-02  3.35747666E-02  1.88348737E+00  2.70169899E-01
  3.09065985E-01 -3.15722970E-02 -8.85657329E-01 -6.22528858E-02 -7.86013553E-02
 -1.28471370E-02  3.77801051E-03 -1.54278711E-03 -1.61768857E-03  1.53729146E-03
 -5.81836500E-03  4.28414780E-02  3.28161187E-02  1.07672641E-02  1.80261133E-02
 -1.45702182E-01  5.63939899E-02  1.13232671E-01  4.82905603E-03  4.20064214E-03
 -4.17015236E-03 -9.12762569E-01  3.00719578E-02  2.79593896E-02 -2.10607293E-02
  1.88503913E+00 -1.51461072E-01 -3.96925790E-02  3.81484086E-01 -8.83441259E-01
  2.42597586E-02 -6.78368922E-03 -9.69069869E-02 -6.82886902E-03  2.63025805E-03
 -1.16357968E-03 -3.25091070E-04  7.66199961E-04 -1.13667992E-01  9.43760637E-02
  1.75321879E-02 -9.49259994E-03 -4.83586547E-02 -5.62693021E-02 -1.12979818E-01
 -4.53316885E-03 -3.54286521E-03  5.00604862E-03  9.10655137E-01 -2.58041517E-02
 -1.82169802E-02  3.38007840E-02 -1.87978293E+00  2.69855520E-01  3.08382185E-01
 -3.23820576E-02  8.85309999E-01 -6.21486466E-02 -7.86549088E-02 -1.33218547E-02
 -3.76758139E-03  1.54339810E-03  1.62096313E-03 -1.53580793E-03  5.80753442E-03
 -4.26988146E-02 -3.28719013E-02 -1.08099309E-02 -1.79808118E-02  1.45524893E-01
  1.27466553E-03 -1.23331204E-03 -1.60999957E-02 -1.33217322E-02  1.57700644E-02
 -7.00971882E-02 -3.12925682E-02 -2.57753121E-02  3.09662259E-02  2.43662924E+00
 -9.61060209E-01 -7.94505801E-01  9.42808017E-01 -3.42531014E-01 -1.28169674E-01
 -1.06126009E-01  1.25209952E-01  3.47177959E-02  1.60104478E-02  5.76043777E-02
 -1.93190070E-02  3.63906423E-02  1.17709707E-01  5.35632486E-02  1.94159099E-01
 -6.50493722E-02  1.22661247E-01  1.27152875E-03 -1.23017896E-03  1.61184228E-02
  1.33176708E-02 -1.58096225E-02 -7.11252478E-02  3.15569978E-02  2.62439537E-02
 -3.05232129E-02  2.45129246E+00  9.61215322E-01  7.96138347E-01 -9.38715974E-01
 -3.76555759E-01  1.32957281E-01  1.09897135E-01 -1.30486242E-01  3.49212086E-02
  1.59705232E-02  5.77120042E-02 -1.93269132E-02  3.64062160E-02  1.18140170E-01
  5.36454815E-02  1.95259127E-01 -6.55464058E-02  1.24382163E-01 -4.72870714E-02
 -9.65364234E-02 -3.26429757E-03 -2.35924454E-03  4.12756569E-03  8.17225290E-01
 -2.38193214E-03 -1.96860873E-02 -4.59128573E-02 -1.92026028E+00 -1.30172834E-02
  1.84392563E-01  5.44302972E-01  5.70991977E-02  1.49210105E-01  1.80668800E-01
  9.80518248E-03  7.76082265E-03 -2.08043640E-03  3.39593214E-03 -5.70967600E-04
  1.56469366E-03  1.59900836E-01 -9.29427612E-02  6.56788008E-02 -2.75216098E-02
  1.73384367E-01 -4.72091924E-02 -9.63768144E-02 -3.70758698E-03 -3.40110485E-03
  2.72249782E-03  8.15846998E-01  2.23075061E-02  3.62036371E-02  2.65002539E-02
 -1.91641697E+00 -2.84132832E-01 -4.29949389E-01 -2.52561198E-01  5.75575607E-02
  6.98999219E-02  7.09024357E-04 -2.23981144E-01 -1.59862139E-03  1.59679141E-03
  3.78728766E-03 -2.21022365E-03  7.36557718E-03  5.65818236E-02 -5.20798177E-02
  7.01981827E-02 -4.56365588E-02  2.37065549E-01 -4.73155235E-02 -9.65978575E-02
  3.26493841E-03  2.33836001E-03 -4.18514513E-03  8.17834716E-01  2.39898540E-03
  1.96758736E-02  4.58351057E-02 -1.92283663E+00  1.35492928E-02 -1.84023655E-01
 -5.44998082E-01  5.85838147E-02 -1.49677848E-01 -1.81221117E-01 -9.71874747E-03
  7.77282449E-03 -2.09285251E-03  3.39002971E-03 -5.68142854E-04  1.56575003E-03
  1.60075489E-01 -9.28285655E-02  6.59008905E-02 -2.75713174E-02  1.73282380E-01
 -4.74161160E-02 -9.68009570E-02  3.78828207E-03  3.49111708E-03 -2.73660931E-03
  8.19511100E-01 -2.21933490E-02 -3.60732399E-02 -2.65083866E-02 -1.92642825E+00
  2.85257524E-01  4.31682861E-01  2.53662214E-01  6.00181622E-02 -7.00603824E-02
 -8.22005813E-04  2.24266723E-01 -1.59995510E-03  1.60296149E-03  3.80656960E-03
 -2.21997501E-03  7.39776845E-03  5.68328357E-02 -5.24209935E-02  7.02649240E-02
 -4.57372985E-02  2.37885297E-01  4.22615872E-08  1.16787598E-07 -5.70195416E-05
  6.56585564E-05 -2.25117697E-06 -4.47277419E-06  6.24946247E-06 -5.44241203E-05
 -3.80340483E-05  4.11751313E-05 -3.76891152E-04 -2.54487551E-05 -3.83538464E-04
 -8.56174274E-05 -2.72627203E-05  6.77470115E-05  6.14684058E-05 -2.69386313E-02
 -5.56152001E-02  3.03290066E-02 -5.00229476E-02 -2.43959854E-02  2.83175120E-02
  5.82593226E-02 -3.18392481E-02  5.22570857E-02  2.55090011E-02  1.93376587E-08
  2.63285808E-08  1.25654020E-05 -2.77468446E-05 -1.09357920E-05  1.59146885E-06
 -5.45558723E-05  8.76515816E-05  1.96192524E-05 -1.33752593E-05  1.17733407E-04
  2.40161618E-04  3.16563397E-04  7.95742260E-05  2.67335322E-05 -9.96051299E-05
 -2.42647113E-05 -2.72439046E-02 -5.61528178E-02  3.07597822E-02 -5.00689378E-02
 -2.45767581E-02  2.86612763E-02  5.89188030E-02 -3.22898652E-02  5.25858996E-02
  2.57572837E-02  7.55950955E-06  1.52122918E-05  5.67259212E-03 -4.76977159E-03
  1.75925653E-03 -1.24975259E-04 -5.84875131E-03  4.93960846E-03 -1.79378173E-03
  2.34660159E-04  9.27056758E-03 -7.79865056E-03  2.80151832E-03  1.38667159E-05
 -6.40533998E-02  5.39648079E-02 -1.98263305E-02  6.78314155E-04  1.75279651E-03
 -3.48912510E-04  3.52142028E-03  1.00473763E-03  8.29736161E-02  2.12106657E-01
 -4.50379524E-02  4.17577648E-01  1.20561622E-01 -8.87092085E-06 -1.78889774E-05
 -5.68220522E-03  4.79177771E-03 -1.74928993E-03  1.47807621E-04  5.85442937E-03
 -4.91451015E-03  1.82209747E-03 -2.92593909E-04 -9.28692126E-03  7.72642863E-03
 -2.87096205E-03 -3.54992548E-06  6.42317296E-02 -5.41340118E-02  1.98612976E-02
  1.56717279E-03  2.88752916E-03 -2.18170407E-03  6.48706077E-04  1.03159088E-03
  1.86498326E-01  3.44340795E-01 -2.58430282E-01  8.27442709E-02  1.23549126E-01
  7.69465666E-06  1.55266689E-05 -5.78405832E-03  4.86398915E-03 -1.79385401E-03
 -1.28397420E-04  5.78489664E-03 -4.88680017E-03  1.77360386E-03  2.50844451E-04
 -8.95212468E-03  7.53272811E-03 -2.69359178E-03  3.20907419E-05  6.44317756E-02
 -5.42874093E-02  1.99495838E-02  6.87390643E-04  1.77633311E-03 -3.53670370E-04
  3.56828724E-03  1.01783379E-03  8.41393131E-02  2.15001498E-01 -4.57508571E-02
  4.22929544E-01  1.22128239E-01 -7.72250166E-06 -1.55604394E-05  5.76073940E-03
 -4.85903701E-03  1.77404277E-03  1.28061365E-04 -5.81880979E-03  4.88300380E-03
 -1.81133333E-03 -2.42509203E-04  9.09776826E-03 -7.57681754E-03  2.81276113E-03
 -3.52811151E-05 -6.44409453E-02  5.43183535E-02 -1.99346262E-02  1.59246108E-03
  2.92941921E-03 -2.22140201E-03  6.32934793E-04  1.04351792E-03  1.89610933E-01
  3.49534539E-01 -2.63292234E-01  8.09691253E-02  1.25062124E-01 -1.51194289E-07
 -8.03023139E-07  1.14569030E-04  1.65628622E-04  2.51722354E-04  6.30190180E-05
 -1.90307045E-04 -4.63094387E-04 -6.03252667E-04 -6.05568042E-04 -1.15163703E-03
 -3.41610946E-03 -4.17187219E-03  1.75544367E-03  2.91904923E-04  9.47143975E-04
  4.04989139E-04 -1.41136428E-02 -2.91708324E-02  1.59213403E-02 -2.61406531E-02
 -1.28012262E-02  1.98342757E-02  3.90948168E-02 -2.15847622E-02  3.56210686E-02
  1.67195998E-02  1.29082120E-07  7.50402578E-07 -1.29998240E-04 -1.46192181E-04
 -2.62186810E-04 -6.23740174E-05  2.41417132E-04  4.40266319E-04  6.03167603E-04
  6.07314674E-04  1.12884170E-03  3.56017370E-03  4.05696478E-03 -1.75600453E-03
  2.06890257E-04 -5.04717160E-04 -9.11036587E-04  1.37782621E-02  2.83626889E-02
 -1.54858383E-02  2.54631573E-02  1.24278029E-02 -1.79256594E-02 -3.90098499E-02
  2.12383780E-02 -3.43426939E-02 -1.73545957E-02  1.10020073E-04  2.21964442E-04
  6.59235001E-03 -5.41660095E-03  2.09598117E-03 -1.83980078E-03  3.19499575E-03
 -2.52042240E-03  1.19362191E-03  3.71882876E-03 -1.53607607E-02  1.30371848E-02
 -5.86184251E-03  3.60286342E-04 -2.24512223E-02  1.87884928E-02 -7.16746899E-03
  3.36917618E-04  1.24161771E-03  2.09598085E-04  3.89160957E-03  8.82021033E-04
  4.76254664E-02  1.57012901E-01  1.47703743E-02  4.61282835E-01  1.08037374E-01
 -9.78380246E-05 -1.96806182E-04 -6.50690034E-03  5.55756516E-03 -1.90153283E-03
  1.61733302E-03 -3.00145645E-03  2.78945501E-03 -7.87284750E-04 -3.05497458E-03
  1.48637929E-02 -1.36888526E-02  4.64325509E-03 -5.04644037E-04  2.24645608E-02
 -1.92094757E-02  6.89761621E-03  1.61088254E-03  2.85386962E-03 -2.43802485E-03
 -2.31853865E-04  9.25145166E-04  1.93720291E-01  3.43726004E-01 -2.87867845E-01
 -1.24117832E-02  1.11925540E-01  9.73926499E-05  1.95910212E-04  6.38768308E-03
 -5.51698329E-03  1.91030013E-03 -1.61005046E-03  3.14323371E-03 -2.81241811E-03
  7.55949222E-04  3.03916274E-03 -1.57799762E-02  1.31898382E-02 -3.94693415E-03
  5.08910096E-04 -2.16266582E-02  1.82710585E-02 -6.46188226E-03 -3.55349835E-04
 -1.19113425E-03 -1.92087311E-04 -3.84866909E-03 -8.56578433E-04 -4.73123060E-02
 -1.53568202E-01 -1.42120184E-02 -4.55416197E-01 -1.05354636E-01 -1.09714399E-04
 -2.21349447E-04 -6.47073281E-03  5.38829930E-03 -2.11609530E-03  1.83476210E-03
 -3.31610238E-03  2.54808899E-03 -1.17485075E-03 -3.70736872E-03  1.63486222E-02
 -1.23998835E-02  5.03575080E-03 -3.63623380E-04  2.16899659E-02 -1.80084510E-02
  6.82302284E-03 -1.62220341E-03 -2.81637337E-03  2.39071878E-03  2.44747947E-04
 -8.83979910E-04 -1.92604584E-01 -3.38681370E-01  2.83616173E-01  1.42526823E-02
 -1.09766484E-01  3.94272490E-05  2.10145232E-04 -3.31143468E-02 -7.41709728E-02
 -9.49726452E-02 -1.64298002E-02  7.78096345E-02  1.78076077E-01  2.33498667E-01
  1.61486341E-01  5.38297681E-01  1.23321996E+00  1.61883102E+00 -4.58439293E-01
 -1.59918586E-01 -2.65821955E-01 -2.07067013E-01 -9.08545801E-03  4.08569629E-03
  1.99450380E-03 -2.39615795E-03  7.62732178E-03 -2.91239131E-01  1.19575450E-01
  2.94062435E-02 -5.96980413E-02  2.08704776E-01 -3.32511481E-05 -1.97106529E-04
  3.20029575E-02  7.33694803E-02  9.63822427E-02  1.62159373E-02 -8.03213913E-02
 -1.80391144E-01 -2.31679813E-01 -1.60093131E-01 -5.56707057E-01 -1.24857702E+00
 -1.60113108E+00  4.58303340E-01  2.57958508E-02  1.54839044E-01  3.38340292E-01
 -1.12994481E-02  3.96973355E-03 -1.01322323E-03 -1.23733319E-03  5.06581636E-03
 -3.18282427E-01  1.20465636E-01 -2.88810789E-03 -4.74822855E-02  1.70156627E-01
 -4.13240935E-02 -8.33256734E-02 -2.10049271E-02 -3.56517323E-02 -2.91021365E-02
  6.89895099E-01 -1.71194132E-02 -5.15078975E-02 -8.49182676E-02 -1.38202925E+00
 -8.80250904E-02  3.86375661E-02  3.89580233E-01 -1.49029335E-01  7.92283027E-03
  4.11147143E-02  8.59866019E-02  5.41267003E-03 -5.49954773E-03 -3.82195264E-03
  1.92744644E-03 -2.11082716E-03  1.31181580E-01 -1.46138823E-01 -1.63593567E-01
  8.64553707E-02 -1.88332585E-01  3.81099071E-02  7.66905266E-02 -5.95582476E-03
 -2.36223910E-02 -4.51873727E-02 -6.31280524E-01 -3.70213169E-02 -6.83135002E-02
 -6.64220685E-02  1.20741386E+00  2.18500247E-01  2.78411835E-01  5.21908289E-02
  1.87669772E-01  4.42036968E-02  6.70083556E-02  3.99902346E-02  6.37812207E-03
  8.31680648E-04  3.47782704E-03  3.36023617E-05 -4.65209998E-03  2.89303682E-01
 -1.88208853E-02  1.49461097E-01 -1.47809534E-02 -5.64358939E-02 -3.81330142E-02
 -7.67372280E-02  2.01418762E-02  3.53897276E-02  3.13702324E-02  6.31709875E-01
  1.54421587E-02  5.04635247E-02  8.75777607E-02 -1.20872971E+00  8.26716612E-02
 -2.93463244E-02 -3.47393013E-01 -1.88169634E-01  1.42387253E-03 -2.94126408E-02
 -8.49519710E-02  4.81157465E-03 -5.23172818E-03 -3.97239067E-03  1.92398102E-03
 -2.29884410E-03  1.21218664E-01 -1.41984665E-01 -1.68305454E-01  8.59036609E-02
 -1.98968440E-01  4.13181689E-02  8.33110489E-02  4.35580783E-03  2.18976795E-02
  4.54711931E-02 -6.89742558E-01  3.48037419E-02  6.61714736E-02  6.76727028E-02
  1.38153111E+00 -2.42996432E-01 -3.12650007E-01 -6.58308655E-02  1.49437502E-01
 -3.99227685E-02 -6.76320593E-02 -5.49177869E-02  6.53011520E-03  7.94715983E-04
  3.31696717E-03  1.80422146E-04 -5.29795391E-03  2.85985787E-01 -1.86771029E-02
  1.46514540E-01 -1.19453583E-02 -7.00036885E-02 -1.53361887E-03 -6.59865468E-03
  1.55557314E-02  1.12802505E-02 -1.96557703E-02  4.62125125E-01  5.33809163E-02
  4.78699477E-02 -4.21610172E-02 -4.24332385E+00  3.76038826E-01  3.37297380E-01
 -2.97492758E-01  1.36074301E+01  1.99125113E+00  1.64355807E+00 -1.96027025E+00
 -3.12028009E-02 -5.17158105E-03 -4.30530330E-02  1.53524530E-02 -3.87523962E-02
 -3.82332214E-01  8.65194810E-04 -4.66082219E-01  1.74370486E-01 -5.16735525E-01
  1.52705484E-03  6.59349233E-03  1.78441409E-02  1.64012975E-02 -1.29477043E-02
 -4.61847928E-01  4.81100139E-02  3.60095076E-02 -5.74961531E-02  4.23848447E+00
  3.37655004E-01  2.53026263E-01 -4.01981019E-01 -1.36065740E+01  1.99735878E+00
  1.65771042E+00 -1.94139466E+00  3.03895429E-02  5.43581147E-03  4.29669901E-02
 -1.54521624E-02  3.91372665E-02  3.68498999E-01  4.48194846E-03  4.66402913E-01
 -1.76683811E-01  5.24969824E-01  4.61143605E-02  9.51436641E-02  1.09480811E-02
  1.68929274E-03 -3.08058085E-02 -8.38808500E-01  1.94166751E-02  1.00252330E-02
 -3.54692462E-02  2.46799840E+00  8.57689312E-02 -1.16959927E-01 -5.95849354E-01
 -6.22769253E-01 -1.54684423E-01 -1.81048862E-01  7.08785332E-03 -8.33830127E-03
  3.94247215E-03 -2.03960772E-03  2.53599276E-04 -2.83677968E-03 -1.29952441E-01
  7.32000794E-02 -6.29706299E-02  2.75575049E-02 -1.58208411E-01  4.88111797E-02
  1.00578035E-01  2.08485642E-02  2.34203787E-02 -3.61832952E-03 -8.83787850E-01
  2.53993591E-02  2.46889456E-02 -1.48665101E-02  2.55946569E+00  3.64246081E-01
  4.96916518E-01  1.75947081E-01 -6.13043895E-01 -7.86245847E-02 -1.01706726E-02
  2.26628318E-01  2.26589897E-03 -9.04218141E-06 -2.25693648E-03  2.05114537E-03
 -9.49246998E-03 -4.31527722E-02  4.57533329E-02 -5.55409472E-02  3.84350026E-02
 -2.04538944E-01 -4.86923428E-02 -1.00335943E-01  1.22886516E-02  4.01732048E-03
 -2.87828315E-02  8.81765669E-01  2.03419478E-02  1.31207037E-02 -3.00117493E-02
 -2.55560578E+00  9.24296351E-02 -1.18598089E-01 -6.21768000E-01  6.11367424E-01
 -1.54660708E-01 -1.83022213E-01  1.44134513E-03  8.67681394E-03 -4.30240974E-03
  1.77389919E-03 -1.21554923E-04  2.67932736E-03  1.37981155E-01 -8.30027494E-02
  5.12627126E-02 -2.15097696E-02  1.44700990E-01 -4.60064314E-02 -9.49236983E-02
  2.12187372E-02  2.49469957E-02 -6.40161290E-04  8.36938136E-01  2.79024120E-02
  2.91898308E-02 -1.06834970E-02 -2.46346487E+00  3.46356413E-01  4.74112179E-01
  1.71734144E-01  6.23696780E-01 -8.11288742E-02 -1.44193610E-02  2.22940050E-01
 -1.82063579E-03  5.50933264E-05  2.47280982E-03 -2.03458492E-03  9.13372258E-03
  6.25993098E-02 -4.66401130E-02  6.57825453E-02 -3.92573754E-02  1.99609832E-01
 -1.18862278E-07 -1.18163903E-06  4.09690993E-03 -3.43887035E-03  1.25741875E-03
  8.77726150E-05  1.69248412E-02 -1.42668882E-02  5.24008886E-03 -9.21742026E-04
  9.74592178E-02 -8.21553000E-02  3.01638165E-02  2.57722023E-03  2.69800822E-02
 -2.21074545E-02  7.86707266E-03 -2.91505753E-02 -3.72231135E-02  6.00264330E-02
  9.42102392E-02 -8.63050091E-04  5.36282478E-03  6.95639324E-03 -1.12483677E-02
 -1.74489685E-02  6.52601581E-05  9.49762259E-07  2.15693777E-06  4.15769009E-03
 -3.49921909E-03  1.28127678E-03 -9.89102327E-05  1.69567146E-02 -1.42724870E-02
  5.23838831E-03  1.02816205E-03  9.75644198E-02 -8.21943732E-02  3.01945374E-02
 -2.58473971E-03  2.69469570E-02 -2.20713905E-02  7.84654995E-03  2.91161723E-02
  3.71393023E-02 -5.99879291E-02 -9.42795676E-02  8.37806573E-04 -5.34327565E-03
 -6.94791078E-03  1.12240438E-02  1.73538573E-02 -7.62484389E-05  8.14834177E-06
  1.68331252E-05  6.36586170E-03 -5.36116588E-03  1.96179492E-03 -1.48697958E-04
 -4.05896699E-04  3.46019791E-04 -1.34750160E-04  4.42289087E-04  1.95159742E-03
 -1.64503964E-03  5.00005306E-04 -1.41020135E-04 -7.10719416E-02  5.98344367E-02
 -2.19706235E-02  1.00835235E-03  1.29465379E-03 -2.07550994E-03 -3.23743545E-03
  3.37942659E-05  1.04545164E-01  1.23274370E-01 -2.27650288E-01 -4.04652378E-01
 -8.41911720E-03  7.61195187E-06  1.57611290E-05  6.35700195E-03 -5.34709578E-03
  1.96568661E-03 -1.40092078E-04 -4.08333714E-04  3.56020487E-04 -1.28084582E-04
  4.26725094E-04  2.02560916E-03 -1.58001263E-03  6.30917215E-04 -1.37722259E-04
 -7.10536314E-02  5.98462710E-02 -2.19414995E-02  1.00481785E-03  1.28097818E-03
 -2.07168514E-03 -3.25866799E-03  2.57758272E-05  1.31341914E-01  1.78292850E-01
 -2.58060481E-01 -3.56418862E-01  1.55497929E-02 -9.43653114E-06 -1.94493582E-05
  6.37184447E-03 -5.36711439E-03  1.96495116E-03  1.71003917E-04 -3.92169316E-04
  3.33605749E-04 -1.27841343E-04 -4.96509518E-04  1.91125159E-03 -1.61174524E-03
  4.61605347E-04  1.36116051E-04 -7.10967200E-02  5.98503204E-02 -2.19813310E-02
 -1.00708659E-03 -1.29014088E-03  2.07684660E-03  3.25224219E-03 -3.05675126E-05
 -1.04352359E-01 -1.22656683E-01  2.27647764E-01  4.06162871E-01  8.79887356E-03
 -9.83873308E-06 -2.02670284E-05  6.36457757E-03 -5.35584095E-03  1.96746356E-03
  1.77979847E-04 -4.00391529E-04  3.43419478E-04 -1.26844785E-04 -5.10705910E-04
  2.03897655E-03 -1.54765673E-03  6.37689315E-04  1.25444802E-04 -7.10311100E-02
  5.98337969E-02 -2.19305745E-02 -9.98485640E-04 -1.26876066E-03  2.06321758E-03
  3.26270646E-03 -2.11619407E-05 -1.30648902E-01 -1.77012018E-01  2.57125685E-01
  3.56740852E-01 -1.51066138E-02 -1.72950209E-06  1.94376425E-06  4.75068247E-02
  1.07753593E-01  1.39923079E-01 -7.85202827E-05 -9.52436164E-02 -2.15862262E-01
 -2.80062432E-01  5.19979762E-04  4.32876863E-02  9.63618274E-02  1.22550955E-01
 -2.70885619E-03  1.37103087E-02  3.17151373E-02  4.20695699E-02  9.61271076E-02
 -3.78092071E-02 -4.12339095E-03  1.68857260E-02 -5.97167713E-02 -9.71200229E-03
  3.74555640E-03  3.68981013E-04 -1.70230822E-03  6.14094957E-03 -4.94648900E-06
 -1.34693518E-05  4.75187788E-02  1.07685574E-01  1.39684445E-01  3.57892902E-04
 -9.50611716E-02 -2.15558674E-01 -2.79814415E-01 -4.01694519E-03  4.34551467E-02
  9.84023208E-02  1.27521617E-01  2.80178449E-03  1.36868872E-02  3.15087305E-02
  4.15709855E-02 -9.60477050E-02  3.78767849E-02  4.21812526E-03 -1.68945122E-02
  5.96247543E-02  9.99510783E-03 -3.97717996E-03 -5.81638810E-04  1.83381949E-03
 -6.45449702E-03  8.98733457E-03  1.69904078E-02  6.04763031E-03  2.11554763E-02
  3.80725344E-02 -1.29678516E-01  3.77495840E-03  1.92893456E-02  4.03366829E-02
  1.98027830E-01  2.08645403E-02 -4.87120820E-02 -2.00135784E-01 -7.51975224E-02
 -7.45427860E-02 -7.61391653E-02  3.35906785E-02 -7.93337103E-05  8.47577280E-04
  2.98399252E-03 -1.54568087E-03  5.03449534E-03  5.08798928E-02 -5.37424640E-02
  1.42068617E-01 -9.21230412E-02  4.31841597E-01 -8.98356634E-03 -1.69816792E-02
  1.64839857E-02  2.97704229E-02  2.77981490E-02  1.29568897E-01  1.88249534E-02
  3.17026000E-02  2.54920165E-02 -1.97543927E-01 -1.12879772E-01 -1.59112249E-01
 -6.84594456E-02  7.65208957E-02  5.47638645E-02  3.09681008E-02 -9.27051061E-02
 -4.93000567E-03  1.11461463E-03 -2.78048706E-03  6.69681625E-04 -1.92676445E-03
 -3.28924685E-01  1.62831654E-01 -1.30545154E-01  4.34220545E-02 -2.59308294E-01
 -8.90977009E-03 -1.68315715E-02  5.90310493E-03  2.09843113E-02  3.80696198E-02
  1.28293312E-01  3.57549425E-03  1.90220482E-02  4.02474071E-02 -1.94576008E-01
  2.12682781E-02 -4.78666377E-02 -1.99102580E-01  7.75046823E-02 -7.47842962E-02
 -7.60889028E-02  3.44907826E-02  5.88114607E-05 -8.40862718E-04 -2.98874577E-03
  1.54456943E-03 -5.03136632E-03 -5.12204179E-02  5.38428128E-02 -1.42176076E-01
  9.20708019E-02 -4.31760301E-01  8.93237284E-03  1.68806682E-02  1.63834571E-02
  2.96664518E-02  2.78418512E-02 -1.28782233E-01  1.86223443E-02  3.14931608E-02
  2.55813635E-02  1.96339333E-01 -1.12241379E-01 -1.58647040E-01 -6.92905875E-02
 -7.71584437E-02  5.47942007E-02  3.11033029E-02 -9.23876923E-02  4.91774308E-03
 -1.12531046E-03  2.75984154E-03 -6.64250335E-04  1.92690502E-03  3.28039649E-01
 -1.63033050E-01  1.29747281E-01 -4.32263223E-02  2.59297971E-01  4.64355630E-07
  7.16167449E-07 -1.92859211E-01  1.62483624E-01 -5.96481870E-02 -1.96779206E-05
  1.22384262E-01 -1.03099679E-01  3.78414022E-02  3.16857723E-04 -5.96217616E-01
  5.02551952E-01 -1.84598659E-01 -1.18506128E-03 -1.71092263E-01  1.43863121E-01
 -5.27008503E-02  1.71705442E-02  2.19507426E-02 -3.53366579E-02 -5.53432640E-02
  5.32247981E-04  4.27127611E-02  5.44535512E-02 -8.80253905E-02 -1.38427563E-01
  1.20719422E-03 -9.82645443E-07 -1.66332260E-06  1.92802268E-01 -1.62466569E-01
  5.96577264E-02  2.98994036E-05 -1.22307952E-01  1.03069396E-01 -3.78498704E-02
 -3.34359540E-04  5.96446528E-01 -5.02350114E-01  1.84368195E-01  1.18473154E-03
  1.70747031E-01 -1.44162364E-01  5.30493895E-02  1.70786083E-02  2.17645085E-02
 -3.52446445E-02 -5.55278377E-02  4.46197803E-04  4.27584372E-02  5.46008646E-02
 -8.81170552E-02 -1.38341115E-01  1.21812198E-03 -1.75361837E-06 -3.59408333E-06
 -9.74580039E-03  8.21250195E-03 -3.01266131E-03  3.09218743E-05 -3.70950656E-03
  3.13094951E-03 -1.14490887E-03 -8.63968185E-05 -1.17221406E-02  9.85149472E-03
 -3.61583316E-03  1.34052173E-04  2.01737432E-01 -1.69954691E-01  6.23684164E-02
 -2.40769120E-03 -3.86436353E-03  4.02412003E-03  2.68391314E-03 -9.48195888E-04
 -1.37659342E-01 -1.95906098E-01  2.59776388E-01  3.15272390E-01 -2.63401696E-02
 -2.04041020E-06 -4.16636243E-06 -9.75287207E-03  8.21583303E-03 -3.01750421E-03
  3.56045887E-05 -3.75293107E-03  3.16117146E-03 -1.16480044E-03 -9.15607279E-05
 -1.16600309E-02  9.80423068E-03 -3.58621050E-03  1.31145475E-04  2.01536390E-01
 -1.69758307E-01  6.23265475E-02 -4.01688674E-04  2.75484904E-04  1.76352380E-03
  6.39807258E-03  8.66695327E-04 -8.66338977E-02 -9.06318285E-02  2.02278109E-01
  4.09689504E-01  1.97964302E-02  2.43898780E-06  4.98808807E-06  9.75756995E-03
 -8.22030417E-03  3.02017998E-03 -4.25911921E-05  3.77012515E-03 -3.17084433E-03
  1.16658653E-03  1.05832480E-04  1.15983555E-02 -9.80229585E-03  3.60719832E-03
 -1.30285058E-04 -2.01489700E-01  1.69796776E-01 -6.23721055E-02 -2.40760812E-03
 -3.86080289E-03  4.02419635E-03  2.69097379E-03 -9.47574793E-04 -1.37416766E-01
 -1.95335170E-01  2.59421535E-01  3.15513576E-01 -2.62331112E-02  2.40531806E-06
  4.89807221E-06  9.74462814E-03 -8.21241970E-03  3.01376419E-03 -4.15991912E-05
  3.71320808E-03 -3.12932521E-03  1.14405910E-03  1.06070070E-04  1.16888864E-02
 -9.87465639E-03  3.63698264E-03 -1.35010292E-04 -2.01687171E-01  1.69989505E-01
 -6.24127913E-02 -3.97630608E-04  2.83676814E-04  1.75785064E-03  6.39950338E-03
  8.67922872E-04 -8.64034932E-02 -9.00346264E-02  2.01990147E-01  4.10194818E-01
  1.99580176E-02  4.30236145E-03 -1.25555097E-03 -4.85306177E-02 -4.02857475E-02
  4.71386400E-02  3.81483442E-01 -9.05346960E-02 -7.47910738E-02  8.89422998E-02
 -5.23968988E+00  3.17380901E-01  2.55468781E-01 -3.30110027E-01  1.99891758E+00
  2.63070519E-01  2.17948056E-01 -2.56692372E-01 -4.27212833E-02 -1.15717439E-03
 -5.37012064E-02  2.00315277E-02 -5.80176874E-02 -4.53821177E-01  2.03808803E-01
 -3.78399080E-01  1.74120985E-01 -7.90930155E-01 -4.32404284E-03  1.21297899E-03
 -4.83554251E-02 -3.98493306E-02  4.75676396E-02 -3.80956890E-01 -9.09784264E-02
 -7.57061017E-02  8.80167173E-02  5.23973142E+00  3.26854332E-01  2.77074038E-01
 -3.02184268E-01 -1.99849559E+00  2.62613665E-01  2.17111879E-01 -2.57584695E-01
  4.20319951E-02  1.51692371E-03  5.37733320E-02 -2.01287343E-02  5.82496294E-02
  4.59465326E-01 -2.05942075E-01  3.78233705E-01 -1.73045269E-01  7.87132507E-01
  7.09502013E-03  1.68756184E-02  1.69551318E-02  4.47338837E-03 -4.26275694E-02
 -2.09646640E-01  4.04664384E-02  2.25910462E-02 -6.92870543E-02  1.33209520E+00
 -4.19264921E-02 -2.12697551E-01 -4.43800580E-01  8.91065268E-01  1.34111307E-01
  2.57706856E-03 -4.26575902E-01 -6.85079486E-03  3.52109764E-04 -2.38710128E-03
 -4.17114349E-04  4.65007244E-03 -9.22865979E-02 -1.12021371E-01 -2.05149302E-02
 -5.57106525E-02  4.45982946E-01  6.96134057E-03  1.65927882E-02  3.02934350E-02
  3.45769476E-02 -3.75087110E-03 -2.07041892E-01  5.59178615E-02  5.72712424E-02
 -2.47757845E-02  1.32527336E+00  2.04548826E-01  3.47214897E-01  2.84461970E-01
  8.73557822E-01  2.80751313E-01  3.39068047E-01  1.58932595E-02  5.70788615E-03
 -4.58027350E-03 -2.89471061E-03  1.77235479E-03 -3.09407913E-03  3.35232811E-01
 -2.78922594E-01 -3.62580908E-02  1.82443077E-02  1.83204033E-01 -6.94553250E-03
 -1.65597408E-02  1.70902863E-02  4.66390619E-03 -4.25474271E-02  2.06766015E-01
  4.06777449E-02  2.26951363E-02 -6.96870144E-02 -1.32553898E+00 -4.29308529E-02
 -2.13616098E-01 -4.42969465E-01 -8.75837134E-01  1.32623026E-01  2.86331748E-03
 -4.20814099E-01  6.82505657E-03 -3.55636459E-04  2.34865972E-03  4.30954943E-04
 -4.68914758E-03  9.14222272E-02  1.10986350E-01  1.78298070E-02  5.66458064E-02
 -4.47890767E-01 -7.06338211E-03 -1.68108660E-02  3.02806165E-02  3.46175584E-02
 -3.60294198E-03  2.09060042E-01  5.56817981E-02  5.69785493E-02 -2.48136067E-02
 -1.33026391E+00  2.05050885E-01  3.47529749E-01  2.83791800E-01 -8.90269319E-01
  2.84728723E-01  3.43977829E-01  1.65755126E-02 -5.66527839E-03  4.56957696E-03
  2.92287942E-03 -1.78214799E-03  3.12575324E-03 -3.32352130E-01  2.78925066E-01
  3.87041305E-02 -1.89903615E-02 -1.81861427E-01  1.76861372E-02  3.68310061E-02
  1.48955944E-02  1.24216742E-02 -1.36129856E-02 -4.99890642E-01 -1.35468314E-01
 -1.12632689E-01  1.30684666E-01  9.86587179E-01  4.76190636E-02  3.87223569E-02
 -4.77702828E-02 -2.34270705E-01 -1.14660404E-01 -9.49597175E-02  1.11892681E-01
  4.82628953E-02 -1.04568377E-01 -3.61639948E-02 -2.02123186E-03  1.44273654E-01
  1.65768068E-01 -7.74808022E-02  1.33763623E-01 -6.20930432E-02  2.87192768E-01
  1.76722752E-02  3.68176606E-02 -1.43333928E-02 -1.17933039E-02  1.49404835E-02
 -5.00274895E-01  1.34400692E-01  1.10719547E-01 -1.33347694E-01  9.92903635E-01
 -4.82254247E-02 -4.23101353E-02  4.13895232E-02 -2.34724806E-01  1.14619871E-01
  9.48760176E-02 -1.12212162E-01  4.70417747E-02 -1.04073828E-01 -3.60677354E-02
 -2.25299645E-03  1.45089312E-01  1.65064056E-01 -7.71556445E-02  1.34584817E-01
 -6.24235442E-02  2.88925806E-01 -1.42929371E-02 -2.97150337E-02  1.77977903E-02
  2.52840813E-02  1.13655674E-02  2.72365957E-01  3.47426293E-02  4.32041894E-02
  5.42899570E-03 -7.89105701E-01 -1.56927248E-01 -9.57546836E-02  2.46207625E-01
  1.98654559E-01  5.68705758E-02  5.28824834E-02 -3.98978768E-02  6.01973095E-03
  1.85927581E-03  3.72636257E-03  1.61573244E-04 -6.57532228E-03  1.05542280E-01
  1.48649606E-01  8.95223342E-02  3.06146948E-02 -4.06378526E-01 -1.44234132E-02
 -2.99739628E-02  3.60942263E-03 -7.67613809E-03 -3.25440318E-02  2.74546513E-01
  1.54922248E-02 -1.77436389E-03 -5.48514486E-02 -7.92026942E-01 -2.07548565E-01
 -2.05551650E-01  1.10801007E-01  1.96103259E-01  4.86614838E-02  3.43506670E-02
 -6.38375381E-02 -5.67093815E-03  6.54475920E-03  4.33257675E-03 -1.92437481E-03
  6.64663043E-04 -2.73787542E-01  3.02965410E-01  1.11628360E-01 -3.77281670E-02
 -1.72720821E-01 -1.44564581E-02 -3.00453674E-02 -1.84102452E-02 -2.59125314E-02
 -1.10345333E-02  2.75283243E-01 -3.57306023E-02 -4.41816754E-02 -4.77534720E-03
 -7.95611919E-01  1.60602646E-01  9.87554006E-02 -2.50429362E-01  1.92544290E-01
 -5.66835828E-02 -5.32357242E-02  3.81302072E-02  6.01697521E-03  1.94847324E-03
  3.83558521E-03  1.27589370E-04 -6.59117469E-03  1.04096852E-01  1.54428135E-01
  9.54657755E-02  2.86733332E-02 -4.07694778E-01 -1.42813028E-02 -2.96926148E-02
 -3.06972222E-03  8.01166315E-03  3.17761734E-02  2.72215185E-01 -1.45290565E-02
  2.42282184E-03  5.36265845E-02 -7.89275286E-01  2.04207818E-01  2.03317925E-01
 -1.06601816E-01  1.98844436E-01 -4.88613027E-02 -3.46484941E-02  6.34714908E-02
 -5.72941927E-03  6.48759637E-03  4.23638974E-03 -1.90193602E-03  7.15008446E-04
 -2.77382535E-01  2.99622214E-01  1.06103000E-01 -3.65863446E-02 -1.69227140E-01
 -5.96875848E-06 -1.30308646E-05  3.64042564E-01 -3.06747319E-01  1.12629151E-01
  1.98597997E-04 -2.39120076E-01  2.01539960E-01 -7.40272323E-02 -6.92402519E-04
  3.49327681E-01 -2.94389630E-01  1.08116229E-01  3.73270065E-04 -5.10692985E-02
  4.31771143E-02 -1.59133435E-02 -3.83521384E-04 -6.05434475E-04  5.56640490E-04
  5.34252765E-05 -2.59992594E-04  7.09038377E-02  9.13093261E-02 -1.45587106E-01
 -2.25539624E-01  2.60267656E-03 -6.38325544E-06 -1.27931247E-05  3.64082554E-01
 -3.06764124E-01  1.12629788E-01  1.55654728E-04 -2.39180765E-01  2.01425783E-01
 -7.39188727E-02  2.50839160E-05  3.49460861E-01 -2.94447714E-01  1.08079718E-01
 -2.10027228E-04 -5.10927030E-02  4.30453774E-02 -1.58014070E-02 -6.99093081E-05
 -1.92682792E-04 -5.37777204E-05 -8.45807401E-04 -2.23501879E-04 -6.93345892E-02
 -8.77844676E-02  1.43569567E-01  2.28601215E-01 -1.31598850E-03  5.37840279E-06
  1.12746877E-05  1.55506001E-02 -1.31165142E-02  4.80694092E-03 -1.06567289E-04
  3.09388943E-02 -2.60933554E-02  9.56915439E-03  3.48900507E-04 -1.41727087E-01
  1.19494919E-01 -4.39759172E-02 -4.21492001E-05 -5.01921264E-02  4.22559087E-02
 -1.55187377E-02  2.96688389E-03  5.78757383E-03 -3.75013276E-03  3.30396166E-03
  2.31106286E-03  1.47034397E-01  2.93606354E-01 -1.77420231E-01  2.08758002E-01
  1.22263313E-01  5.30358480E-06  1.11317870E-05  1.53366348E-02 -1.29174636E-02
  4.75574419E-03 -1.05339461E-04  3.06212007E-02 -2.57982732E-02  9.49266054E-03
  3.49220063E-04 -1.39614204E-01  1.17797011E-01 -4.32465755E-02 -4.05329416E-05
 -4.99412508E-02  4.20691421E-02 -1.54216176E-02 -2.11495519E-03 -4.69731208E-03
  1.99719105E-03 -6.02523950E-03 -2.27844793E-03 -1.22421679E-01 -2.61797807E-01
  1.27513232E-01 -2.84015845E-01 -1.20623969E-01  4.29583124E-06  8.79316296E-06
  1.53451432E-02 -1.29142243E-02  4.74569911E-03 -7.74366312E-05  3.06399987E-02
 -2.57885264E-02  9.47186720E-03  1.79019442E-04 -1.39778115E-01  1.17678984E-01
 -4.31655635E-02 -1.11018460E-04 -4.99742382E-02  4.21498784E-02 -1.55088439E-02
 -2.95175522E-03 -5.75867092E-03  3.71247024E-03 -3.33600087E-03 -2.30031507E-03
 -1.45244282E-01 -2.90665088E-01  1.74235431E-01 -2.10697393E-01 -1.21216001E-01
  4.64911902E-06  9.52091142E-06  1.55607277E-02 -1.31079651E-02  4.80131793E-03
 -8.43357548E-05  3.09603124E-02 -2.60758835E-02  9.55465072E-03  2.05174635E-04
 -1.41819989E-01  1.19380071E-01 -4.37985686E-02 -9.25591699E-05 -5.01714637E-02
  4.23277173E-02 -1.55530242E-02  2.11343470E-03  4.69134486E-03 -1.98157226E-03
  6.08391539E-03  2.28409238E-03  1.22401721E-01  2.61968369E-01 -1.26397929E-01
  2.88915827E-01  1.21438590E-01 -4.02325075E-07 -8.59549576E-07 -1.92555818E-03
  1.82054501E-03 -4.25424543E-04  1.29443143E-05  1.13192952E-03 -1.65963589E-03
 -2.54863705E-04 -3.85102803E-05 -2.27121132E-03 -1.19498236E-04 -2.41245318E-03
  1.55678577E-05  2.79773067E-04 -1.63624289E-04  1.39576574E-04 -3.84003439E-02
 -7.97638171E-02  4.36063816E-02 -7.10739278E-02 -3.50357517E-02  1.46250614E-01
  3.02424887E-01 -1.64695245E-01  2.72532552E-01  1.32793005E-01 -4.25304395E-07
 -8.77843023E-07 -2.10218228E-03  1.96926349E-03 -4.84760800E-04  1.14789118E-05
  1.16583186E-03 -1.72674783E-03 -2.58609379E-04 -6.55092620E-06 -2.20601562E-03
  1.05032221E-03 -1.37141438E-03 -4.50263781E-06  2.47283275E-04 -1.84545160E-04
  9.68382937E-05 -3.88264122E-02 -7.94855255E-02  4.34549538E-02 -7.15053885E-02
 -3.47389432E-02  1.47381554E-01  3.03410547E-01 -1.66443532E-01  2.69901191E-01
  1.32662462E-01  3.72348096E-05  7.52283409E-05  2.18381309E-02 -1.85217833E-02
  6.84157825E-03 -6.70255174E-04  3.30583364E-02 -2.80848585E-02  1.03746375E-02
  1.75713452E-03 -2.01929180E-01  1.70898607E-01 -6.35569468E-02  1.16969354E-03
 -1.62887179E-02  1.36525643E-02 -5.46074423E-03  2.24468094E-03  3.32328457E-03
 -4.07080176E-03 -4.18733274E-03  5.90203560E-04  1.90000876E-01  2.99817981E-01
 -3.22109047E-01 -2.35459528E-01  7.04868054E-02 -3.66296718E-05 -7.39502297E-05
 -2.19555576E-02  1.86120901E-02 -6.88534423E-03  6.57961296E-04 -3.33163327E-02
  2.82660432E-02 -1.04841977E-02 -1.71588392E-03  2.02834112E-01 -1.72268663E-01
  6.33053881E-02 -1.17591922E-03  1.66300419E-02 -1.45293777E-02  5.06874842E-03
 -1.00497236E-03 -7.95885600E-04  2.68943787E-03  6.46959233E-03  5.13036559E-04
 -3.92031018E-02  8.95033452E-03  1.53202876E-01  5.12830493E-01  6.44349283E-02
 -2.90910453E-05 -5.81643083E-05 -2.21110470E-02  1.85174629E-02 -6.75255088E-03
  5.09959936E-04 -3.35826220E-02  2.80831964E-02 -1.02496735E-02 -1.17983595E-03
  2.04217475E-01 -1.71390653E-01  6.22664628E-02 -6.30721935E-04  1.69010459E-02
 -1.43199291E-02  5.00829540E-03  2.26506362E-03  3.40272273E-03 -4.08003274E-03
 -4.16274939E-03  6.14100875E-04  1.90506815E-01  3.03781818E-01 -3.22236584E-01
 -2.34140108E-01  7.15325690E-02  2.96486945E-05  5.93212993E-05  2.19625294E-02
 -1.83917933E-02  6.70645732E-03 -5.20561578E-04  3.32804402E-02 -2.78587449E-02
  1.01284168E-02  1.20784223E-03 -2.03017746E-01  1.69888818E-01 -6.22948857E-02
  6.19052632E-04 -1.63685909E-02  1.35261593E-02 -5.14002625E-03 -1.04521325E-03
 -8.56113271E-04  2.68540970E-03  6.41684582E-03  5.05796779E-04 -4.13849036E-02
  5.95127079E-03  1.52998832E-01  5.10460977E-01  6.45356033E-02 -1.92045214E-04
 -3.95749903E-04  2.91008912E-02  6.65788871E-02  8.72730492E-02  5.29179837E-03
 -1.06715589E-01 -2.44223323E-01 -3.20222924E-01 -6.42243378E-03 -1.97931253E-01
 -4.47197325E-01 -5.78197867E-01  6.64217353E-04  6.59555438E-03  1.37748479E-02
  1.61978445E-02  1.14707705E-01 -4.40437583E-02 -4.69054266E-03  2.04104979E-02
 -7.29461268E-02 -6.77318346E-02  2.58764303E-02  1.94709683E-03 -1.16248507E-02
  3.81591193E-02 -2.05941551E-04 -4.39579305E-04  3.00822928E-02  6.77489560E-02
  8.72930511E-02  6.12174162E-03 -1.09075677E-01 -2.45342532E-01 -3.15643805E-01
 -1.38725145E-02 -2.28315436E-01 -5.19981661E-01 -6.78199424E-01  4.00007181E-03
  5.66403053E-03  1.46376268E-02  2.15611884E-02 -1.14528894E-01  4.61957995E-02
  5.15464061E-03 -1.98349416E-02  6.92785503E-02  7.26064360E-02 -2.91127327E-02
 -4.24334779E-03  1.32110391E-02 -5.01157988E-02  1.50480248E-02  3.02458961E-02
 -3.16027394E-02 -2.62705658E-02  3.03221480E-02 -2.67685521E-01 -5.83307883E-02
 -5.16443053E-02  4.74640732E-02  6.66986151E-01  2.32042952E-01  1.31138933E-01
 -3.90287702E-01  3.99148937E-01  7.00175011E-03 -4.25416559E-02 -1.38309693E-01
  1.73809573E-03 -5.66359239E-03 -5.73657505E-03  1.97356356E-03 -2.03129617E-04
  1.69373290E-01 -3.45272802E-01 -2.98015973E-01  1.07336803E-01  7.50256422E-03
 -1.48045826E-02 -2.97356711E-02  3.13027788E-02  2.58011996E-02 -3.06321386E-02
  2.62886852E-01  5.32480952E-02  4.07084027E-02 -6.08213358E-02 -6.52741662E-01
 -3.11920241E-01 -3.16773150E-01  1.42893328E-01 -4.03299078E-01 -7.50862832E-02
 -1.10267884E-01 -5.78110978E-02  4.30472244E-03  3.19796916E-03  5.39649274E-03
 -8.95435438E-04 -3.51618293E-03  2.56366324E-01  1.73721285E-01  2.78354243E-01
 -3.32366471E-02 -2.66957399E-01 -1.54315550E-02 -3.10487783E-02 -3.15282951E-02
 -2.63676122E-02  3.03830159E-02  2.75301053E-01 -5.83410827E-02 -5.18089609E-02
  4.79111057E-02 -7.00741217E-01  2.33673826E-01  1.31627679E-01 -3.99484804E-01
 -4.49129306E-01  1.10957586E-02 -4.35373734E-02 -1.54646015E-01 -1.70167429E-03
  5.55960819E-03  5.77929181E-03 -1.98925278E-03  4.52682415E-04 -1.68135196E-01
  3.39318070E-01  3.01297577E-01 -1.08535769E-01  7.29843371E-03  1.56722671E-02
  3.15594303E-02  3.11894376E-02  2.55046538E-02 -3.16384544E-02 -2.80224490E-01
  5.37118352E-02  4.09011451E-02 -6.26563884E-02  7.16661977E-01 -3.24415913E-01
 -3.32781088E-01  1.44939278E-01  4.45846053E-01 -8.40561989E-02 -1.22652295E-01
 -6.21618476E-02 -4.26901759E-03 -3.29564386E-03 -5.60103063E-03  9.57120901E-04
  3.28578255E-03 -2.58080050E-01 -1.75450991E-01 -2.83916064E-01  3.28056732E-02
  2.62788402E-01 -1.10811039E-05 -6.03626673E-06  9.78935876E-03  2.18641069E-02
  2.79133263E-02 -2.43625784E-04  2.70839534E-02  6.12278561E-02  7.92085657E-02
 -5.17751265E-03 -1.48229131E+00 -3.34439492E+00 -4.31743982E+00  8.61516518E-03
  5.08082044E-02  1.13283063E-01  1.44300949E-01 -4.08561300E-02  1.60670902E-02
  1.81834641E-03 -7.21736710E-03  2.55891262E-02 -3.93097720E-01  1.54435499E-01
  1.75096019E-02 -6.95178539E-02  2.46071744E-01  2.10931779E-05  2.22436677E-05
 -8.74626979E-03 -2.00191331E-02 -2.62446614E-02  8.64774254E-05 -2.93033480E-02
 -6.65897775E-02 -8.66487817E-02  4.37468584E-03  1.45750387E+00  3.31741506E+00
  4.32408185E+00 -8.69365485E-03 -4.81527280E-02 -1.10874716E-01 -1.46326614E-01
 -4.36484029E-02  1.71709775E-02  1.77751559E-03 -7.60714429E-03  2.69635286E-02
 -3.93096844E-01  1.54960191E-01  1.65760280E-02 -6.87486805E-02  2.42194934E-01
  2.77331765E-02  5.81588362E-02 -1.19441250E-02 -1.74809842E-02 -9.01444930E-03
 -5.51411059E-01 -3.14928802E-02 -3.31117512E-02  1.16006809E-02  2.15321710E+00
  2.27259544E-01  4.34329401E-02 -6.16238330E-01  2.07003979E+00  1.45030384E-01
 -8.90352902E-02 -7.11404369E-01 -6.69895890E-03  2.15775999E-03 -4.53984160E-03
  1.61549397E-03 -6.47900084E-03 -1.31734502E-01  7.60498402E-02 -1.51875404E-01
  8.26509355E-02 -3.86328484E-01 -2.77833698E-02 -5.82719898E-02  1.24929903E-03
 -6.60560856E-03 -2.20171610E-02  5.52677733E-01  2.15246796E-02  1.07473378E-02
 -4.02895926E-02 -2.15896247E+00 -4.29731270E-01 -5.01039698E-01  2.43589442E-02
 -2.07971275E+00 -4.38248824E-01 -5.72732281E-01 -1.43189305E-01  2.77993180E-03
 -5.99175682E-04  4.72387095E-03 -2.30740194E-03  8.89856451E-03  2.55702196E-01
 -1.23625127E-01  1.47070712E-01 -6.07584422E-02  3.06712237E-01  2.74429091E-02
  5.75881313E-02  1.11382565E-02  1.68367089E-02  9.87948460E-03 -5.46633457E-01
  2.99977547E-02  3.17920867E-02 -1.03337392E-02  2.14439738E+00 -2.22118227E-01
 -3.96735396E-02  6.09667597E-01  2.07128245E+00 -1.45971743E-01  8.81784892E-02
  7.11953222E-01 -6.78568481E-03  2.29040242E-03 -4.41955829E-03  1.56483639E-03
 -6.43180272E-03 -1.36460550E-01  8.30579517E-02 -1.45429767E-01  7.98826961E-02
 -3.83413650E-01 -2.73972907E-02 -5.74836780E-02 -6.74451408E-04  7.04509886E-03
  2.13426959E-02  5.45428065E-01 -2.04911367E-02 -9.97686651E-03  3.90220199E-02
 -2.13813332E+00  4.21264166E-01  4.91884144E-01 -2.17540317E-02 -2.06103097E+00
  4.34189185E-01  5.67376429E-01  1.41869603E-01  2.73043760E-03 -7.06783574E-04
  4.58454672E-03 -2.27582747E-03  8.96127536E-03  2.52042882E-01 -1.29742185E-01
  1.40037489E-01 -5.97642934E-02  3.13915702E-01 -4.09985746E-07 -1.15668905E-06
 -1.04671379E-01  8.81974265E-02 -3.23827983E-02  1.57426931E-05  2.16859337E-01
 -1.82697595E-01  6.70722568E-02  3.01346971E-04  3.37753628E-01 -2.84294176E-01
  1.04274707E-01 -2.35028257E-06  2.71455752E-02 -2.28616536E-02  8.39180892E-03
  3.61414234E-03  4.65763855E-03 -7.39489865E-03 -1.14143402E-02  1.53036439E-04
 -2.88797160E-01 -3.69009299E-01  5.94646850E-01  9.32431368E-01 -8.65758543E-03
  7.41006943E-07  1.88087810E-06  1.04621428E-01 -8.81509375E-02  3.23649236E-02
 -3.31255012E-05 -2.16685760E-01  1.82613810E-01 -6.70634494E-02 -3.27235002E-04
 -3.37467974E-01  2.84586536E-01 -1.04588294E-01 -4.05212293E-07 -2.71235049E-02
  2.28607238E-02 -8.39822105E-03  3.54025108E-03  4.48790287E-03 -7.33608262E-03
 -1.16511715E-02  6.86452877E-05 -2.87701302E-01 -3.66633039E-01  5.93512753E-01
  9.34549547E-01 -7.71391215E-03 -1.71747181E-07 -3.39151026E-07 -1.48880954E-02
  1.25444246E-02 -4.60582380E-03  2.45392245E-06 -3.19650305E-02  2.69333887E-02
 -9.88963198E-03  1.76479613E-05  2.47439947E-01 -2.08484049E-01  7.65325979E-02
  4.54743182E-05 -6.46362437E-02  5.44382676E-02 -2.00028009E-02 -2.73292091E-03
 -6.25656417E-03  2.34686394E-03 -9.04921179E-03 -3.15878010E-03 -1.47912108E-01
 -3.22639053E-01  1.45991477E-01 -3.86405381E-01 -1.53170562E-01 -6.53771990E-08
 -1.15774969E-07 -1.48132557E-02  1.24808470E-02 -4.58297875E-03  2.46988070E-07
 -3.18322751E-02  2.68212693E-02 -9.84821092E-03  2.20214092E-05  2.46530947E-01
 -2.07697015E-01  7.62638795E-02  5.86581445E-05 -6.45566961E-02  5.44063059E-02
 -1.99541179E-02  4.30753564E-03  8.26448349E-03 -5.59342138E-03  3.94279342E-03
  3.20245557E-03  1.92319859E-01  3.79146719E-01 -2.37697281E-01  2.41657650E-01
  1.54286197E-01 -1.38528329E-07 -2.74749584E-07  1.48153080E-02 -1.24834177E-02
  4.58422027E-03  2.68841783E-06  3.18189858E-02 -2.68104170E-02  9.84430531E-03
 -1.56612429E-05 -2.46495813E-01  2.07702350E-01 -7.62726440E-02 -3.98047534E-05
  6.45384004E-02 -5.43960745E-02  1.99604507E-02 -2.72781539E-03 -6.24832364E-03
  2.33717776E-03 -9.05933831E-03 -3.15742739E-03 -1.47564652E-01 -3.21988566E-01
  1.45431042E-01 -3.86577574E-01 -1.52984619E-01 -1.42410602E-07 -2.75540162E-07
  1.48928128E-02 -1.25493136E-02  4.60766373E-03  2.67771063E-06  3.19773726E-02
 -2.69437353E-02  9.89310642E-03 -2.00499010E-05 -2.47486915E-01  2.08549542E-01
 -7.65690548E-02 -3.66006413E-05  6.46347529E-02 -5.44547946E-02  2.00112165E-02
  4.30728402E-03  8.26568828E-03 -5.59032089E-03  3.95581695E-03  3.20407796E-03
  1.92462561E-01  3.79482763E-01 -2.37733124E-01  2.42391414E-01  1.54458762E-01
 -6.96043280E-05 -2.12179035E-04  7.14296560E-02  1.62049842E-01  2.10475176E-01
  3.45031571E-03  1.93854674E-01  4.39017528E-01  5.69086980E-01 -2.59794556E-03
  5.52536842E-01  1.25330524E+00  1.62748875E+00  2.70275176E-03  3.04468146E-02
  6.83763703E-02  8.78149082E-02 -2.20108749E-01  8.62846204E-02  8.87978430E-03
 -3.84241608E-02  1.36218977E-01  9.09422583E-01 -3.55380874E-01 -3.66732335E-02
  1.59155301E-01 -5.66131992E-01 -9.87223973E-05 -2.42259629E-04  7.16534990E-02
  1.62034219E-01  2.09707065E-01  3.23114507E-03  1.92933228E-01  4.38380772E-01
  5.70331357E-01  4.86289045E-03  5.52328688E-01  1.25138532E+00  1.62292540E+00
 -1.68325634E-03  3.01753464E-02  6.80457406E-02  8.77901221E-02  2.19269117E-01
 -8.67321145E-02 -1.01711927E-02  3.88069216E-02 -1.36670990E-01 -9.08008165E-01
  3.59668061E-01  4.19393471E-02 -1.60406052E-01  5.64021722E-01 -1.42746707E-02
 -2.89564047E-02 -9.07458330E-03 -2.54841098E-02 -4.00797654E-02  2.89865784E-01
 -8.31817970E-03 -2.56512052E-02 -4.29818969E-02 -1.47620409E+00 -4.50671894E-02
  2.96978951E-01  9.54642850E-01 -1.52741333E+00 -1.39584756E-01 -5.24659109E-04
  4.49831774E-01 -1.12652457E-02 -6.65297288E-04 -7.18902804E-03  8.63343805E-04
  3.24926506E-03 -4.27828471E-01 -1.54708611E-02 -2.51310894E-01  2.30453367E-02
  1.48027098E-01  1.42665994E-02  2.89454662E-02 -1.58383875E-02 -3.10000581E-02
 -3.32323942E-02 -2.89839055E-01 -1.77167612E-02 -3.33207615E-02 -3.34788022E-02
  1.47547879E+00  5.09527898E-01  7.55528773E-01  4.10647335E-01  1.52566658E+00
  2.99853687E-01  3.62874638E-01  1.90085125E-02 -4.66715043E-03  6.88981125E-03
  7.82375750E-03 -3.64746061E-03  6.65221918E-03 -2.04813585E-01  2.63522129E-01
  2.77758466E-01 -1.34034681E-01  2.45543055E-01  1.42155063E-02  2.88408723E-02
 -9.05263603E-03 -2.53541034E-02 -3.97933192E-02 -2.88870290E-01 -8.25330853E-03
 -2.54141164E-02 -4.25409526E-02  1.47284494E+00 -4.50945317E-02  2.96039866E-01
  9.52041793E-01  1.52312736E+00 -1.40172360E-01 -1.54875977E-03  4.48841625E-01
  1.11983235E-02  6.44831821E-04  7.13468945E-03 -8.56706073E-04 -3.21185702E-03
  4.26091096E-01  1.51596288E-02  2.50312573E-01 -2.30429369E-02 -1.46733570E-01
 -1.42542988E-02 -2.89181724E-02 -1.58526561E-02 -3.10658403E-02 -3.33689982E-02
  2.89591902E-01 -1.76723090E-02 -3.33575658E-02 -3.37285729E-02 -1.47566777E+00
  5.09491183E-01  7.55941691E-01  4.12023214E-01 -1.52568990E+00  2.99353420E-01
  3.62661895E-01  2.01419281E-02  4.68234883E-03 -6.94533130E-03 -7.87919001E-03
  3.66515885E-03 -6.64978089E-03  2.05535013E-01 -2.64968497E-01 -2.78965984E-01
  1.34443270E-01 -2.45478488E-01  7.67959749E-09 -3.25489479E-08 -4.44072323E-04
  5.35750322E-04 -1.82676206E-06  1.66055798E-06  3.15119452E-04 -1.67018891E-04
  1.79835835E-04 -8.60229937E-07 -1.79865002E-03  3.01552674E-03  7.15473586E-04
  2.31166811E-05 -2.19295917E-04  2.71027842E-04 -5.91892105E-06  1.75066581E-02
  3.62606232E-02 -1.98299237E-02  3.23462514E-02  1.59075092E-02 -3.67269900E-01
 -7.57693251E-01  4.13148601E-01 -6.81944065E-01 -3.32303792E-01 -6.06305353E-08
 -1.67032619E-07  7.57288428E-04 -8.05686189E-04  9.24033350E-05  1.70388824E-06
 -8.97449669E-04  6.52025897E-04 -3.68372296E-04  6.66025776E-07  1.77947882E-03
 -3.08577291E-03 -7.88188301E-04 -2.28357753E-05  2.31946730E-04 -2.72379118E-04
 -4.24269395E-06 -1.77792910E-02 -3.64208172E-02  2.00566499E-02 -3.22259492E-02
 -1.58744759E-02  3.68682262E-01  7.60187188E-01 -4.16667731E-01  6.76745888E-01
  3.32679769E-01 -1.47255796E-05 -2.94866424E-05 -1.93346019E-02  1.62896847E-02
 -6.02378811E-03  2.58131663E-04 -4.96330423E-02  4.18260682E-02 -1.54508802E-02
 -5.02915108E-04  4.56484170E-01 -3.84744956E-01  1.41595080E-01 -9.82882196E-04
 -6.96728627E-02  5.86923464E-02 -2.12541656E-02 -4.71129710E-03 -7.67657328E-03
  7.70220676E-03  4.38706162E-03 -1.99987927E-03 -2.33679307E-01 -3.91669777E-01
  3.70047806E-01  1.50056855E-01 -1.10961121E-01  1.47372077E-05  2.95126173E-05
  1.94017395E-02 -1.64002013E-02  5.99951114E-03 -2.58428306E-04  4.97857685E-02
 -4.20683184E-02  1.54025764E-02  5.05150624E-04 -4.57369048E-01  3.85845779E-01
 -1.41572287E-01  9.77496371E-04  7.07510426E-02 -5.92463155E-02  2.18929839E-02
  4.34852305E-04 -1.12094053E-03 -2.89982953E-03 -1.23010134E-02 -1.85314024E-03
 -5.02196318E-03 -1.00262757E-01 -1.01445832E-01 -5.91818714E-01 -1.04597926E-01
 -1.52362145E-05 -3.05456219E-05 -1.94344548E-02  1.63752571E-02 -5.96851607E-03
  2.69099169E-04 -4.98538567E-02  4.19973148E-02 -1.53242405E-02 -5.64053910E-04
  4.58149037E-01 -3.85896822E-01  1.41312201E-01 -1.04589053E-03 -7.05683417E-02
  5.94731724E-02 -2.21485573E-02  4.70833406E-03  7.70544834E-03 -7.72326740E-03
 -4.38799647E-03  2.00828191E-03  2.34031792E-01  3.93055664E-01 -3.70974571E-01
 -1.50069306E-01  1.11389531E-01  1.51536240E-05  3.03832734E-05  1.93691202E-02
 -1.62666457E-02  5.99477356E-03 -2.67649465E-04  4.97097749E-02 -4.17629307E-02
  1.53764823E-02  5.60041459E-04 -4.56801959E-01  3.84372108E-01 -1.41234969E-01
  1.05040727E-03  6.94025081E-02 -5.88749263E-02  2.14684445E-02 -4.46105230E-04
  1.11409010E-03  2.90247867E-03  1.22686772E-02  1.86022339E-03  4.65051467E-03
  9.97962944E-02  1.01398369E-01  5.90405023E-01  1.04575167E-01 -1.81263126E-05
 -5.37575387E-05 -1.09790617E-01 -2.47754844E-01 -3.19895459E-01  8.18249678E-04
 -5.43567085E-02 -1.23509852E-01 -1.60694754E-01 -6.57139587E-03 -1.19707361E+00
 -2.70460768E+00 -3.49685714E+00  1.22247893E-03 -5.94470097E-02 -1.34386728E-01
 -1.73858290E-01  1.38260710E-01 -5.43543605E-02 -5.91285430E-03  2.42849022E-02
 -8.58196502E-02  1.99767865E-01 -7.89551101E-02 -8.30905105E-03  3.47710572E-02
 -1.24614806E-01 -1.05387077E-04 -2.06021814E-04  1.09141318E-01  2.47188069E-01
  3.20462094E-01  9.80219347E-04  5.52737748E-02  1.24933658E-01  1.61587616E-01
  1.57647267E-02  1.18999120E+00  2.69996454E+00  3.50709585E+00 -8.33927076E-04
  5.96875122E-02  1.34633205E-01  1.73751486E-01  1.38183206E-01 -5.47219163E-02
 -6.59580378E-03  2.45467010E-02 -8.65191696E-02  2.00028038E-01 -7.74040801E-02
 -7.13242518E-03  3.47306496E-02 -1.22274101E-01  3.10438613E-02  6.24421092E-02
 -1.41737316E-02  1.27578793E-02  8.05154757E-02 -5.58066648E-01 -4.05738316E-02
  1.66964036E-02  1.76496736E-01  1.37668319E+00  2.71951471E-01  1.10724211E-02
 -8.47598936E-01  2.37306481E+00  1.42835434E-01 -8.10848002E-02 -6.82872192E-01
  1.57202952E-02 -6.39003006E-03  2.50399610E-03  7.38708545E-04 -1.20841667E-03
  3.31203002E-01 -1.94816262E-01 -2.46569670E-02  4.11732069E-02 -3.74663874E-02
 -3.11272763E-02 -6.26108658E-02  4.83509847E-02  6.44967893E-02  1.94205520E-02
  5.59561291E-01  1.10810841E-01  1.41967752E-01  2.86066931E-02 -1.37922152E+00
 -5.70358910E-01 -6.85414720E-01 -2.44626445E-02 -2.37471176E+00 -4.20156417E-01
 -5.47317221E-01 -1.32237760E-01  8.45470456E-03 -3.10188338E-03 -3.52237606E-03
  3.50204084E-03 -1.38389223E-02  2.27318125E-01 -2.45493471E-02  1.28440015E-03
  5.66737451E-02 -3.10433675E-01  3.10609555E-02  6.24791123E-02  1.41818497E-02
 -1.27059131E-02 -8.04996348E-02 -5.58441696E-01  4.07026252E-02 -1.64687740E-02
 -1.76560797E-01  1.37704733E+00 -2.71946470E-01 -1.20638132E-02  8.47523207E-01
  2.37440899E+00 -1.43422888E-01  8.07320462E-02  6.83247438E-01  1.57159470E-02
 -6.40442423E-03  2.46599688E-03  7.42709580E-04 -1.20189553E-03  3.31070578E-01
 -1.94775247E-01 -2.55817104E-02  4.11373541E-02 -3.70648855E-02 -3.11551962E-02
 -6.26684635E-02 -4.83398171E-02 -6.45663992E-02 -1.95461665E-02  5.60235272E-01
 -1.10657636E-01 -1.41986577E-01 -2.88848559E-02 -1.38417442E+00  5.71422735E-01
  6.88308678E-01  2.62702173E-02 -2.37759606E+00  4.20416064E-01  5.47721475E-01
  1.33049579E-01  8.46159096E-03 -3.14243922E-03 -3.56712152E-03  3.52998388E-03
 -1.38425414E-02  2.28215199E-01 -2.56478227E-02  2.38979807E-04  5.77823519E-02
 -3.11070893E-01  4.60843040E-07  1.22995618E-06 -5.60059122E-01  4.71900591E-01
 -1.73262944E-01  5.99608813E-06  8.09283246E-01 -6.81867335E-01  2.50341853E-01
 -1.40933991E-04 -1.97931544E-01  1.66640374E-01 -6.11346002E-02 -1.04023249E-04
  2.14401090E-02 -1.81128726E-02  6.66832343E-03 -6.55575707E-02 -8.36743620E-02
  1.35112220E-01  2.12187328E-01 -1.88526161E-03  1.15416257E-01  1.47228797E-01
 -2.37972504E-01 -3.74439834E-01  3.13876655E-03  2.01627006E-07  4.40928453E-07
 -5.60054078E-01  4.71885751E-01 -1.73251431E-01  2.50745548E-05  8.09308889E-01
 -6.81947937E-01  2.50397642E-01  6.49949628E-05 -1.97941015E-01  1.66707487E-01
 -6.11687294E-02  1.01607286E-04  2.13736179E-02 -1.80275943E-02  6.62661175E-03
  6.55556363E-02  8.36571582E-02 -1.35081952E-01 -2.12248461E-01  1.87094805E-03
 -1.15451782E-01 -1.47236851E-01  2.37978570E-01  3.74202791E-01 -3.23688184E-03
  7.89169300E-07  1.57575403E-06  7.25343379E-03 -6.11290482E-03  2.24567172E-03
 -1.32177528E-05  2.18613160E-02 -1.84180962E-02  6.76785729E-03  1.20283537E-05
 -2.02409267E-01  1.70526838E-01 -6.26233485E-02 -7.42517558E-06  6.65702189E-02
 -5.60665178E-02  2.05866269E-02  1.01760288E-03  2.84831933E-03 -2.55552612E-04
  6.72987687E-03  1.75443164E-03  1.07872509E-01  2.18432928E-01 -1.26442917E-01
  1.72852493E-01  9.29521452E-02  7.48235293E-07  1.48982380E-06  7.29976217E-03
 -6.15259723E-03  2.25941330E-03 -1.22792175E-05  2.19639310E-02 -1.85121125E-02
  6.79323541E-03  4.93979333E-06 -2.03087540E-01  1.71119158E-01 -6.28133878E-02
 -1.28790352E-05  6.66608094E-02 -5.61584271E-02  2.06050255E-02 -2.92184262E-03
 -5.28314062E-03  4.17737935E-03 -5.89490602E-04 -1.81276155E-03 -9.72964871E-02
 -2.05038831E-01  1.04584693E-01 -2.07734389E-01 -9.27642671E-02  8.83268093E-07
  1.78528335E-06  7.28860333E-03 -6.14043620E-03  2.25300690E-03 -1.63809518E-05
  2.19043040E-02 -1.84575505E-02  6.77230726E-03  4.26813438E-05 -2.02787156E-01
  1.70873648E-01 -6.27080092E-02  2.79719561E-05  6.66703077E-02 -5.61735536E-02
  2.06343445E-02 -1.02315523E-03 -2.85809150E-03  2.68385386E-04 -6.71736627E-03
 -1.75572815E-03 -1.08085344E-01 -2.18720435E-01  1.26904880E-01 -1.72261783E-01
 -9.29706552E-02  7.13811147E-07  1.45185287E-06  7.26644924E-03 -6.12081973E-03
  2.24761424E-03 -1.34344030E-05  2.18980274E-02 -1.84467667E-02  6.77596081E-03
  3.03888069E-05 -2.02652628E-01  1.70728142E-01 -6.27001815E-02  2.02739515E-05
  6.66235142E-02 -5.61440435E-02  2.06093982E-02  2.92434502E-03  5.28327138E-03
 -4.18500417E-03  5.61475257E-04  1.81017007E-03  9.74813935E-02  2.05205724E-01
 -1.04973971E-01  2.06813885E-01  9.27084632E-02 -3.28468985E-02 -7.91612526E-02
 -2.54098378E-01 -2.10534920E-01  2.47895255E-01  6.67071087E-01 -2.92741603E-02
 -2.38297383E-02  2.98924543E-02  3.30658615E+00 -1.06515740E+00 -8.79693640E-01
  1.04728266E+00  1.23239284E-01 -2.18738890E-01 -1.81018450E-01  2.14060022E-01
 -9.40886257E-02 -1.33730118E-01 -2.38387669E-01  6.97213843E-02 -3.05545466E-02
  3.21034563E-01  3.29081357E-01  6.99313439E-01 -2.14502807E-01  2.04492771E-01
 -3.27948197E-02 -7.90693053E-02  2.53155488E-01  2.08813168E-01 -2.49677376E-01
  6.66871705E-01  3.00988114E-02  2.48203646E-02 -2.95104924E-02  3.29592799E+00
  1.06484499E+00  8.77616081E-01 -1.05178415E+00  1.23937088E-01  2.18453497E-01
  1.80515650E-01 -2.14510083E-01 -9.46068673E-02 -1.33519626E-01 -2.38346362E-01
  6.95792831E-02 -3.01164742E-02  3.23767069E-01  3.28689905E-01  6.99489503E-01
 -2.13881389E-01  2.01287597E-01 -2.68303916E-02 -5.47018393E-02  1.72772543E-02
  1.08963802E-03 -5.28848731E-02  5.21654992E-01  2.19714039E-02 -1.79951675E-02
 -1.20040830E-01 -1.66441046E+00 -2.68900450E-01  6.11785091E-02  1.03589166E+00
 -8.80560418E-01  1.65170406E-01  2.37968517E-01  1.14253787E-01 -1.45360197E-02
  3.41092376E-03 -5.50652314E-03  3.66518400E-04  6.79827114E-04 -3.95155763E-01
  1.66251387E-01 -6.49814665E-02 -1.50741586E-02  7.54113440E-03 -2.67681511E-02
 -5.45756563E-02  3.55866897E-02  4.26195832E-02  1.04199520E-03  5.20456758E-01
  7.21873777E-02  9.58869570E-02  2.78092338E-02 -1.66224044E+00 -6.63011703E-01
 -8.32253821E-01 -1.23525530E-01 -8.78787663E-01  2.43034274E-02 -8.09531615E-02
 -2.99027992E-01  5.80281508E-03 -4.60565304E-03 -6.40028813E-03  3.94602709E-03
 -1.19570131E-02  1.95891472E-01 -6.67819464E-02 -9.09454175E-02  8.89158673E-02
 -3.59504094E-01 -2.68457802E-02 -5.47309014E-02 -1.73276475E-02 -1.11284495E-03
  5.29776316E-02  5.21828192E-01 -2.20576722E-02  1.80109904E-02  1.20353592E-01
 -1.66513112E+00  2.69832562E-01 -6.04664670E-02 -1.03690627E+00 -8.85340484E-01
 -1.64776868E-01 -2.38047344E-01 -1.15683268E-01 -1.45932757E-02  3.43044307E-03
 -5.52051168E-03  3.64400351E-04  6.86925488E-04 -3.95967547E-01  1.66584961E-01
 -6.50433981E-02 -1.51756835E-02  7.79451956E-03 -2.67077340E-02 -5.44518514E-02
 -3.54913967E-02 -4.25004677E-02 -1.03273511E-03  5.19324103E-01 -7.18643933E-02
 -9.54501697E-02 -2.76736005E-02 -1.65846635E+00  6.61097958E-01  8.29873210E-01
  1.23298979E-01 -8.71276997E-01 -2.60907637E-02  7.88963078E-02  2.99253862E-01
  5.76810309E-03 -4.58056194E-03 -6.36875626E-03  3.92453478E-03 -1.18940541E-02
  1.95365757E-01 -6.63636467E-02 -9.03466756E-02  8.85209951E-02 -3.58315732E-01
 -5.00579980E-06 -9.95269867E-06 -6.82500013E-01  5.75042020E-01 -2.11121313E-01
  3.44817604E-05  1.04420331E+00 -8.79832673E-01  3.23037091E-01  8.29033031E-04
 -6.08817537E-01  5.13041521E-01 -1.88385726E-01 -4.33764021E-04 -9.63240328E-02
  8.10487147E-02 -2.97121501E-02  5.35662360E-04  6.29182514E-04 -1.20607347E-03
 -2.15288685E-03 -6.13296299E-05 -4.17326791E-02 -5.28744982E-02  8.66582065E-02
  1.38339140E-01 -5.62034983E-04  4.96324055E-06  1.02030228E-05  6.82434722E-01
 -5.75019138E-01  2.11126378E-01 -5.58322798E-05 -1.04420364E+00  8.79835079E-01
 -3.23039601E-01 -7.89595211E-04  6.08851250E-01 -5.12945313E-01  1.88301203E-01
  4.26688539E-04  9.62119494E-02 -8.11791825E-02  2.98506316E-02  5.64451280E-04
  7.05277528E-04 -1.14046865E-03 -1.82179913E-03  2.53801037E-05 -4.29135093E-02
 -5.50896534E-02  8.78193021E-02  1.36124914E-01 -1.76685305E-03 -2.24378536E-06
 -4.75929036E-06  3.36133567E-03 -2.83239192E-03  1.03847189E-03  5.13475541E-05
  2.15531968E-02 -1.81663248E-02  6.66026529E-03 -1.90235457E-04 -9.84387650E-02
  8.29882717E-02 -3.03386492E-02 -1.00744119E-04  1.76817310E-01 -1.48995190E-01
  5.47367655E-02  1.39205986E-03  2.05587589E-03 -2.54147879E-03 -2.71013929E-03
  3.49601325E-04  8.41630544E-02  1.42352116E-01 -1.32149816E-01 -4.69949985E-02
  4.12295031E-02 -2.22862187E-06 -4.72914490E-06  3.31028190E-03 -2.78764540E-03
  1.02444275E-03  5.11198882E-05  2.14293003E-02 -1.80474409E-02  6.63463467E-03
 -1.92672421E-04 -9.69479179E-02  8.15467366E-02 -3.00357791E-02 -9.50009832E-05
  1.76568960E-01 -1.48817445E-01  5.46325594E-02  6.85221550E-04  6.01864376E-04
 -1.73584724E-03 -3.97577672E-03 -2.83582110E-04 -4.41393399E-03 -4.02328434E-02
 -3.19935659E-02 -2.09288216E-01 -3.86424436E-02  2.01396047E-06  4.25083320E-06
 -3.31155292E-03  2.79009184E-03 -1.02615142E-03 -4.56218300E-05 -2.14078916E-02
  1.80352865E-02 -6.62927027E-03  1.83600138E-04  9.70044166E-02 -8.17160231E-02
  3.01221793E-02  9.20936602E-05 -1.76601151E-01  1.48791070E-01 -5.46023534E-02
  1.37467192E-03  2.02334468E-03 -2.50974281E-03 -2.70028865E-03  3.39991170E-04
  8.35895624E-02  1.41217247E-01 -1.31115793E-01 -4.68683662E-02  4.08886948E-02
  2.02499000E-06  4.27245958E-06 -3.35832851E-03  2.83189040E-03 -1.03882151E-03
 -4.57018893E-05 -2.15548381E-02  1.81701101E-02 -6.66576987E-03  1.80883383E-04
  9.83578401E-02 -8.30120595E-02  3.04094488E-02  9.73879810E-05 -1.76876691E-01
  1.48992287E-01 -5.47130056E-02  6.83351920E-04  5.93742214E-04 -1.73948268E-03
 -4.01797103E-03 -2.90318230E-04 -4.58026663E-03 -4.07376735E-02 -3.19849796E-02
 -2.10894616E-01 -3.89456759E-02  6.15709694E-02  1.21400383E-01  1.35618790E-01
  1.12297304E-01 -1.32808903E-01 -2.52006731E-01  1.10935309E-01  9.15471660E-02
 -1.08918591E-01 -1.09519174E+01  4.30870903E-01  3.54083734E-01 -4.29009243E-01
  3.69369311E+00  6.65361460E-01  5.51152271E-01 -6.49743151E-01  9.72940096E-02
  1.58667921E-02  1.35452724E-01 -4.88191185E-02  1.24880932E-01 -8.18481573E-01
  2.16342079E-01 -8.25947019E-01  3.46581679E-01 -1.32680344E+00 -6.15971705E-02
 -1.21526296E-01  1.35790658E-01  1.12545461E-01 -1.32106305E-01  2.54583971E-01
  1.10817248E-01  9.12015547E-02 -1.10247345E-01  1.09561406E+01  4.35520122E-01
  3.62190220E-01 -4.20854186E-01 -3.69360563E+00  6.65028666E-01  5.49949350E-01
 -6.51715739E-01 -9.86394651E-02 -1.63774469E-02 -1.36275371E-01  4.87356981E-02
 -1.23083951E-01  8.41668998E-01 -2.23565335E-01  8.27063012E-01 -3.42979216E-01
  1.31165448E+00  2.99636248E-02  6.36038444E-02  5.93483301E-03  1.37661410E-02
  1.83140061E-02 -6.90474370E-01  1.16629108E-02  4.92016407E-02  9.63254039E-02
  3.01669790E+00  1.81632507E-01 -4.24418460E-01 -1.74329990E+00  2.03226664E+00
  1.04167757E-01 -9.59309785E-02 -5.97935742E-01  1.40654564E-02 -6.02542453E-04
  9.11688019E-03 -1.69169245E-03  6.44705903E-04  4.86025938E-01 -1.10492830E-01
  2.36100052E-01 -4.29077763E-02  9.67233124E-02  2.99913336E-02  6.36577521E-02
 -6.47325680E-03 -1.41767571E-02 -1.76837657E-02 -6.91198255E-01 -4.31749231E-02
 -7.50384588E-02 -6.47981721E-02  3.02997567E+00  9.85184825E-01  1.39268227E+00
  6.08368008E-01  2.02263298E+00  3.54733609E-01  4.73986243E-01  1.44365968E-01
 -2.77683013E-03  6.00084759E-03  9.82199299E-03 -4.64710029E-03  1.11247995E-02
 -8.90998000E-02  1.16733182E-01  2.62113349E-01 -1.44381500E-01  4.54132187E-01
 -2.99951625E-02 -6.36708023E-02  5.83223649E-03  1.36322161E-02  1.82755120E-02
  6.91535801E-01  1.16000947E-02  4.88937706E-02  9.56597259E-02 -3.03415861E+00
  1.82779251E-01 -4.26653234E-01 -1.75275790E+00 -2.02541568E+00  1.03748294E-01
 -9.48089157E-02 -5.93675438E-01 -1.41156119E-02  6.24205493E-04 -9.11411110E-03
  1.68164023E-03 -6.11623486E-04 -4.88365563E-01  1.10230895E-01 -2.37587636E-01
  4.29734088E-02 -9.53640544E-02 -2.99719051E-02 -6.36207015E-02 -6.39119023E-03
 -1.41418571E-02 -1.78592364E-02  6.90599407E-01 -4.33827741E-02 -7.55042567E-02
 -6.54242973E-02 -3.01647439E+00  9.81130850E-01  1.38668786E+00  6.05460846E-01
 -2.03214434E+00  3.57208897E-01  4.77907193E-01  1.46882780E-01  2.72308724E-03
 -6.01808548E-03 -9.86008600E-03  4.64681431E-03 -1.10757294E-02  8.81993455E-02
 -1.15599231E-01 -2.61037515E-01  1.43807222E-01 -4.53361260E-01 -3.72576326E-03
  3.67840501E-03 -1.46407458E-01 -1.21343294E-01  1.42788272E-01 -3.19446908E-01
  1.99264979E-01  1.65458304E-01 -1.93509090E-01 -2.84944831E-01  1.73572557E-01
  1.44564229E-01 -1.67349302E-01  5.00678744E-02 -3.33163513E-02 -2.74747108E-02
  3.28583475E-02 -6.17311325E-02  4.28478617E-01  3.14771033E-01 -5.41244386E-02
 -4.06334728E-01  7.09126666E-02 -2.93044207E-01 -1.80983817E-01  2.44049236E-02
  3.14707245E-01 -3.85985557E-03  3.39739519E-03  1.46131388E-01  1.20439250E-01
 -1.44223910E-01 -3.17479595E-01 -1.98848324E-01 -1.63753662E-01  1.96587161E-01
 -2.60929622E-01 -1.75265411E-01 -1.45056228E-01  1.71495348E-01  5.03179142E-02
  3.32663580E-02  2.74801505E-02 -3.26858069E-02 -6.04553640E-02  4.27916262E-01
  3.14435483E-01 -5.37510783E-02 -4.07643153E-01  6.95930686E-02 -2.94556501E-01
 -1.82125041E-01  2.41302313E-02  3.18755263E-01 -3.69269935E-03 -6.54893603E-03
  5.99188878E-03 -2.07428828E-03 -2.50213971E-02  3.44016807E-02  4.11905501E-02
  3.71861063E-02 -3.18699590E-02  3.07004342E-02 -8.57694616E-02 -9.51146985E-02
  1.82322194E-02  9.99457027E-02  3.92291380E-02  9.49033422E-03 -1.00963930E-01
 -4.72130057E-03  1.03379547E-02  7.91853132E-03 -2.45431957E-03 -3.47733332E-03
 -3.65537365E-03  1.80555866E-01  1.84399472E-01 -4.80382652E-02 -7.98566356E-02
 -3.67266075E-03 -6.50166138E-03  1.58396074E-02  2.01381216E-02  3.64418741E-03
  3.36920388E-02  3.69160701E-02  2.74749587E-02 -4.45026447E-02  3.57083019E-02
 -5.06195714E-02 -1.68757847E-02  1.17706526E-01  1.02289653E-01  7.14376591E-02
  8.21261523E-02 -7.24533136E-03  4.66117076E-03  6.66325748E-03  7.52381666E-03
 -8.05301054E-04 -9.33253975E-03  4.80466742E-02  1.60424752E-01  1.82414946E-01
 -3.90245606E-02 -1.11960945E-01 -3.75024450E-03 -6.66309107E-03 -6.07313193E-03
  2.03498423E-03  2.51718216E-02  3.53114940E-02 -4.11637436E-02 -3.69936977E-02
  3.22983248E-02  2.97736517E-02  8.48988381E-02  9.37865649E-02 -1.89593523E-02
  9.82674823E-02 -3.87322491E-02 -9.20539088E-03  1.00109375E-01 -4.74979484E-03
  1.03358895E-02  7.87953666E-03 -2.43980491E-03 -3.51752689E-03 -3.46076339E-03
  1.79785675E-01  1.83189599E-01 -4.75294303E-02 -8.08091298E-02 -3.73143505E-03
 -6.63163878E-03 -1.57778855E-02 -2.01011288E-02 -3.74788265E-03  3.53030316E-02
 -3.69366881E-02 -2.75607130E-02  4.43267479E-02  2.84420995E-02  5.27299095E-02
  2.02344692E-02 -1.15304041E-01  9.82735142E-02 -7.05535517E-02 -8.12490518E-02
  6.75219387E-03  4.67717044E-03  6.61904779E-03  7.48420637E-03 -7.92820112E-04
 -9.32613204E-03  4.86367026E-02  1.59418343E-01  1.81219952E-01 -3.84961374E-02
 -1.12942613E-01 -1.94128268E-06 -7.87042908E-06  2.21556593E-01 -1.86600076E-01
  6.84781247E-02  2.45192058E-04 -2.84647009E-01  2.39857991E-01 -8.80706565E-02
 -1.32495827E-04  2.28725225E-01 -1.92807796E-01  7.08297590E-02  8.94229402E-05
  4.55481119E-03 -3.85500870E-03  1.42287155E-03 -1.79236164E-01 -2.28729924E-01
  3.69436559E-01  5.80643483E-01 -5.03257329E-03  9.16731814E-02  1.17024042E-01
 -1.88834906E-01 -2.97705328E-01  2.32657767E-03 -2.38681085E-06 -8.53070044E-06
  2.21671310E-01 -1.86853643E-01  6.86366766E-02  2.37543855E-04 -2.85017728E-01
  2.40140807E-01 -8.81669956E-02 -5.29842253E-05  2.29016315E-01 -1.92920650E-01
  7.08111889E-02 -8.42184292E-05  4.64210776E-03 -3.85028109E-03  1.38861984E-03
  1.79269961E-01  2.28701334E-01 -3.69508267E-01 -5.80625098E-01  5.11544484E-03
 -9.17005176E-02 -1.16779946E-01  1.89375912E-01  2.97385970E-01 -2.67413878E-03
  1.25053003E-06  2.54676341E-06  1.68296959E-03 -1.41705701E-03  5.22036957E-04
 -2.17196378E-05 -2.30335477E-02  1.94210039E-02 -7.11678188E-03 -1.21056192E-05
  2.15258874E-02 -1.83091172E-02  6.69489933E-03  4.87392596E-07 -8.87528916E-02
  7.48256354E-02 -2.74734851E-02 -3.00133687E-03 -5.07536468E-03  4.71089199E-03
  1.66663674E-03 -1.47025914E-03 -5.81879774E-02 -9.66844714E-02  9.32925706E-02
  4.29729312E-02 -2.66482315E-02  1.25739102E-06  2.56357447E-06  1.71506068E-03
 -1.44670386E-03  5.29634675E-04 -2.21844841E-05 -2.30238560E-02  1.93897442E-02
 -7.13374815E-03 -3.22154350E-06  2.10649419E-02 -1.77956258E-02  6.65590215E-03
  2.98432803E-06 -8.87656508E-02  7.48161092E-02 -2.74961088E-02  1.67010286E-04
  1.45607536E-03  1.13894047E-03  7.51061051E-03  1.39028065E-03 -9.74078312E-04
  2.11030887E-02  2.88056393E-02  1.48198902E-01  2.48927629E-02  1.19774265E-06
  2.39672101E-06  1.70858803E-03 -1.44178715E-03  5.26562271E-04 -1.90283167E-05
 -2.30639087E-02  1.94183748E-02 -7.14380294E-03 -3.29670651E-05  2.15977051E-02
 -1.80014008E-02  6.62938431E-03  1.63348192E-05 -8.89493433E-02  7.48995239E-02
 -2.74935025E-02  3.00187687E-03  5.07675056E-03 -4.70533159E-03 -1.66888504E-03
  1.47273472E-03  5.81798610E-02  9.68145257E-02 -9.31610777E-02 -4.30543004E-02
  2.67237911E-02  1.20812283E-06  2.42044232E-06  1.69040030E-03 -1.42193399E-03
  5.24611395E-04 -1.95041083E-05 -2.30270594E-02  1.94118631E-02 -7.11139545E-03
 -2.55980706E-05  2.14652674E-02 -1.80169907E-02  6.48344474E-03  1.84042422E-05
 -8.88163481E-02  7.48031520E-02 -2.74390856E-02 -1.64528527E-04 -1.45753306E-03
 -1.13273257E-03 -7.51454650E-03 -1.39043579E-03  1.05316687E-03 -2.11985621E-02
 -2.86152879E-02 -1.48479463E-01 -2.49988130E-02 -1.32874787E-02 -4.72837338E-02
  1.95330158E-01  1.61027214E-01 -1.93029246E-01  1.42442952E+00  1.40668693E-01
  1.17424337E-01 -1.34634865E-01 -7.85042738E-01 -1.95171280E-01 -1.60892210E-01
  1.92461535E-01 -8.14150615E-03 -1.40539200E-01 -1.16380075E-01  1.37315415E-01
  2.45003431E-02 -1.89199848E-01 -1.42211017E-01  2.48880386E-02  1.76432648E-01
  1.34184918E-01  1.26459322E+00  1.31861545E+00 -3.06023688E-01 -7.64293502E-01
 -1.32552705E-02 -4.71802482E-02 -1.96525289E-01 -1.63502958E-01  1.89861132E-01
  1.42201812E+00 -1.37844073E-01 -1.12754904E-01  1.38497341E-01 -7.92965566E-01
  2.00355921E-01  1.65384593E-01 -1.97432402E-01 -1.92539557E-02  1.42533416E-01
  1.17984130E-01 -1.39403351E-01  2.47554469E-02 -1.89548296E-01 -1.42159101E-01
  2.51632124E-02  1.76447561E-01  1.33877281E-01  1.26827549E+00  1.32283946E+00
 -3.07603392E-01 -7.63874626E-01  7.60403319E-03  1.52972012E-02  4.79019509E-03
  1.05390578E-02  1.32197749E-02 -1.31352877E-01  3.28113332E-02  5.72573487E-02
  4.99081804E-02 -1.14323016E-02 -5.65355368E-01 -6.57153116E-01  3.76947083E-02
  1.36913745E-01  1.55793429E-01  1.46795640E-01 -1.03705219E-01  1.31868189E-03
  7.99293705E-03  1.37867289E-02 -5.14788406E-03  8.02206626E-03 -9.21216454E-02
  3.50954854E-01  4.44269016E-01 -1.71111359E-01  2.04918263E-01  7.53831808E-03
  1.51708510E-02 -4.16346677E-03 -9.95434369E-03 -1.36569286E-02 -1.30567613E-01
 -8.57906265E-03 -3.69759094E-02 -7.29568657E-02 -7.32303579E-03 -3.01271561E-01
 -5.91955996E-02  8.12683156E-01  1.36707885E-01  1.30889619E-01  9.02823935E-02
 -1.77133032E-01  1.18705832E-02  3.87456453E-03  1.33408155E-02 -3.28692786E-03
  1.37870329E-03  4.23923806E-01  1.49054545E-01  4.23095799E-01 -8.06648407E-02
 -1.16641828E-01  7.55279704E-03  1.51982813E-02 -4.86769629E-03 -1.05558428E-02
 -1.30183235E-02 -1.30759313E-01 -3.29751101E-02 -5.72273043E-02 -4.92547451E-02
 -8.76702649E-03  5.67249656E-01  6.60012734E-01 -3.59685426E-02  1.34034094E-01
 -1.56568922E-01 -1.48170734E-01  1.02618385E-01  1.28312433E-03  8.06230611E-03
  1.38304073E-02 -5.15801638E-03  7.97061991E-03 -9.12249049E-02  3.52672144E-01
  4.46483659E-01 -1.71557065E-01  2.03577760E-01  7.61822668E-03  1.53234735E-02
  4.40123569E-03  1.02397445E-02  1.36618297E-02 -1.31451293E-01  9.16801242E-03
  3.78042322E-02  7.33492905E-02 -1.44371420E-02  3.03631133E-01  6.22004875E-02
 -8.12047128E-01  1.37630202E-01 -1.31644211E-01 -9.10870018E-02  1.77528535E-01
  1.19090804E-02  3.84908779E-03  1.33655377E-02 -3.29842954E-03  1.45580100E-03
  4.26040351E-01  1.47696759E-01  4.22762912E-01 -8.03161798E-02 -1.16923227E-01
 -4.46340872E-03 -2.10218026E-02  8.04379747E-02  6.60634668E-02 -8.00049327E-02
  9.11428604E-01  3.60412725E-01  2.98948878E-01 -3.50979485E-01  8.23355531E-01
  1.68295770E+00  1.39021307E+00 -1.65394153E+00  5.38889651E+00  9.80980317E-01
  8.11645413E-01 -9.60436450E-01 -2.07219524E-03  4.86245496E-02  4.22198159E-02
 -8.68445154E-03 -3.82672733E-02 -6.23319535E-01 -1.19938648E+00 -1.86393900E+00
  5.21386333E-01  3.62694311E-02  4.49929659E-03  2.11579568E-02  8.21100896E-02
  6.88107976E-02 -7.81559935E-02 -9.15177416E-01  3.58924128E-01  2.95837745E-01
 -3.54157705E-01 -8.21285581E-01  1.68625741E+00  1.39831769E+00 -1.64208862E+00
 -5.38883924E+00  9.81238418E-01  8.12457886E-01 -9.58925935E-01  9.16206410E-04
 -4.70828545E-02 -4.11878915E-02  8.28237134E-03  3.81310263E-02  6.22461468E-01
  1.19679349E+00  1.86106344E+00 -5.21024362E-01 -3.37328269E-02  9.80962729E-04
  3.26520425E-03  9.47226410E-03  3.54927649E-03 -2.09513498E-02 -8.19231575E-02
 -3.15773327E-02 -5.10837849E-02 -3.70524115E-02  1.24807656E+00  6.48899810E-01
  5.33348817E-01 -6.45098281E-01  5.71644209E-01 -2.72782425E-01 -3.48735197E-01
 -6.80357553E-02  3.01811388E-03 -1.17661198E-02 -1.35702626E-02  4.90139488E-03
 -3.42867306E-03  2.04707844E-01 -4.68712925E-01 -4.60510212E-01  1.70871659E-01
 -8.03752101E-02  1.02726444E-03  3.35474308E-03  1.53306322E-02  1.69270763E-02
 -3.45004273E-03 -8.26901447E-02  2.90041256E-03  2.73659518E-02  6.51680823E-02
  1.24381958E+00  6.53664906E-01  5.43233422E-01 -6.33580566E-01  5.64085155E-01
 -1.03389694E-01  3.69325137E-02  4.34831557E-01 -1.12311077E-02 -6.24978075E-03
 -1.30477796E-02  2.42071375E-03  5.46419369E-03 -4.16114330E-01 -2.26749841E-01
 -4.36199236E-01  6.24324407E-02  3.06121201E-01 -1.01639055E-03 -3.33322887E-03
  9.48381827E-03  3.60929912E-03 -2.08267020E-02  8.25079651E-02 -3.17424033E-02
 -5.12531099E-02 -3.69887107E-02 -1.24464485E+00  6.49666586E-01  5.35095565E-01
 -6.42535852E-01 -5.64322146E-01 -2.73575829E-01 -3.48910148E-01 -6.59980705E-02
 -2.96347984E-03  1.18283733E-02  1.36495916E-02 -4.91170486E-03  3.35029773E-03
 -2.02800621E-01  4.69942937E-01  4.62375450E-01 -1.71033671E-01  7.82227661E-02
 -1.00601641E-03 -3.31358857E-03  1.53903203E-02  1.70011614E-02 -3.44253679E-03
  8.22354442E-02  2.94851438E-03  2.72982480E-02  6.48186695E-02 -1.24726967E+00
  6.53513269E-01  5.44844094E-01 -6.28427602E-01 -5.71989460E-01 -1.01627951E-01
  3.88270950E-02  4.34243260E-01  1.12440840E-02  6.15163507E-03  1.29358777E-02
 -2.38472653E-03 -5.47201279E-03  4.16284423E-01  2.23928215E-01  4.33030834E-01
 -6.15003873E-02 -3.05837398E-01 -4.44890030E-05 -1.38449748E-04  1.72023174E-02
  3.77475833E-02  4.71959949E-02  8.95630135E-04  5.73249288E-02  1.32895386E-01
  1.76674189E-01  5.34531582E-03 -1.57557442E-01 -3.57261278E-01 -4.63746169E-01
  9.16787375E-03  1.27349418E-01  2.86255113E-01  3.68008693E-01 -8.30835019E-02
  3.19879877E-02  2.26136397E-03 -1.40474161E-02  5.02850209E-02  4.57949392E+00
 -1.80154722E+00 -1.96072086E-01  8.04055596E-01 -2.84316871E+00 -1.58649015E-05
 -4.02388040E-05 -1.70171294E-02 -3.79916089E-02 -4.84729295E-02  1.00718827E-03
 -5.90457040E-02 -1.33725395E-01 -1.73342939E-01 -1.15032111E-03  1.58187328E-01
  3.57785463E-01  4.63138089E-01 -9.05969842E-03 -1.24279171E-01 -2.83748629E-01
 -3.71106432E-01 -8.18687937E-02  3.24752386E-02  3.99700479E-03 -1.45776336E-02
  5.10828697E-02  4.57682183E+00 -1.80391882E+00 -2.00699159E-01  8.05244882E-01
 -2.84320373E+00  2.03800660E-03  3.04578718E-03  1.02441948E-02  2.53511097E-02
  3.59405813E-02  5.77090811E-02 -3.46158108E-02  1.46557416E-02  1.51806520E-01
 -3.20972383E+00  3.70391498E-01  1.05478861E+00  1.67585879E+00  5.57016874E-01
 -1.39910462E-01 -3.60025345E-01 -5.28391172E-01 -5.66557029E-03 -7.23826336E-03
 -9.79603342E-03  1.69515825E-03  7.09762429E-03 -3.56065806E-01 -3.26487719E-01
 -5.42253987E-01  1.08621980E-01  2.40507931E-01 -2.23968191E-03 -3.44554701E-03
  1.36862577E-02  2.83024701E-02  3.28354476E-02 -5.39637917E-02  9.52876865E-02
  1.22345819E-01  2.52155522E-02  3.20246486E+00  6.70308157E-01  1.30062690E+00
  1.37540917E+00 -5.59250015E-01 -2.00736121E-01 -4.10096486E-01 -4.68016954E-01
 -2.73167388E-03  1.05058754E-02  1.00662018E-02 -3.12795905E-03 -2.01151214E-03
 -7.35076889E-02  4.93285566E-01  5.57372972E-01 -1.82844123E-01  2.43244599E-02
  2.20132535E-03  3.37443167E-03 -1.00438641E-02 -2.52660411E-02 -3.63484164E-02
  5.44869030E-02  3.47446944E-02 -1.47011020E-02 -1.52337916E-01 -3.20442428E+00
 -3.67130864E-01 -1.05012414E+00 -1.67330101E+00  5.57928583E-01  1.38757669E-01
  3.58703245E-01  5.28447083E-01 -5.68167864E-03 -7.19128089E-03 -9.71151460E-03
  1.65637565E-03  7.19935662E-03 -3.57194696E-01 -3.24038747E-01 -5.39186555E-01
  1.07310156E-01  2.42889491E-01 -2.05632971E-03 -3.08336281E-03 -1.32356882E-02
 -2.78329138E-02 -3.30208500E-02 -5.71690180E-02 -9.46781474E-02 -1.21607306E-01
 -2.51813027E-02  3.20598507E+00 -6.69064464E-01 -1.30133688E+00 -1.38173620E+00
 -5.57557210E-01  1.99816325E-01  4.09615379E-01  4.69745738E-01 -2.60691397E-03
  1.04848917E-02  1.01486597E-02 -3.15016696E-03 -1.94710807E-03 -6.88337868E-02
  4.93475609E-01  5.60300308E-01 -1.83200379E-01  2.33072858E-02 -1.06601362E-07
 -3.16746484E-07 -1.48578518E-04  1.43977054E-04 -4.03876753E-05  3.74066404E-06
  2.53164054E-04 -2.34709821E-04  7.26355884E-05  1.48715569E-06 -3.07250060E-04
  1.47916618E-04 -1.92307654E-04  9.71573840E-07 -6.48839974E-05  7.13726264E-05
 -6.00311620E-06  2.42024810E-01  4.99261196E-01 -2.72879381E-01  4.47091260E-01
  2.18757124E-01 -1.01279528E-01 -2.09565953E-01  1.14450357E-01 -1.87615112E-01
 -9.19473794E-02 -1.31982409E-07 -3.30349416E-07  4.49604102E-05 -5.87503737E-05
  6.18331413E-06  1.12429614E-06 -9.01381927E-05  9.57634656E-05 -2.62803061E-05
  1.88479226E-05  1.24448650E-04 -3.25693136E-05  9.29753941E-05 -6.50731608E-07
  1.62655064E-05 -3.43094843E-05 -1.41266657E-05  2.41998316E-01  4.99139006E-01
 -2.72829046E-01  4.46959957E-01  2.18689407E-01 -1.01136759E-01 -2.09255445E-01
  1.14284069E-01 -1.87358245E-01 -9.18088406E-02  6.64211505E-07  1.25872344E-06
 -1.00147581E-02  8.43913938E-03 -3.09345372E-03 -7.68157692E-06  2.75784196E-02
 -2.32395284E-02  8.54167733E-03 -1.41710568E-04 -3.53434403E-03  3.06832029E-03
 -1.03389538E-03  9.69500651E-05  5.68833790E-02 -4.79573576E-02  1.75496527E-02
  3.75092201E-03  6.87293255E-03 -5.25601426E-03  1.34122168E-03  2.42874033E-03
  5.10802692E-02  9.51980609E-02 -6.97353015E-02  2.85524462E-02  3.48613520E-02
 -7.73977372E-07 -1.46783349E-06  9.98622824E-03 -8.40777190E-03  3.08978491E-03
  9.90249268E-06 -2.75364818E-02  2.32137163E-02 -8.52018321E-03  1.33431883E-04
  3.53375671E-03 -2.91379104E-03  1.16832025E-03 -9.46110625E-05 -5.67089864E-02
  4.77260634E-02 -1.75680752E-02  1.54525961E-03  4.05537426E-03 -7.11951088E-04
  8.46128763E-03  2.36169995E-03  2.50763416E-02  6.19512128E-02 -1.61392732E-02
  1.12214746E-01  3.40097426E-02  1.60390404E-09 -3.23819874E-08  9.99944344E-03
 -8.42848347E-03  3.09265539E-03  4.02056552E-06 -2.75760760E-02  2.32365616E-02
 -8.53875494E-03 -1.73076691E-04  3.73471613E-03 -3.22139286E-03  1.06635068E-03
  4.11047042E-05 -5.68213668E-02  4.79034193E-02 -1.75476916E-02  3.75044275E-03
  6.86921878E-03 -5.25854716E-03  1.32237342E-03  2.42531338E-03  5.11278835E-02
  9.52466618E-02 -6.98400943E-02  2.83255576E-02  3.48497284E-02 -1.61453418E-07
 -2.86913207E-07 -1.00079231E-02  8.43105522E-03 -3.09828409E-03 -3.13286509E-07
  2.75691498E-02 -2.32383286E-02  8.52974759E-03  1.52392384E-04 -3.65709309E-03
  2.99096380E-03 -1.19821196E-03 -5.00653352E-05  5.68106412E-02 -4.78289897E-02
  1.75989264E-02  1.55228168E-03  4.06754391E-03 -7.22912121E-04  8.45873076E-03
  2.36534942E-03  2.51755501E-02  6.21506137E-02 -1.62542190E-02  1.12384903E-01
  3.40941501E-02 -1.38677531E-02 -3.61676432E-02  4.39624604E-01  3.61171621E-01
 -4.37437849E-01  5.62459650E-02 -6.93996225E-01 -5.68743715E-01  6.94405409E-01
  1.78293597E+00 -9.51079844E-02 -7.50048711E-02  1.03209627E-01  3.75277845E-02
 -9.93035902E-03 -8.48159631E-03  9.00076171E-03 -2.53002037E-01  3.92052836E-02
 -2.75978755E-01  1.09637027E-01 -3.77904341E-01  3.08550031E-01 -9.76220749E-02
  2.91029142E-01 -1.24057552E-01  4.98008816E-01 -1.38765907E-02 -3.61822099E-02
 -4.43225563E-01 -3.69382085E-01  4.26608481E-01  5.58569998E-02  7.02111941E-01
  5.86682498E-01 -6.71554045E-01  1.78667800E+00  9.94866177E-02  8.41006956E-02
 -9.25053588E-02  3.44072362E-02  1.04438069E-02  8.82324882E-03 -9.73367315E-03
 -2.49709775E-01  3.79126206E-02 -2.76054861E-01  1.10187849E-01 -3.79822859E-01
  2.92998327E-01 -9.06974404E-02  2.92903532E-01 -1.27205245E-01  5.08177223E-01
 -1.15416581E-02 -2.28042009E-02  1.76284725E-02  8.22564346E-03 -3.45855450E-02
  2.48223394E-01 -7.22594083E-03 -6.77130280E-04  2.15214558E-02 -1.08029285E+00
 -7.18727053E-02  1.38010941E-01  6.08251548E-01 -3.30407400E-01 -2.63115484E-02
 -1.19865356E-02  5.24092958E-02 -3.29117700E-05  6.63500475E-05 -1.40233320E-03
  8.76348152E-04 -3.65414393E-03 -2.41850086E-02 -3.40558069E-02 -9.23002813E-02
  3.70940008E-02 -8.64513459E-02 -1.16125317E-02 -2.29212187E-02  2.69870173E-02
  2.87972676E-02 -8.80762378E-03  2.47794754E-01 -1.35052902E-02 -1.58604588E-02
  4.67139729E-04 -1.06511302E+00 -3.42808878E-01 -4.79072255E-01 -1.96663888E-01
 -3.22460370E-01 -3.84908014E-02 -4.07116825E-02  1.35472996E-02 -3.10409167E-03
  1.31132664E-03 -1.32715087E-03  3.85204103E-04 -2.00274161E-03 -9.36361703E-02
 -6.65683631E-03 -8.97314415E-02  2.51767077E-02 -4.46133301E-02 -1.16406795E-02
 -2.29750500E-02 -1.79735848E-02 -8.35623083E-03  3.53362502E-02  2.48130262E-01
  6.86342980E-03  1.10089230E-03 -1.91810443E-02 -1.05954418E+00  7.27214127E-02
 -1.33517548E-01 -5.98706645E-01 -3.26833654E-01  2.58758274E-02  1.16205881E-02
 -5.19791339E-02 -2.45588554E-04  2.22144949E-04 -1.41415400E-03  8.78442754E-04
 -3.79568703E-03 -2.29891435E-02 -3.30264922E-02 -9.10948508E-02  3.70862732E-02
 -8.86322473E-02 -1.15307480E-02 -2.27863213E-02 -2.64164024E-02 -2.81741873E-02
  8.65155988E-03  2.48296601E-01  1.48500651E-02  1.77078766E-02  2.30342893E-04
 -1.08880839E+00  3.48429384E-01  4.87831655E-01  2.02402689E-01 -3.27918176E-01
  3.91276229E-02  4.14691464E-02 -1.35264933E-02 -3.10561184E-03  1.25325479E-03
 -1.29406281E-03  3.43101624E-04 -1.73922150E-03 -9.17913527E-02 -8.50009902E-03
 -9.06731370E-02  2.56223949E-02 -4.45089170E-02  1.59928114E-04  3.94749155E-04
 -2.40892887E-01 -5.41271544E-01 -6.95545292E-01 -1.71037985E-03  5.31559828E-01
  1.19711545E+00  1.54225057E+00 -2.25391037E-02  2.08006265E-01  4.66829631E-01
  5.99099634E-01  4.41879179E-03  4.97537525E-03  8.37618989E-03  6.73224019E-03
 -2.62593958E-01  1.04035841E-01  1.37841207E-02 -4.73960532E-02  1.67315815E-01
  1.15082194E+00 -4.55778399E-01 -5.56585209E-02  2.04858713E-01 -7.21287998E-01
  1.17090133E-04  3.26761424E-04 -2.34354470E-01 -5.36036546E-01 -7.02420979E-01
 -2.31372733E-03  5.21458331E-01  1.18926244E+00  1.55351231E+00 -1.33055108E-02
  2.01817062E-01  4.60714905E-01  6.02447394E-01 -4.95177742E-03  2.74818750E-03
  6.76070619E-03  9.52963150E-03  2.66610566E-01 -1.04523659E-01 -9.31811457E-03
  4.56524059E-02 -1.61553421E-01 -1.16268241E+00  4.56274251E-01  4.66569173E-02
 -2.02632283E-01  7.17608493E-01  8.18254872E-03  1.45929922E-02 -2.46918113E-02
 -9.23520322E-03  5.46624133E-02 -2.06649327E-02 -3.03830792E-02  2.41664479E-02
  1.64047653E-01 -1.42920496E+00  3.92067572E-02  2.97542618E-01  6.83789875E-01
 -1.88868411E-01 -4.69861928E-02 -6.30973116E-02 -1.99727805E-02  1.31159537E-02
 -1.06910804E-02  1.94387784E-04 -1.94733465E-04  1.05299221E-02 -1.16201729E-01
 -6.43660949E-02 -9.12356048E-02 -1.72896566E-03  1.65174151E-01 -7.92160372E-03
 -1.40684358E-02  3.97981510E-02  4.40250787E-02 -8.73830889E-03  1.49864878E-02
  9.88801611E-02  1.31229215E-01  3.77787548E-02  1.45442785E+00  3.40414089E-01
  5.49837570E-01  3.97049542E-01  1.96865952E-01  1.27498250E-02 -1.29477794E-02
 -7.64806314E-02  4.89283419E-04  5.24768149E-03 -8.53011667E-04  2.59679119E-03
 -1.88883238E-02 -1.26490750E-01  1.57685712E-01  9.99689672E-02 -4.06555994E-02
 -1.21564987E-02 -7.96375976E-03 -1.41589962E-02 -2.43547985E-02 -9.04709279E-03
  5.40796329E-02  1.58713361E-02 -3.03125506E-02  2.44318910E-02  1.64532599E-01
  1.45527447E+00  3.37861846E-02  2.96594618E-01  6.98568247E-01  1.93444535E-01
 -4.57545001E-02 -6.20221340E-02 -2.10179394E-02 -1.30626859E-02  1.06066272E-02
 -2.45439049E-04  2.09960961E-04 -1.04912454E-02  1.17931808E-01  6.23443114E-02
  9.02738291E-02  2.08950742E-03 -1.64477294E-01  8.17033949E-03  1.45619345E-02
  4.03274617E-02  4.46183004E-02 -8.82835428E-03 -2.00928795E-02  9.90488669E-02
  1.31356996E-01  3.75900760E-02 -1.43617513E+00  3.31503795E-01  5.40828894E-01
  4.01470341E-01 -1.88607534E-01  1.29369097E-02 -1.37540557E-02 -7.92866943E-02
 -5.22291703E-04 -5.32371843E-03  7.84903747E-04 -2.59186840E-03  1.90027729E-02
  1.25488665E-01 -1.59822843E-01 -1.02195340E-01  4.09391296E-02  1.47195254E-02
 -2.92059289E-08 -6.88160041E-08  1.97591852E-06 -7.83844887E-05 -6.79605900E-05
  5.24934827E-07  3.83685272E-05  1.39899831E-04  1.64829971E-04 -4.31527461E-06
  2.14678930E-04  3.70489203E-06  2.26314085E-04 -3.94869387E-07  7.25791416E-06
  1.55145850E-05  2.13466840E-05 -2.55145456E-01 -5.26205989E-01  2.87683550E-01
 -4.71004595E-01 -2.30524567E-01  2.37175373E-01  4.88975643E-01 -2.67165532E-01
  4.38358905E-01  2.14238070E-01 -8.52537054E-08 -1.87751935E-07  8.94477388E-05
 -8.19216556E-05  2.30154568E-05  9.54092455E-07 -1.83202787E-04  1.72961520E-04
 -4.14207956E-05  1.13115571E-05 -1.23989325E-04  3.67402536E-06 -1.22122163E-04
  1.11960448E-07 -5.76669593E-06 -1.44678955E-05 -1.86554847E-05  2.55112041E-01
  5.26223610E-01 -2.87588863E-01  4.71335455E-01  2.30577363E-01 -2.37247883E-01
 -4.89294782E-01  2.67551940E-01 -4.37793455E-01 -2.14338656E-01 -2.05435758E-07
 -5.86947797E-07  1.34049735E-02 -1.12955622E-02  4.14934567E-03  1.87186730E-05
 -1.70577503E-02  1.43751647E-02 -5.26185075E-03 -2.30161457E-04 -1.51088397E-01
  1.27321505E-01 -4.66179742E-02 -7.67246963E-05 -1.82135065E-03  1.52428475E-03
 -5.59845363E-04 -2.59559337E-03 -4.83763635E-03  3.54431614E-03 -1.43956938E-03
 -1.76799836E-03 -2.42043443E-03 -1.09332560E-02 -4.38997668E-03 -4.30877147E-02
 -8.80916451E-03  1.82312579E-07  5.38202428E-07 -1.34073707E-02  1.12998959E-02
 -4.14829159E-03 -1.79932106E-05  1.69757428E-02 -1.42853256E-02  5.25452238E-03
  2.26159601E-04  1.51323270E-01 -1.27353950E-01  4.68313072E-02  7.80382087E-05
  1.71142635E-03 -1.43559686E-03  5.20737869E-04 -1.27465447E-03 -3.14414839E-03
  8.24112422E-04 -5.68817879E-03 -1.72724666E-03 -1.76171420E-02 -3.02441818E-02
  2.70226551E-02  6.57697090E-03 -9.17081903E-03 -9.49125212E-07 -1.85182818E-06
  1.34278676E-02 -1.13161306E-02  4.15847882E-03  1.64823851E-05 -1.70190039E-02
  1.43372126E-02 -5.26052436E-03 -4.60352024E-05 -1.51195619E-01  1.27412355E-01
 -4.68044771E-02 -5.02618446E-05 -1.73322846E-03  1.45777057E-03 -5.42106617E-04
  2.58789777E-03  4.82265124E-03 -3.53102226E-03  1.43960763E-03  1.76397458E-03
  2.34782377E-03  1.08616379E-02  4.49061014E-03  4.31854471E-02  8.80660379E-03
  9.03446439E-07  1.74885336E-06 -1.34044086E-02  1.13000999E-02 -4.14826091E-03
 -1.51820284E-05  1.70508921E-02 -1.43613978E-02  5.27296205E-03  4.02203442E-05
  1.51117632E-01 -1.27363127E-01  4.67625701E-02  4.73648704E-05  1.78682941E-03
 -1.51155116E-03  5.50335553E-04  1.27548544E-03  3.15054645E-03 -8.22434924E-04
  5.71371154E-03  1.73147966E-03  1.75841870E-02  3.02846850E-02 -2.69361501E-02
 -6.20187394E-03  9.23913330E-03 -4.61509989E-05 -6.13336438E-05 -2.28319735E-01
 -5.16535265E-01 -6.68818095E-01 -1.99381878E-03  5.20334639E-01  1.17852638E+00
  1.52791159E+00  1.42328443E-02 -4.94058670E-01 -1.11341382E+00 -1.43550581E+00
 -3.19777903E-03  1.08725407E-01  2.47818975E-01  3.23516349E-01 -3.50481380E-01
  1.37731690E-01  1.44847263E-02 -6.12668523E-02  2.16915401E-01  1.57494492E+00
 -6.15530093E-01 -6.12875268E-02  2.74233184E-01 -9.74725632E-01  1.71570567E-05
 -1.14496464E-05  2.27095698E-01  5.15400291E-01  6.69677404E-01  3.44510380E-03
 -5.19553313E-01 -1.17767113E+00 -1.52809366E+00 -1.38063626E-02  4.86018322E-01
  1.10684961E+00  1.44361272E+00  3.18563450E-03 -1.10523699E-01 -2.49316079E-01
 -3.21781525E-01 -3.49400360E-01  1.38055867E-01  1.61559477E-02 -6.18580722E-02
  2.18009321E-01  1.56847176E+00 -6.21493228E-01 -7.42673866E-02  2.78116178E-01
 -9.78130559E-01 -3.72592419E-04 -1.39990002E-03  1.27180315E-03  6.45114654E-03
  1.34597812E-02  1.03365044E-01  3.31077181E-03  4.46243031E-02  1.10858902E-01
 -1.48820442E+00 -2.44948419E-02  3.24535729E-01  9.63184588E-01  1.37232468E+00
  9.36096720E-02 -1.79479606E-01 -7.91476645E-01  6.31480159E-05  5.23332769E-03
  7.23890483E-03 -2.50745002E-03  2.14292784E-03 -2.55901805E-01  8.46739481E-02
 -4.23939944E-02 -1.80288814E-02  7.38437453E-02  2.96861154E-04  1.24115393E-03
  6.21227272E-03  1.05476189E-02  8.64673026E-03 -1.01456169E-01  5.51576145E-02
  8.74196822E-02  5.97833919E-02  1.47513424E+00  4.99033664E-01  7.56433535E-01
  4.47048599E-01 -1.38092887E+00 -4.51983273E-01 -6.31933315E-01 -2.60082445E-01
 -5.17361522E-03 -3.13366745E-03 -6.93335186E-03  1.58974978E-03  9.80147529E-04
 -1.70467336E-01  8.47763214E-02  6.23820226E-02 -5.72645405E-02  1.89972275E-01
 -2.97287793E-04 -1.23847901E-03 -1.32140930E-03 -6.49465765E-03 -1.34168061E-02
  1.01354884E-01 -3.00013928E-03 -4.42875354E-02 -1.10913225E-01 -1.47530362E+00
  2.19337375E-02 -3.25143813E-01 -9.56442016E-01  1.38089061E+00 -9.35760669E-02
  1.80344266E-01  7.93655858E-01  1.12422324E-04  5.14400205E-03  7.16963718E-03
 -2.48179405E-03  2.15021599E-03 -2.54757220E-01  8.29972348E-02 -4.35175827E-02
 -1.76130387E-02  7.41723443E-02  3.73524606E-04  1.40021342E-03 -6.20203357E-03
 -1.05227043E-02 -8.61318448E-03 -1.03306418E-01 -5.49358065E-02 -8.73275579E-02
 -6.02804172E-02  1.48708411E+00 -5.03419516E-01 -7.61427230E-01 -4.46581555E-01
 -1.37246077E+00  4.50804193E-01  6.30126091E-01  2.59032538E-01 -5.23666426E-03
 -3.18481482E-03 -6.99875562E-03  1.59112870E-03  1.07913206E-03 -1.71274892E-01
  8.37719095E-02  6.12177402E-02 -5.71608897E-02  1.91511696E-01  1.31621090E-06
  2.90928986E-06  2.90642574E-02 -2.44850044E-02  8.98616762E-03 -3.71125428E-05
  3.04966308E-02 -2.57223963E-02  9.46029103E-03  7.63925706E-06  6.17159655E-01
 -5.20045597E-01  1.90950385E-01 -2.63983260E-05 -1.30003489E-02  1.09483004E-02
 -4.01470340E-03  2.04412949E-01  2.60804780E-01 -4.21410673E-01 -6.62317753E-01
  5.74990706E-03 -2.12068176E-01 -2.70542317E-01  4.37292128E-01  6.87327046E-01
 -5.95317054E-03  3.67754377E-07  2.86247042E-07 -2.90300916E-02  2.44854081E-02
 -8.99728957E-03  3.11804845E-05 -3.05982824E-02  2.56952769E-02 -9.40685463E-03
 -8.95660940E-05 -6.17233981E-01  5.20032500E-01 -1.90912989E-01  3.25142682E-05
  1.29839284E-02 -1.09598330E-02  4.02939762E-03  2.04549883E-01  2.61062548E-01
 -4.21498156E-01 -6.62073095E-01  5.88034408E-03 -2.12277143E-01 -2.70937080E-01
  4.37345321E-01  6.87002806E-01 -6.13408880E-03  2.20227284E-07  4.48603149E-07
 -6.79920645E-03  5.72893639E-03 -2.10279833E-03 -3.21093600E-06  1.89194664E-02
 -1.59424834E-02  5.85690094E-03 -3.05895829E-05  3.84300944E-02 -3.24103787E-02
  1.19025353E-02 -7.76698235E-06 -7.51517771E-02  6.33306646E-02 -2.32516073E-02
  2.50654331E-03  3.90697162E-03 -4.32422162E-03 -3.53328501E-03  8.60381245E-04
  1.40807851E-02  1.35933166E-02 -3.42037329E-02 -7.38892594E-02 -4.46587381E-03
  2.22945852E-07  4.64292940E-07 -6.79985568E-03  5.72892343E-03 -2.10358094E-03
 -4.02722929E-06  1.89588545E-02 -1.59785655E-02  5.86598149E-03 -1.54520269E-05
  3.87510116E-02 -3.26589937E-02  1.20155902E-02 -1.14097732E-05 -7.52413321E-02
  6.33962242E-02 -2.32855871E-02  7.09054751E-04  1.94122519E-04 -2.30471767E-03
 -6.89025851E-03 -7.70247664E-04  2.52531804E-02  3.66344897E-02 -4.67936771E-02
 -5.32492646E-02  5.62904234E-03  2.92198272E-07  7.07600744E-07  6.81573911E-03
 -5.74249966E-03  2.11064355E-03 -1.11100299E-05 -1.89757246E-02  1.59875463E-02
 -5.87003023E-03  6.58074820E-05 -3.87057720E-02  3.25990479E-02 -1.19348179E-02
  2.16098689E-05  7.52468622E-02 -6.33901767E-02  2.32794661E-02  2.51332071E-03
  3.91747572E-03 -4.33678632E-03 -3.54695542E-03  8.61917466E-04  1.40897440E-02
  1.35814838E-02 -3.42191606E-02 -7.39287692E-02 -4.47491256E-03  2.98353312E-07
  7.32577463E-07  6.79588695E-03 -5.72900027E-03  2.10193971E-03 -1.21386789E-05
 -1.89191217E-02  1.59395693E-02 -5.85208392E-03  8.19770296E-05 -3.84796615E-02
  3.23615914E-02 -1.18993792E-02  1.44453827E-05  7.51702624E-02 -6.33315772E-02
  2.32472750E-02  7.03482844E-04  1.88539700E-04 -2.29136208E-03 -6.86287872E-03
 -7.69147557E-04  2.51977873E-02  3.65399471E-02 -4.67431588E-02 -5.33193020E-02
  5.59796685E-03 -1.38082147E-02 -4.64525906E-02 -5.12709843E-01 -4.24057708E-01
  5.02375204E-01  1.03903991E+00  1.91420527E+00  1.58368883E+00 -1.87431429E+00
  6.87256367E+00  3.99567130E+00  3.30609612E+00 -3.91140457E+00  5.44864194E+00
  1.01320736E+00  8.38731884E-01 -9.90840724E-01  1.24839715E-01  2.87861730E-01
  4.17758358E-01 -1.14275827E-01 -4.04329736E-02 -6.09227231E-01 -1.45426006E+00
 -2.08778010E+00  5.69571657E-01  2.24669054E-01  1.36939881E-02  4.62265782E-02
 -5.13855403E-01 -4.25547397E-01  5.01976006E-01 -1.03821504E+00  1.91709362E+00
  1.58717374E+00 -1.87405026E+00 -6.86700050E+00  3.99730410E+00  3.30960777E+00
 -3.90697424E+00 -5.44888904E+00  1.01337910E+00  8.38626446E-01 -9.91533390E-01
 -1.25868277E-01 -2.86832246E-01 -4.16623787E-01  1.13606039E-01  4.20061924E-02
  6.27914530E-01  1.44598424E+00  2.08640235E+00 -5.66210765E-01 -2.35050660E-01
  2.26878040E-03  6.27626283E-03  1.23467995E-02  2.06325333E-03 -3.42919785E-02
 -1.65608695E-01  4.03451004E-02  1.33509325E-02 -9.40515421E-02  1.76296682E+00
  3.19981521E-01  5.52854277E-02 -8.83884469E-01  7.42474793E-01 -3.57871387E-01
 -4.27504410E-01 -7.56719208E-03 -7.44304867E-03  4.25664420E-03 -5.20781562E-04
 -3.03638090E-04 -1.50807611E-03  1.52602280E-01 -8.57742452E-02 -1.29837601E-02
  2.12803103E-02 -3.27527308E-02  2.29868936E-03  6.34015233E-03  2.36902654E-02
  2.77992451E-02 -8.63668580E-04 -1.66493728E-01  6.83173182E-02  7.66131277E-02
 -1.21681379E-02  1.77301250E+00  6.14020448E-01  7.19537693E-01 -2.51692334E-02
  7.41729338E-01 -1.75452270E-01 -1.43795252E-02  5.27968420E-01  2.98617845E-03
  1.80540141E-04 -9.33826323E-04  1.51679720E-03 -7.98158352E-03 -1.15949525E-01
  2.04031412E-02 -7.14099676E-04 -2.61495027E-02  1.34260119E-01 -2.31754263E-03
 -6.38739627E-03  1.22979128E-02  1.91557695E-03 -3.45340614E-02  1.67212036E-01
  4.04306491E-02  1.34373900E-02 -9.40937923E-02 -1.77665783E+00  3.19994615E-01
  5.25433590E-02 -8.91203344E-01 -7.42261218E-01 -3.57433892E-01 -4.26638790E-01
 -6.61559386E-03  7.38866996E-03 -4.26719362E-03  4.72199098E-04  3.12573143E-04
  1.51410221E-03 -1.54343584E-01  8.54652369E-02  1.14594195E-02 -2.09978494E-02
  3.29421262E-02 -2.29856343E-03 -6.34586517E-03  2.37659738E-02  2.78757155E-02
 -8.97904743E-04  1.66543227E-01  6.80843851E-02  7.63306211E-02 -1.21859648E-02
 -1.76610404E+00  6.12492518E-01  7.17342747E-01 -2.60312629E-02 -7.43521698E-01
 -1.75197252E-01 -1.36237464E-02  5.29210232E-01 -2.99712821E-03 -1.48800360E-04
  9.61306714E-04 -1.52628426E-03  7.97432690E-03  1.15673698E-01 -2.01743982E-02
  6.85689134E-04  2.61418492E-02 -1.34529825E-01 -5.29655497E-02 -1.03834664E-01
  3.01242915E-01  2.49473018E-01 -2.94322282E-01  5.02285911E-01 -8.53847595E-01
 -7.06863468E-01  8.34960982E-01  1.98498165E+00 -7.82460246E-02 -6.44939149E-02
  7.73947627E-02 -9.99425614E-02 -1.80116489E-01 -1.49136576E-01  1.76047657E-01
  2.61657549E-01  1.28232244E-01  4.40772661E-01 -1.46872316E-01  2.67842272E-01
  8.61865504E-02 -3.22956210E-01 -1.86741191E-01  2.14074301E-02  3.65017854E-01
 -5.29801621E-02 -1.03933325E-01 -2.99856037E-01 -2.48119415E-01  2.93455677E-01
  5.04634940E-01  8.49031395E-01  7.02434874E-01 -8.31195922E-01  2.00462464E+00
  6.85507403E-02  5.64577166E-02 -6.78646154E-02 -8.52965796E-02  1.77405391E-01
  1.46801244E-01 -1.73638400E-01  2.62004896E-01  1.28891588E-01  4.41540953E-01
 -1.46976600E-01  2.67115451E-01  8.65202835E-02 -3.26837112E-01 -1.91138961E-01
  2.28075581E-02  3.65162086E-01 -1.30664700E-02 -3.14895648E-02 -3.06661138E-03
  2.76855845E-02  8.53228358E-02  4.38051341E-01  1.95353845E-02 -1.90128533E-02
 -1.14939276E-01 -1.39340591E+00 -3.55415437E-02  3.37689488E-01  1.03470973E+00
 -2.58109323E-01  3.31000549E-02  2.57805559E-02 -3.67979348E-02 -9.18591455E-03
  3.15956421E-03 -3.54187686E-03  6.38265537E-04 -2.77124509E-03 -4.61129632E-01
  5.27028176E-02 -2.64749396E-01  4.65612084E-02 -3.55348951E-02 -1.30661260E-02
 -3.14833945E-02 -4.50571511E-02 -6.74879789E-02 -3.81613801E-02  4.37971211E-01
  6.83944906E-02  9.16879442E-02  2.86335544E-02 -1.39505126E+00 -5.47174372E-01
 -8.20151571E-01 -4.64991822E-01 -2.56958147E-01  3.59254932E-02  3.16751568E-02
 -2.98741153E-02  1.56409348E-03 -1.05612164E-03 -3.98902499E-03  2.52254833E-03
 -9.45055928E-03  9.91607256E-02 -1.67368207E-01 -2.88372221E-01  1.44837302E-01
 -3.83430573E-01 -1.30567744E-02 -3.14632208E-02  3.06791219E-03 -2.76413390E-02
 -8.51986843E-02  4.37637938E-01 -1.97097953E-02  1.87823057E-02  1.14861317E-01
 -1.39186148E+00  3.58826185E-02 -3.37186464E-01 -1.03432570E+00 -2.56810871E-01
 -3.22858419E-02 -2.46644744E-02  3.71973894E-02 -9.19018894E-03  3.18440679E-03
 -3.51843183E-03  6.31476779E-04 -2.77769431E-03 -4.61173674E-01  5.32642698E-02
 -2.64064588E-01  4.63215015E-02 -3.53402516E-02 -1.30594384E-02 -3.14682508E-02
  4.50097271E-02  6.74359542E-02  3.81803705E-02  4.37547908E-01 -6.85568230E-02
 -9.19417661E-02 -2.88130546E-02 -1.38959062E+00  5.44571875E-01  8.17341875E-01
  4.65853559E-01 -2.55750550E-01 -3.50899316E-02 -3.10557382E-02  2.88534470E-02
  1.54864335E-03 -1.06557824E-03 -4.01129490E-03  2.52794215E-03 -9.45297546E-03
  9.78701527E-02 -1.67433335E-01 -2.88935887E-01  1.44768252E-01 -3.82491739E-01
  3.32083511E-02  5.72043419E-02 -1.12693417E-01 -9.29020901E-02  1.11252198E-01
 -7.36170304E-01  5.66177254E-01  4.67254228E-01 -5.57576304E-01  6.27140539E+00
  1.66472465E+00  1.37954813E+00 -1.62377389E+00 -6.81417056E-01 -7.05870741E-02
 -5.90401157E-02  6.73665827E-02 -3.82337176E-01  1.31324158E-01 -3.54063478E-01
  1.53487569E-01 -6.32053048E-01  4.64769749E-01 -2.84710604E-01  3.23244622E-01
 -1.66663479E-01  8.79399688E-01 -3.32472536E-02 -5.72883492E-02 -1.13348428E-01
 -9.42665352E-02  1.09656117E-01  7.36623766E-01  5.68689227E-01  4.72178918E-01
 -5.52224734E-01 -6.26992378E+00  1.66249892E+00  1.37430019E+00 -1.63089778E+00
  6.81423282E-01 -6.96642123E-02 -5.70547126E-02  6.97922871E-02  3.83400363E-01
 -1.31514286E-01  3.54463368E-01 -1.53453708E-01  6.31735177E-01 -4.80729729E-01
  2.90614637E-01 -3.22911761E-01  1.63937942E-01 -8.69226677E-01  5.36746491E-04
  4.64141659E-03  1.48044113E-04 -2.54414165E-02 -6.97814751E-02 -1.03959824E-01
 -5.97052238E-03  3.24291057E-02  1.07632779E-01 -2.98012783E-01 -1.09117319E-01
 -1.88724041E-01 -1.61244780E-01  1.49284556E-01 -6.17816869E-02 -5.75255583E-02
  4.30069479E-02  6.02707819E-03 -8.83518224E-04  1.91628590E-03  2.69052104E-04
 -2.81208349E-03  3.10685673E-01 -1.01550619E-02  1.71377049E-01 -1.77505707E-02
 -7.05121099E-02  5.22866165E-04  4.60460835E-03  3.57008240E-02  5.49590887E-02
  3.42766629E-02 -1.03051848E-01 -5.82104197E-02 -8.56714623E-02 -4.51658448E-02
 -3.10198144E-01  2.40406596E-02  1.15316938E-01  2.36419142E-01  1.56257120E-01
 -5.04490456E-02 -3.36696689E-02  7.13484382E-02 -4.24657072E-03  3.15598731E-03
  2.34278572E-03 -1.52733902E-03  3.54005434E-03 -1.31477666E-01  1.62570754E-01
  1.88563257E-01 -9.47604024E-02  2.03322403E-01 -5.24032213E-04 -4.61207171E-03
  3.58537213E-04 -2.51457937E-02 -6.96422115E-02  1.03280142E-01 -6.08984220E-03
  3.24533991E-02  1.08072641E-01  3.09577938E-01 -1.08735670E-01 -1.85701415E-01
 -1.54319798E-01 -1.56756215E-01 -6.16576112E-02 -5.91329726E-02  3.82618433E-02
 -5.97986716E-03  8.78198436E-04 -1.89083117E-03 -2.72324817E-04  2.80998104E-03
 -3.09322976E-01  1.08650293E-02 -1.69707531E-01  1.73872587E-02  7.02316452E-02
 -5.50540669E-04 -4.67492143E-03  3.57574069E-02  5.51939806E-02  3.47472226E-02
  1.04412858E-01 -5.80338098E-02 -8.54617134E-02 -4.51765284E-02  2.96877766E-01
  2.81594697E-02  1.22058408E-01  2.41394373E-01 -1.49475823E-01 -5.29331160E-02
 -3.74311206E-02  6.91669644E-02  4.25022951E-03 -3.16752008E-03 -2.37121863E-03
  1.54209496E-03 -3.58298107E-03  1.31595524E-01 -1.64154334E-01 -1.90885195E-01
  9.56411334E-02 -2.04555211E-01 -1.80292722E-05 -3.28876351E-05 -9.81798354E-02
 -2.21945444E-01 -2.87135425E-01  3.90483827E-04  4.18373501E-01  9.46512568E-01
  1.22557629E+00  2.57327565E-04  7.45675958E-04  1.19542171E-03  8.48058395E-04
  2.43531357E-03  2.20968171E-02  4.93230570E-02  6.29115140E-02  6.33025358E-01
 -2.48638460E-01 -2.66451140E-02  1.11006905E-01 -3.92990305E-01  4.99733771E-02
 -1.99360379E-02 -2.54225326E-03  8.92038399E-03 -3.11684847E-02  2.03171512E-05
  6.65291595E-05 -9.77135785E-02 -2.21618719E-01 -2.87750480E-01 -1.25536933E-03
  4.17191156E-01  9.45992509E-01  1.22797182E+00  1.00194338E-03  8.24194712E-04
  1.39639339E-03  1.13674539E-03 -2.53140666E-03  2.19824460E-02  4.93875665E-02
  6.34535519E-02 -6.32770611E-01  2.49662393E-01  2.79058098E-02 -1.11331035E-01
  3.92719263E-01 -5.03127048E-02  2.02655073E-02  3.00384027E-03 -9.18147619E-03
  3.19534546E-02 -7.37673825E-03 -2.07134354E-02 -2.00556202E-02  2.35383641E-02
  1.28954210E-01  3.51358132E-01  1.68736918E-02 -3.12518890E-02 -1.39673043E-01
 -1.10075844E+00 -1.60256123E-01  1.86673507E-01  1.02652339E+00  1.69273202E-01
  1.90512985E-02 -9.40020921E-02 -3.17625191E-01 -9.79311815E-03  2.61579560E-03
 -3.85945831E-03  4.55179802E-04 -8.79283009E-04 -5.23546582E-01  1.38786247E-01
 -1.81001015E-01  8.39606855E-03  1.95379744E-02  7.38282723E-03  2.07234316E-02
  7.58961371E-02  1.02912443E-01  3.49490752E-02 -3.51404093E-01 -7.98311353E-02
 -1.11258103E-01 -4.49638787E-02  1.10104087E+00  6.04928918E-01  8.19655219E-01
  2.76956010E-01 -1.69300809E-01 -1.72029412E-01 -2.52065190E-01 -1.30438634E-01
 -2.96244708E-03  2.39601816E-03  4.40287760E-03 -2.69533365E-03  8.81009000E-03
 -2.15504130E-01  1.51261185E-01  2.11928247E-01 -1.37971245E-01  4.39533821E-01
  7.37070453E-03  2.07051750E-02 -2.01229969E-02  2.34940783E-02  1.29027692E-01
 -3.51407878E-01  1.69789148E-02 -3.11268322E-02 -1.39656040E-01  1.10143084E+00
 -1.61195042E-01  1.85884065E-01  1.02730892E+00 -1.69346580E-01  1.93405533E-02
 -9.38370884E-02 -3.18090289E-01  9.77556009E-03 -2.62367291E-03  3.83827662E-03
 -4.50228567E-04  8.79472694E-04  5.23943623E-01 -1.39643433E-01  1.80242358E-01
 -8.11120751E-03 -1.96271204E-02 -7.38195531E-03 -2.07243844E-02  7.58852950E-02
  1.02953451E-01  3.51182288E-02  3.51547675E-01 -7.97061662E-02 -1.11167047E-01
 -4.51351735E-02 -1.10282494E+00  6.04934045E-01  8.20289248E-01  2.78756735E-01
  1.69231249E-01 -1.71904122E-01 -2.52104001E-01 -1.30963912E-01  2.95632808E-03
 -2.40665533E-03 -4.41480691E-03  2.69693758E-03 -8.79777529E-03  2.14932059E-01
 -1.52000329E-01 -2.13078638E-01  1.38221305E-01 -4.39231746E-01  2.57123316E-06
  1.76421582E-05  1.05907516E-01  2.39393477E-01  3.09676851E-01 -6.27390649E-05
 -4.87238388E-01 -1.10099843E+00 -1.42373154E+00 -1.32295856E-02 -6.75726317E-01
 -1.52635135E+00 -1.97295189E+00 -3.77904259E-03 -1.55467137E-01 -3.51307013E-01
 -4.54286077E-01 -6.76804206E-01  2.65952819E-01  2.88888714E-02 -1.18886886E-01
  4.20848090E-01  1.42240374E+00 -5.59314251E-01 -6.12697182E-02  2.50060975E-01
 -8.84925924E-01  1.15933008E-06  9.96469595E-06 -1.05055670E-01 -2.38614873E-01
 -3.10309602E-01 -1.67257310E-04  4.82684275E-01  1.09713453E+00  1.42792487E+00
  1.16316036E-02  6.68738276E-01  1.52061472E+00  1.97991225E+00  3.77752772E-03
  1.53938467E-01  3.50041707E-01  4.55780706E-01 -6.76816639E-01  2.67015324E-01
  2.98094617E-02 -1.19066183E-01  4.20039579E-01  1.42315129E+00 -5.61451750E-01
 -6.26436562E-02  2.50341239E-01 -8.83027842E-01  1.13962821E-02  2.91968750E-02
  3.41942664E-02 -8.55849848E-03 -1.33854244E-01 -4.50233851E-01 -4.39223096E-02
  3.08135829E-02  2.25918207E-01  6.97828805E-01  3.91601473E-01  1.40841155E-01
 -8.82234752E-01  1.26187951E+00 -4.12717331E-02 -7.96242615E-02 -8.35207106E-02
  1.12457088E-02 -8.93163463E-03 -2.29557103E-03  1.43264152E-03  2.14750640E-03
  4.77637210E-01 -2.37506516E-01  4.25414265E-02  2.69209516E-02  1.16296725E-02
 -1.14414995E-02 -2.92879100E-02 -8.54091133E-02 -1.07499278E-01 -1.66956180E-02
  4.51120513E-01  1.37679974E-01  1.81172206E-01  4.83855115E-02 -6.96971472E-01
 -6.46476436E-01 -7.18204525E-01  1.33585886E-01 -1.26085192E+00 -2.16263648E-02
 -6.31575240E-02 -1.02053654E-01  6.25538433E-03  2.06884678E-03  1.53380065E-03
  1.65574320E-03 -1.31161244E-02  2.42748789E-01 -4.55479470E-02 -7.33022201E-02
  9.96363156E-02 -4.59707263E-01  1.14265010E-02  2.92631183E-02 -3.42553476E-02
  8.50242482E-03  1.33883188E-01 -4.51075378E-01  4.41568881E-02 -3.06428958E-02
 -2.26189376E-01  6.97791829E-01 -3.92030412E-01 -1.41220292E-01  8.82597613E-01
  1.26125749E+00  4.14677697E-02  7.96178857E-02  8.27820938E-02  1.12473430E-02
 -8.96094582E-03 -2.30913996E-03  1.43119951E-03  2.20238226E-03  4.77912002E-01
 -2.38134572E-01  4.21708584E-02  2.70157424E-02  1.20829683E-02 -1.13952913E-02
 -2.91929092E-02  8.54095217E-02  1.07535932E-01  1.68090630E-02  4.50116305E-01
 -1.37317271E-01 -1.80824978E-01 -4.86325022E-02 -6.96817693E-01  6.46056616E-01
  7.17818053E-01 -1.33295180E-01 -1.26173748E+00  2.20559877E-02  6.37327753E-02
  1.02313960E-01  6.26868629E-03  2.03300905E-03  1.53241634E-03  1.64700584E-03
 -1.30291228E-02  2.42672746E-01 -4.61463357E-02 -7.37904043E-02  9.96785120E-02
 -4.58968886E-01 -4.16167906E-02 -5.10569365E-02 -4.03541510E-01 -3.33874423E-01
  3.95112653E-01  7.21023643E-01  1.82905323E+00  1.51333242E+00 -1.79071293E+00
 -9.92911657E-01  6.84995976E-01  5.67130256E-01 -6.69714776E-01  3.30770277E+00
  5.90929020E-01  4.89025572E-01 -5.78301317E-01  1.11404205E-02 -5.62839268E-01
 -4.99382468E-01  1.03333665E-01  4.38096606E-01 -4.41986908E-01 -4.55256324E-01
 -9.60872597E-01  2.93299983E-01 -2.70009162E-01  4.16136103E-02  5.10430552E-02
 -4.03710100E-01 -3.34266476E-01  3.94553911E-01 -7.20728812E-01  1.82975863E+00
  1.51485434E+00 -1.78869879E+00  9.93802906E-01  6.84825229E-01  5.66490565E-01
 -6.70670045E-01 -3.30768578E+00  5.91051908E-01  4.89255766E-01 -5.77942482E-01
 -1.03467899E-02  5.62543115E-01  4.99365559E-01 -1.03192322E-01 -4.38609657E-01
  4.39886660E-01  4.56255585E-01  9.61233592E-01 -2.93744468E-01  2.71406656E-01
  2.65648193E-03  8.85719061E-03  3.02090732E-02 -1.90616394E-02 -1.49575045E-01
 -2.23078086E-01 -2.24720630E-02  1.55525783E-03  7.68815111E-02  1.61661463E+00
  2.27597592E-01 -1.20260672E-01 -1.06336906E+00  2.92578612E-01 -1.06717324E-01
 -8.20850605E-02  1.21428526E-01  8.74044793E-03 -7.90514013E-03 -6.56552271E-03
  3.69631429E-03 -7.37403250E-03  2.93409762E-01 -9.36860668E-02  7.41282793E-02
  6.22317902E-03 -3.10475829E-02  2.68195121E-03  8.90335808E-03  9.14564415E-02
  1.19577947E-01  3.00488868E-02 -2.23486966E-01 -5.06167862E-02 -6.19568164E-02
 -5.12573005E-03  1.61437439E+00  6.57142245E-01  8.51422777E-01  1.94654180E-01
  2.93689612E-01 -1.15347511E-01 -1.01260416E-01  9.70985685E-02 -1.33600561E-02
  7.03591966E-04 -5.70871463E-03 -1.60381850E-04  6.38340267E-03 -1.48610968E-01
  7.91881358E-02  9.19267987E-02 -7.10658210E-02  2.43593570E-01 -2.67020226E-03
 -8.88119474E-03  3.04551346E-02 -1.87027536E-02 -1.49379804E-01  2.23294275E-01
 -2.27098925E-02  1.24754025E-03  7.68036396E-02 -1.61509757E+00  2.29484148E-01
 -1.17718854E-01 -1.06236543E+00 -2.94232939E-01 -1.07279921E-01 -8.30453601E-02
  1.20563408E-01 -8.70812704E-03  7.97567582E-03  6.65980405E-03 -3.72087287E-03
  7.34459145E-03 -2.93121125E-01  9.46440827E-02 -7.28914568E-02 -6.56701510E-03
  3.08323235E-02 -2.65826277E-03 -8.85993045E-03  9.14721894E-02  1.19763773E-01
  3.05159283E-02  2.23089733E-01 -5.04962542E-02 -6.19429903E-02 -5.48535481E-03
 -1.61664759E+00  6.56808135E-01  8.52252436E-01  1.98159620E-01 -2.92504492E-01
 -1.15432087E-01 -1.01764470E-01  9.59316477E-02  1.33368266E-02 -7.84440424E-04
  5.60921187E-03  1.83078720E-04 -6.34307700E-03  1.48187089E-01 -8.01709359E-02
 -9.32643711E-02  7.13820231E-02 -2.43237000E-01  4.66914520E-08  3.16094473E-08
  1.15268180E-05 -1.17037300E-05  2.58837161E-06  2.38105654E-08 -2.91883697E-05
  3.25583444E-05 -4.37387429E-06  4.74321361E-06  6.88863584E-05 -5.23940926E-05
  2.84149778E-05  4.39072422E-06 -2.67483235E-05  3.61152761E-05 -3.06356092E-06
 -8.91916217E-03 -1.84062715E-02  1.00538753E-02 -1.65008591E-02 -8.06813508E-03
  2.04608822E-02  4.22022183E-02 -2.30440701E-02  3.78744815E-02  1.84968875E-02
  5.50601129E-08  3.33967072E-08  3.26613246E-06 -3.11774897E-06 -1.04361108E-07
  2.54650259E-07 -3.14654027E-05  2.88220739E-05 -5.37217467E-06 -1.80214434E-06
 -6.43534565E-06  1.98349033E-05  2.89253797E-06 -4.15606873E-06  2.96141081E-05
 -2.96414694E-05  7.80769233E-06 -8.96528166E-03 -1.84780763E-02  1.01162460E-02
 -1.64959717E-02 -8.08904137E-03  2.05665843E-02  4.23979002E-02 -2.32049933E-02
  3.78703263E-02  1.85625766E-02 -2.73457901E-08 -6.23019672E-08 -4.68217092E-01
  3.94510711E-01 -1.44838295E-01  1.40030790E-06  5.66683289E-01 -4.77476499E-01
  1.75297579E-01 -1.09431713E-05 -3.50753392E-01  2.95539952E-01 -1.08492230E-01
 -1.02501203E-05  1.31512442E-01 -1.10813362E-01  4.06800474E-02  5.07652693E-03
  8.50548721E-03 -8.05940966E-03 -3.34145168E-03  2.39926604E-03  7.01328263E-03
  1.16096156E-02 -1.13069871E-02 -5.54376696E-03  3.15587315E-03  4.39861512E-08
  9.42952868E-08  4.67942891E-01 -3.94266888E-01  1.44750614E-01 -1.85977200E-06
 -5.66353187E-01  4.77182225E-01 -1.75192209E-01  1.19807993E-05  3.50548162E-01
 -2.95341134E-01  1.08437851E-01  7.50379752E-06 -1.31481573E-01  1.10774861E-01
 -4.06742094E-02  7.10225351E-05  2.11468784E-03  2.25545666E-03  1.28527480E-02
  2.25490153E-03 -2.65503800E-04  2.31644962E-03  3.69583844E-03  1.80114058E-02
  2.94761052E-03  8.16831243E-08  1.57706080E-07  4.68782561E-01 -3.94996446E-01
  1.45027722E-01 -2.17651562E-06 -5.67380084E-01  4.78074902E-01 -1.75531613E-01
  5.34429195E-06  3.51252818E-01 -2.95968163E-01  1.08673598E-01  8.49774960E-06
 -1.31795254E-01  1.11049169E-01 -4.07719774E-02  5.08523557E-03  8.51723671E-03
 -8.07102531E-03 -3.34690678E-03  2.40296981E-03  7.03091380E-03  1.16313340E-02
 -1.13274569E-02 -5.55120719E-03  3.16300455E-03 -6.21478942E-08 -1.20012730E-07
 -4.68798978E-01  3.95005574E-01 -1.45022505E-01  1.60313588E-06  5.67390498E-01
 -4.78078357E-01  1.75521651E-01 -3.70566675E-06 -3.51225105E-01  2.95943367E-01
 -1.08652239E-01 -1.01352789E-05  1.31752659E-01 -1.11008963E-01  4.07567908E-02
  7.60610134E-05  2.12595818E-03  2.25195290E-03  1.28728221E-02  2.25978651E-03
 -2.59875438E-04  2.32929616E-03  3.69556917E-03  1.80507341E-02  2.95315468E-03
  4.34524238E-08  2.95605844E-08  1.64433649E-06 -2.14510172E-06 -9.70731088E-08
 -8.91277829E-07  1.47302602E-04 -1.22811725E-04  4.80268874E-05 -1.87565383E-06
  3.42974110E-05 -6.26515876E-05 -2.34554545E-06  1.38012216E-05 -1.28803564E-04
  1.29904659E-04 -2.71422089E-05 -1.12443607E-02 -2.31857711E-02  1.26828520E-02
 -2.07307465E-02 -1.01548029E-02  4.44582786E-02  9.16712625E-02 -5.01203224E-02
  8.20483696E-02  4.01559553E-02 -2.20685419E-08 -1.78530152E-08  2.00855610E-05
 -1.61592887E-05  6.71228558E-06  8.60514608E-07  8.49439548E-05 -7.48218816E-05
  2.53976552E-05  2.25144243E-06  7.35201293E-05 -4.25129851E-05  5.36898032E-05
 -1.39664957E-05 -6.01835404E-04  4.92828367E-04 -2.04073937E-04  1.12460112E-02
  2.31892481E-02 -1.26944298E-02  2.06995255E-02  1.01533970E-02 -4.44755352E-02
 -9.17110312E-02  5.02140035E-02 -8.18254426E-02 -4.01524854E-02  4.91632180E-08
  9.02280474E-08 -4.70560896E-01  3.96478622E-01 -1.45557088E-01 -7.93253114E-07
  5.74770173E-01 -4.84281970E-01  1.77792420E-01 -6.56529714E-06 -3.91356377E-01
  3.29747546E-01 -1.21052916E-01  1.76799616E-05  1.82339581E-01 -1.53633951E-01
  5.63879872E-02  5.99404985E-03  1.05671990E-02 -8.89212310E-03 -5.49363270E-04
  3.41688280E-03  1.05380214E-02  1.82064891E-02 -1.60756241E-02 -3.37191221E-03
  5.59342642E-03 -5.95562726E-08 -1.12371302E-07  4.67775622E-01 -3.94120416E-01
  1.44699341E-01  1.16557208E-06 -5.71371523E-01  4.81404899E-01 -1.76745214E-01
  2.78454370E-06  3.89121717E-01 -3.27848958E-01  1.20372653E-01 -2.55986032E-05
 -1.81242163E-01  1.52683223E-01 -5.60675574E-02  1.39776155E-03  4.68187026E-03
  5.59828368E-04  1.42116985E-02  3.26549697E-03  1.51204871E-03  6.65319686E-03
  2.49102352E-03  2.56411870E-02  5.30009924E-03  7.28026619E-08  1.40140075E-07
 -4.70117513E-01  3.96114435E-01 -1.45443800E-01 -1.64707639E-06  5.74248822E-01
 -4.83853792E-01  1.77659012E-01 -5.40865022E-07 -3.91100989E-01  3.29531414E-01
 -1.20997865E-01  2.98063771E-05  1.82274177E-01 -1.53580030E-01  5.64097152E-02
 -5.99145303E-03 -1.05568407E-02  8.89195243E-03  5.79949371E-04 -3.41014843E-03
 -1.05345421E-02 -1.81907959E-02  1.60748090E-02  3.41882867E-03 -5.58296044E-03
 -5.95950895E-08 -1.12570861E-07  4.66759444E-01 -3.93292227E-01  1.44393388E-01
  1.19021414E-06 -5.70126042E-01  4.80388169E-01 -1.76369938E-01  4.21327449E-06
  3.88319260E-01 -3.27201229E-01  1.20124033E-01 -2.18065738E-05 -1.80876772E-01
  1.52426642E-01 -5.59536839E-02 -1.41130895E-03 -4.70015382E-03 -5.31342474E-04
 -1.41726464E-02 -3.26622625E-03 -1.53437451E-03 -6.68504394E-03 -2.44672859E-03
 -2.55927808E-02 -5.30372203E-03  4.08237706E-07  2.68213966E-07  3.03623432E-03
 -2.56056821E-03  9.40642453E-04 -1.86385768E-06  3.52291852E-02 -2.96768317E-02
  1.08946159E-02  2.68355829E-07  1.75976947E-02 -1.48388556E-02  5.44754891E-03
 -6.45748483E-06 -1.09983133E-01  9.26664013E-02 -3.40199611E-02 -3.00488646E-03
 -3.81502765E-03  6.21612647E-03  9.85596301E-03 -6.37004744E-05  1.20676914E-02
  1.53018532E-02 -2.50002988E-02 -3.97374494E-02  2.27010689E-04  4.89426462E-07
  2.84609350E-07  3.04491392E-03 -2.56378311E-03  9.40128548E-04 -3.00193417E-06
  3.52535194E-02 -2.97080270E-02  1.09106551E-02  1.73428649E-05  1.76616869E-02
 -1.48721068E-02  5.45354825E-03  3.34188854E-06 -1.10331569E-01  9.29660401E-02
 -3.41333339E-02  2.99713667E-03  3.79407784E-03 -6.21684924E-03 -9.91069615E-03
  4.91238552E-05 -1.20436700E-02 -1.52359669E-02  2.49779146E-02  3.98508528E-02
 -1.95866189E-04  4.12698295E-08  7.66242216E-08 -4.67625667E-01  3.94032239E-01
 -1.44653161E-01 -1.05726840E-06  5.72717069E-01 -4.82584642E-01  1.77162014E-01
  3.99008213E-06 -3.80254175E-01  3.20412050E-01 -1.17631181E-01  3.66036951E-06
  1.88417642E-01 -1.58761028E-01  5.82845570E-02  4.22182885E-03  7.79285433E-03
 -5.84572039E-03  1.88271537E-03  2.79751289E-03  6.95540920E-03  1.30137911E-02
 -9.42168393E-03  4.23853099E-03  4.80433632E-03  3.11525983E-08  5.69240666E-08
 -4.70856887E-01  3.96719635E-01 -1.45668439E-01 -8.25235743E-07  5.76670226E-01
 -4.85872741E-01  1.78403545E-01  3.29820962E-06 -3.82921462E-01  3.22635896E-01
 -1.18464008E-01 -3.19779041E-06  1.89702312E-01 -1.59838523E-01  5.86843899E-02
 -1.89936079E-03 -4.84822195E-03  1.03805320E-03 -9.52086911E-03 -2.75143324E-03
 -3.57218707E-03 -8.72653720E-03  2.41538317E-03 -1.53798241E-02 -4.73912064E-03
  1.06663138E-08  1.70345901E-08 -4.68231789E-01  3.94518326E-01 -1.44863412E-01
 -3.41550387E-07  5.73469737E-01 -4.83188947E-01  1.77421974E-01 -1.72380204E-06
 -3.80752489E-01  3.20811588E-01 -1.17796344E-01 -6.27221377E-06  1.88734408E-01
 -1.59027321E-01  5.83866981E-02 -4.22706994E-03 -7.80200064E-03  5.85463888E-03
 -1.87794065E-03 -2.79936849E-03 -6.96038493E-03 -1.30247695E-02  9.43172059E-03
 -4.23424465E-03 -4.80672372E-03  1.14673748E-08  1.87856703E-08 -4.71149698E-01
  3.96991938E-01 -1.45738392E-01 -3.39352525E-07  5.77031033E-01 -4.86207222E-01
  1.78490150E-01 -2.22356744E-06 -3.83208547E-01  3.22890139E-01 -1.18536099E-01
 -1.03958943E-06  1.89820150E-01 -1.59941388E-01  5.87201843E-02  1.90785928E-03
  4.86299876E-03 -1.04954028E-03  9.52360594E-03  2.75721502E-03  3.58470774E-03
  8.75065070E-03 -2.43174081E-03  1.53905151E-02  4.74981822E-03 -2.25181065E-06
 -1.35361406E-06  3.70394173E-03 -3.10862885E-03  1.13593724E-03  1.11672269E-05
  2.77628139E-02 -2.34201238E-02  8.61148879E-03 -6.79298538E-05  3.85140318E-02
 -3.23927048E-02  1.18661408E-02 -4.34000241E-05 -3.86575800E-01  3.25640373E-01
 -1.19527970E-01 -3.64390986E-03 -4.66006069E-03  7.52012726E-03  1.17947228E-02
 -1.00837756E-04  1.15305487E-02  1.47159427E-02 -2.37607760E-02 -3.73791679E-02
  3.25311800E-04 -2.10982650E-06 -1.31610362E-06 -3.70121428E-03  3.10656817E-03
 -1.13530178E-03  1.19475726E-05 -2.77338963E-02  2.33957946E-02 -8.60258872E-03
 -5.74898376E-05 -3.85035704E-02  3.23627841E-02 -1.18459671E-02  2.68822315E-05
  3.86468641E-01 -3.25567726E-01  1.19508673E-01 -3.64817601E-03 -4.66527735E-03
  7.51955474E-03  1.17867727E-02 -1.06580225E-04  1.15420364E-02  1.47394486E-02
 -2.37489506E-02 -3.72982617E-02  3.50948372E-04 -3.04623049E-07 -5.53498074E-07
 -4.70286778E-01  3.96096033E-01 -1.45472047E-01  7.62869812E-06  5.81783093E-01
 -4.90003050E-01  1.79958004E-01 -1.43944523E-05 -4.01918233E-01  3.38506899E-01
 -1.24298515E-01  4.02898231E-05  2.29595923E-01 -1.93399457E-01  7.09914833E-02
  4.37855315E-03  8.44808712E-03 -5.63836018E-03  4.27841026E-03  3.29995023E-03
  6.72464421E-03  1.30830856E-02 -8.54464023E-03  7.22594080E-03  5.18416341E-03
 -2.83593265E-07 -5.12093561E-07 -4.70099485E-01  3.96068049E-01 -1.45293165E-01
  7.15682228E-06  5.81563149E-01 -4.89975369E-01  1.79743177E-01 -1.89462836E-05
 -4.01843230E-01  3.38527881E-01 -1.24195869E-01  3.69108054E-05  2.29548782E-01
 -1.93367034E-01  7.09679179E-02 -2.87244878E-03 -6.51882965E-03  2.53079785E-03
 -9.15850620E-03 -3.26256447E-03 -4.66805331E-03 -1.04475336E-02  4.29528136E-03
 -1.39016932E-02 -5.13611757E-03 -2.38182533E-07 -4.36243337E-07  4.69552669E-01
 -3.95477832E-01  1.45258081E-01  6.20023354E-06 -5.80896220E-01  4.89256062E-01
 -1.79700302E-01 -1.39371856E-05  4.01419947E-01 -3.38082733E-01  1.24155064E-01
  4.57749134E-05 -2.29334874E-01  1.93178299E-01 -7.09096875E-02  4.38159200E-03
  8.44803619E-03 -5.64661732E-03  4.25118739E-03  3.29665562E-03  6.73322381E-03
  1.30894467E-02 -8.56263477E-03  7.18117983E-03  5.18067233E-03 -2.21883499E-07
 -4.03357987E-07  4.69923532E-01 -3.95934438E-01  1.45239646E-01  5.83911219E-06
 -5.81336420E-01  4.89802934E-01 -1.79674026E-01 -1.90283587E-05  4.01611631E-01
 -3.38344081E-01  1.24121291E-01  4.15731062E-05 -2.29461326E-01  1.93291914E-01
 -7.09404562E-02 -2.87954543E-03 -6.52591505E-03  2.54699667E-03 -9.12670475E-03
 -3.26061385E-03 -4.67792408E-03 -1.04546263E-02  4.32137804E-03 -1.38420215E-02
 -5.13069328E-03 -1.12009358E-02 -6.85030576E-03  3.77518240E-02  3.13183946E-02
 -3.67407172E-02  6.15482444E-02 -8.69670678E-02 -7.22304353E-02  8.43749851E-02
 -3.38271935E-01  2.21236498E-01  1.83675840E-01 -2.14950275E-01 -3.51541927E-02
 -2.09476482E-01 -1.73579246E-01  2.04805319E-01  1.54934168E-02 -5.29820343E-03
  1.42453860E-02 -6.15565997E-03  2.52998758E-02  3.22430677E-02  2.81745048E-02
  6.59684162E-02 -2.06911292E-02  2.46045624E-02 -1.12046642E-02 -6.85624844E-03
 -3.76547236E-02 -3.11137924E-02  3.69800568E-02  6.17114981E-02  8.65575670E-02
  7.13703058E-02 -8.53748075E-02 -3.39370288E-01 -2.20640178E-01 -1.82166695E-01
  2.17095194E-01 -3.32817350E-02  2.08975572E-01  1.72915106E-01 -2.05021643E-01
  1.52931236E-02 -5.22641806E-03  1.42694720E-02 -6.19590035E-03  2.54695690E-02
  3.31333419E-02  2.77815670E-02  6.57918935E-02 -2.04734708E-02  2.38504174E-02
 -1.25470301E-03 -2.27666521E-03 -3.88689706E-01 -4.92369796E-01 -8.41262441E-02
  3.21842019E-02  4.83349126E-01  6.07920109E-01  9.27441624E-02 -7.58743095E-02
 -3.72041594E-01 -4.24757164E-01  4.61587323E-02  2.03035393E-01  1.59498281E-01
  1.42490066E-01 -1.27730054E-01 -8.10237766E-03  1.06705745E-02  2.22653591E-03
  1.72892590E-04 -1.29737436E-02 -2.78666863E-02  2.18077374E-02  1.80807308E-03
 -1.28397974E-03 -1.40753146E-02 -1.24685265E-03 -2.26186125E-03 -1.49424227E-01
  4.59053574E-02  6.08568061E-01  3.20196187E-02  1.91840999E-01 -4.77489418E-02
 -7.50826199E-01 -7.56284862E-02 -2.07899792E-01 -5.62777457E-02  5.19216605E-01
  2.06054108E-01  1.45092428E-01  1.10613627E-01 -1.67999467E-01 -2.71307744E-03
  8.45057517E-03  1.84363248E-03  1.17653506E-03 -1.63798881E-02  7.71372521E-03
  7.66875690E-03  7.04449803E-05  5.04332093E-03 -3.62397038E-02 -1.24567748E-03
 -2.25969390E-03  3.85406191E-01  4.88796049E-01  8.49066631E-02  3.19938443E-02
 -4.79252796E-01 -6.03479969E-01 -9.37694263E-02 -7.55833457E-02  3.69066246E-01
  4.21458437E-01 -4.55880866E-02  2.06202297E-01 -1.58313753E-01 -1.40575240E-01
  1.29150557E-01 -8.13223260E-03  1.05746031E-02  2.07377711E-03  2.21722712E-04
 -1.30109383E-02 -2.79932426E-02  2.17016962E-02  1.59827143E-03 -1.23328958E-03
 -1.40533671E-02 -1.25294561E-03 -2.27310172E-03  1.51540656E-01 -4.49747566E-02
 -6.12967589E-01  3.21315060E-02 -1.94508756E-01  4.65534481E-02  7.56307648E-01
 -7.54121688E-02  2.09588414E-01  5.67807305E-02 -5.23362372E-01  2.03373192E-01
 -1.45029507E-01 -1.09699702E-01  1.70317198E-01 -2.61486028E-03  8.51913342E-03
  1.99627529E-03  1.13578900E-03 -1.63722904E-02  7.74344634E-03  7.80124863E-03
  2.78206884E-04  4.97097631E-03 -3.61728730E-02  1.04314192E-04  5.52199314E-05
  7.98391388E-03  1.84024279E-02  2.43135810E-02 -6.15513782E-04 -2.65708001E-02
 -6.07694650E-02 -7.96217150E-02  1.97318597E-03  8.74857997E-02  1.99659110E-01
  2.61004587E-01  1.27225017E-03 -2.97522263E-02 -6.80518260E-02 -8.91832503E-02
  2.06045425E-02 -8.20663830E-03 -1.20103951E-03  3.77665265E-03 -1.32892474E-02
 -5.40580004E-02  2.11636282E-02  2.27414888E-03 -9.50469876E-03  3.37863611E-02
  1.05059991E-04  5.62716587E-05  8.44575680E-03  1.87997459E-02  2.39027661E-02
 -6.78450827E-04 -2.74183137E-02 -6.15024581E-02 -7.88788731E-02  2.73415361E-03
  8.94658347E-02  2.01448662E-01  2.59474640E-01 -7.21371229E-04 -3.02156664E-02
 -6.82879705E-02 -8.83235601E-02 -2.10175091E-02  8.19226796E-03  6.04155009E-04
 -3.53657031E-03  1.25352002E-02  5.33957975E-02 -2.11505352E-02 -2.32774425E-03
  9.34822357E-03 -3.28051546E-02 -6.73245349E-04 -1.25246695E-03 -4.08349896E-01
 -4.77591613E-01  1.92106004E-02  1.36870761E-02  5.14143995E-01  5.99895368E-01
 -2.80805455E-02 -1.40838198E-02 -3.70278478E-01 -4.35958655E-01  9.52787991E-03
 -3.45698188E-01  1.61048366E-01  2.61278558E-01  1.91050023E-01  2.07958698E-03
  1.71699841E-02  2.21381942E-02 -6.68350498E-03 -2.10968278E-04  8.02584265E-03
  1.92274510E-02  2.70118642E-02 -7.17536454E-03 -4.39897393E-03  6.79235011E-04
  1.26165852E-03  2.13503272E-01  3.50079123E-02 -5.94861111E-01 -1.38555859E-02
 -2.70885637E-01 -4.72911341E-02  7.46909405E-01  1.38612798E-02  1.90063045E-01
  2.63171828E-02 -5.42744047E-01  3.43543236E-01  1.68146554E-02  1.42122346E-01
  3.32753293E-01 -1.04845066E-02 -1.39167869E-02 -2.17723847E-02  5.18428535E-03
  5.60788722E-03 -7.08236893E-03 -1.95913726E-02 -2.69265280E-02  7.26626341E-03
  4.11132469E-03  6.78792691E-04  1.26081247E-03 -4.10811152E-01 -4.81730897E-01
  1.58658877E-02 -1.38533797E-02  5.17220533E-01  6.05022656E-01 -2.40269494E-02
  1.43146395E-02 -3.72363814E-01 -4.39085537E-01  7.74445263E-03  3.43905089E-01
  1.61537002E-01  2.61904990E-01  1.91167519E-01 -2.04315959E-03 -1.72233950E-02
 -2.21229353E-02  6.66516956E-03  3.51044056E-04 -7.72376705E-03 -1.92888677E-02
 -2.68467767E-02  7.13942106E-03  4.48927935E-03 -6.73117656E-04 -1.25213521E-03
  2.14447057E-01  3.78463530E-02 -5.90141217E-01  1.36904179E-02 -2.71973149E-01
 -5.07014900E-02  7.41086378E-01 -1.47847023E-02  1.90550199E-01  2.83364246E-02
 -5.38799669E-01 -3.45998442E-01  1.68451099E-02  1.41931949E-01  3.32137460E-01
  1.05839654E-02  1.38111252E-02  2.17610345E-02 -5.18683655E-03 -5.48426666E-03
  7.06949287E-03  1.95695991E-02  2.70199861E-02 -7.33471358E-03 -3.78659304E-03
  8.80338883E-05  5.37633561E-05  8.69761439E-03  1.96004137E-02  2.52693861E-02
 -1.52157478E-03 -2.48978593E-02 -5.38144627E-02 -6.60874959E-02 -2.05290508E-02
  1.36863339E-01  3.44244708E-01  4.95192037E-01  8.82666051E-02  3.37215026E-02
  5.60657743E-02  4.36834891E-02 -5.16973646E-02  2.02874239E-02  2.03656521E-03
 -8.98642293E-03  3.18007109E-02  4.41717816E-01 -1.71499126E-01 -1.59814897E-02
  7.65881978E-02 -2.73779368E-01 -1.19981101E-04 -6.51894576E-05 -8.58334430E-03
 -1.94862208E-02 -2.53280882E-02  1.64933641E-03  2.12947037E-02  5.07590198E-02
  6.94138096E-02  1.97143958E-02 -1.84640757E-01 -3.83803768E-01 -4.48494081E-01
 -8.84037942E-02 -5.66029120E-03 -3.28779925E-02 -7.12357993E-02 -5.12925486E-02
  2.02741376E-02  2.50991946E-03 -9.16326615E-03  3.23444274E-02  4.39607471E-01
 -1.75586757E-01 -2.23682351E-02  7.83907967E-02 -2.73808078E-01  6.87275865E-04
  1.33899573E-03 -4.10242728E-01 -4.61526207E-01  6.90924520E-02 -1.13022491E-02
  5.11297449E-01  5.81852595E-01 -6.80293025E-02 -3.42317556E-01 -3.09762081E-01
 -2.96230243E-01  1.94515044E-01 -4.25398118E-01  1.69752983E-01  2.40800191E-01
  1.07137224E-01 -2.02037568E-04  7.99297061E-05  6.37174454E-03 -3.94548175E-03
  1.60504668E-02  3.73749475E-03 -1.70236152E-02 -9.07927263E-03  4.21511198E-04
  2.25260216E-02 -7.15717805E-04 -1.40033505E-03  2.46290946E-01  7.71966883E-02
 -5.85928487E-01  1.23631049E-02 -2.97754122E-01 -8.18747818E-02  7.39553868E-01
  3.34599825E-01  2.56957585E-01  1.66694517E-01 -3.76662515E-01  3.92231523E-01
 -3.84794061E-02  6.63251905E-02  3.05041460E-01 -1.41503037E-02  5.57452518E-03
 -5.83452482E-03  1.47576071E-03 -7.36363275E-03 -7.79942116E-03  1.86051173E-02
  9.01419474E-03 -9.94091418E-04 -2.05614983E-02  7.15437033E-04  1.40062807E-03
  4.22084503E-01  4.76049131E-01 -6.77700488E-02 -1.23704047E-02 -5.26200203E-01
 -6.00148141E-01  6.63153380E-02 -3.34600292E-01  3.20550819E-01  3.11308135E-01
 -1.88252009E-01 -3.91857954E-01 -1.74777137E-01 -2.42755597E-01 -9.62200751E-02
 -1.70137906E-04  4.52491689E-05  6.42894296E-03 -3.98344313E-03  1.62474444E-02
  4.07383035E-03 -1.71740366E-02 -8.89827287E-03  3.55248825E-04  2.28649408E-02
 -6.85358620E-04 -1.33479458E-03 -2.40870293E-01 -7.76345021E-02  5.67167943E-01
  1.12506474E-02  2.90971911E-01  8.24783070E-02 -7.15929638E-01  3.42633161E-01
 -2.54648770E-01 -1.71184173E-01  3.56902241E-01  4.25739192E-01  3.03881483E-02
 -7.50822961E-02 -3.02737517E-01 -1.39988659E-02  5.51924714E-03 -5.74654437E-03
  1.44541400E-03 -7.22908155E-03 -7.65745907E-03  1.85727596E-02  9.25790554E-03
 -1.11525271E-03 -2.00867046E-02 -6.45849231E-03 -2.85052003E-03  1.55156087E-02
  1.30615724E-02 -1.45848188E-02  1.09815929E-01  2.58758488E-02  2.08100799E-02
 -2.69495248E-02  6.19849472E-01  1.47641740E+00  1.22466645E+00 -1.43707611E+00
 -5.34229803E+00 -8.49058571E-01 -7.01938998E-01  8.32722957E-01  2.31762102E-02
  1.24386080E-02  4.09262678E-02 -1.37713740E-02  2.51664168E-02 -8.55945427E-02
 -8.34468872E-02 -1.90252771E-01  6.11075268E-02 -7.70604390E-02  6.45711204E-03
  2.84891128E-03  1.51977274E-02  1.23713353E-02 -1.54253063E-02 -1.09746260E-01
  2.67322332E-02  2.27004482E-02 -2.46046858E-02 -6.19358478E-01  1.47271886E+00
  1.21619423E+00 -1.44797433E+00  5.34235912E+00 -8.50200032E-01 -7.04498330E-01
  8.29465536E-01 -2.51623024E-02 -1.16517699E-02 -4.08317793E-02  1.34143427E-02
 -2.39166553E-02  1.03652203E-01  7.63855899E-02  1.89537604E-01 -5.79354115E-02
  6.58196524E-02  8.67965515E-04  1.92234042E-03 -4.03025807E-01 -4.97523225E-01
 -5.23066949E-02 -3.26723907E-02  5.10532073E-01  6.29943374E-01  6.54613935E-02
  2.95368640E-01 -3.57028668E-01 -5.04930194E-01 -2.21177650E-01  1.15544131E+00
  1.90990790E-01  8.50205552E-02 -3.85835624E-01 -1.30492140E-03 -1.72779315E-04
  1.30018362E-03 -1.24605874E-03  6.00850628E-03  2.55468874E-03 -5.91739763E-03
 -7.34806131E-04 -9.72756892E-04  1.17517967E-02  8.49414917E-04  1.88394466E-03
 -1.66950618E-01  2.24370626E-02  6.00785875E-01 -3.23366241E-02  2.12340551E-01
 -2.72400704E-02 -7.60591954E-01  3.08050818E-01 -5.68663521E-02  1.61960181E-01
  6.24938321E-01  1.16559636E+00  2.90743780E-01  3.16081496E-01 -7.89660198E-02
  4.92000293E-03 -2.55421588E-03  9.20867753E-04 -5.86353080E-05  1.65281155E-03
  5.58626992E-03 -6.40784170E-03 -3.33837431E-04 -5.08256804E-04  9.06509087E-03
 -8.47991086E-04 -1.88130065E-03 -3.90340540E-01 -4.83633001E-01 -5.54785056E-02
  3.23082995E-02  4.94675058E-01  6.12344675E-01  6.87844693E-02 -3.08199682E-01
 -3.47605509E-01 -4.96722116E-01 -2.29261735E-01 -1.16602445E+00  1.85840681E-01
  7.83170295E-02 -3.87405313E-01  1.24777188E-03  1.20613125E-04 -1.19445142E-03
  1.14503226E-03 -5.48524410E-03 -2.52332943E-03  5.19548386E-03  1.93446606E-04
  1.04836675E-03 -1.09663052E-02 -8.68199513E-04 -1.92298792E-03 -1.75041465E-01
  1.90772398E-02  6.17789319E-01  3.26806833E-02  2.22134943E-01 -2.35444457E-02
 -7.82188133E-01 -2.95292139E-01 -6.57841925E-02  1.54985350E-01  6.34786070E-01
 -1.15550009E+00  2.92579754E-01  3.15235489E-01 -8.71697740E-02 -5.35982992E-03
  2.80224203E-03 -1.00963225E-03  7.49919689E-05 -1.87890663E-03 -5.79286493E-03
  7.19992052E-03  8.77049061E-04  4.03860784E-04 -9.75549845E-03  3.43857049E-02
  1.28118671E-02 -5.29777862E-02 -4.38531279E-02  5.18150554E-02 -1.25592154E-01
  6.96908113E-02  5.75657714E-02 -6.84981471E-02  9.24583599E-01 -2.95931775E-01
 -2.45424979E-01  2.88200708E-01  1.52994017E-01 -2.39628371E-01 -1.98299488E-01
  2.34532411E-01 -9.12190789E-02 -3.79344056E-04 -1.13178794E-01  4.26080829E-02
 -1.26471127E-01  7.38814907E-02 -1.61577920E-02  7.62050635E-02 -3.10556710E-02
  1.13663307E-01  3.43981399E-02  1.28360861E-02  5.28505768E-02  4.37371327E-02
 -5.17140003E-02 -1.25866841E-01 -6.93372816E-02 -5.73418647E-02  6.79530774E-02
  9.23272157E-01  2.95842197E-01  2.44872210E-01 -2.89360199E-01  1.55133410E-01
  2.39353221E-01  1.98242653E-01 -2.33781705E-01 -9.12981837E-02 -3.30341163E-04
 -1.13174390E-01  4.25908099E-02 -1.26453208E-01  7.43038265E-02 -1.60963515E-02
  7.64375201E-02 -3.10476888E-02  1.13329250E-01 -1.72373718E-03 -3.44881523E-03
 -1.66723984E-01  2.43947152E-02  6.05436692E-01  2.65872868E-02  2.13511838E-01
 -2.63951173E-02 -7.62142496E-01 -1.78296102E-01 -1.67902079E-01  6.41366424E-03
  5.60271545E-01 -4.04715590E-01  1.39499471E-01  1.19520111E-01 -1.25419190E-01
  1.28590056E-06  5.00211180E-03  5.73547382E-03 -1.68616779E-03 -8.19380926E-04
  2.65056451E-02  2.00362781E-03  1.82130834E-02 -2.66772603E-03 -5.72874923E-03
 -1.73232238E-03 -3.46638822E-03 -3.93336982E-01 -4.87398268E-01 -5.59763923E-02
  2.68298612E-02  4.97033465E-01  6.13827157E-01  6.51086760E-02 -1.78365199E-01
 -3.71098565E-01 -4.52039200E-01 -3.15572435E-02 -4.07156856E-01  1.33576050E-01
  1.05965467E-01 -1.43191135E-01  2.56622393E-03  4.07036457E-03  5.69938005E-03
 -1.25260656E-03 -2.45724085E-03 -9.06907340E-03  1.60629302E-02  1.97732137E-02
 -8.91283975E-03  1.62566668E-02 -1.72677812E-03 -3.45420472E-03  1.68532459E-01
 -2.21174054E-02 -6.04979569E-01  2.66705545E-02 -2.15818595E-01  2.34938211E-02
  7.61570034E-01 -1.78945532E-01  1.69649252E-01 -4.37829546E-03 -5.60276166E-01
 -4.06235279E-01 -1.40139319E-01 -1.20601665E-01  1.24521266E-01  2.32084065E-05
  5.05127802E-03  5.80218411E-03 -1.70244084E-03 -8.35438184E-04  2.64932021E-02
  2.00049484E-03  1.81956081E-02 -2.66117613E-03 -5.74242776E-03 -1.72918366E-03
 -3.45977517E-03  3.92203544E-01  4.87097363E-01  5.89145236E-02  2.67413931E-02
 -4.95576122E-01 -6.13427842E-01 -6.88505300E-02 -1.77938506E-01  3.69913384E-01
  4.51529851E-01  3.40932924E-02 -4.05207345E-01 -1.33703424E-01 -1.06609326E-01
  1.41829772E-01  2.54539177E-03  4.02152306E-03  5.63606702E-03 -1.23753211E-03
 -2.43631007E-03 -9.04913575E-03  1.60750575E-02  1.98061623E-02 -8.92209983E-03
  1.62663166E-02 -5.56574850E-03  1.61063133E-02  2.00573101E-01  1.66140972E-01
 -1.95862166E-01 -5.42105459E-01 -1.00146043E+00 -8.29229183E-01  9.78752789E-01
 -1.50038408E+00 -7.90307572E-01 -6.53566640E-01  7.74581359E-01 -2.17297669E+00
 -2.89237129E-01 -2.39390222E-01  2.82928704E-01  5.52897494E-02  1.36597271E-01
  1.93205155E-01 -5.22918127E-02 -2.50445179E-02  2.72962717E-01  4.87868793E-01
  7.86823351E-01 -2.24018452E-01  2.38805483E-02  5.61321956E-03 -1.60718255E-02
  2.00823793E-01  1.66648872E-01 -1.95255130E-01  5.41697991E-01 -1.00232201E+00
 -8.30952152E-01  9.76731739E-01  1.50011073E+00 -7.90683024E-01 -6.54352551E-01
  7.73638054E-01  2.17308977E+00 -2.88948614E-01 -2.38812320E-01  2.83589460E-01
 -5.50754082E-02 -1.36753422E-01 -1.93378850E-01  5.23914001E-02  2.47452791E-02
 -2.80944690E-01 -4.84898796E-01 -7.86690864E-01  2.22683650E-01 -1.89322249E-02
 -1.49137545E-03 -3.53411432E-03  1.43974656E-01 -4.77507111E-02 -5.95482627E-01
  1.14340740E-01 -1.92712973E-01  6.69327676E-02  8.05282680E-01 -9.15251357E-01
 -5.49914702E-02 -6.46855177E-02  1.62523845E-03  2.57786490E-01  6.79262507E-02
  8.98301427E-02  2.50931119E-02 -2.37131206E-02  2.04746046E-02  9.62688498E-03
 -5.35545157E-03  2.45970271E-03 -1.31838453E-01  5.95772305E-02 -1.50107338E-02
 -7.61525323E-03  6.72510797E-03 -1.48776775E-03 -3.53047501E-03  3.77820229E-01
  4.80682775E-01  8.78772434E-02  1.14688450E-01 -5.10029736E-01 -6.50052250E-01
 -1.21804111E-01 -9.21881697E-01 -2.87090723E-02 -4.89144606E-03  7.95220394E-02
  2.60694963E-01  2.14855188E-02 -1.57582382E-02 -1.12371260E-01  2.04828883E-02
  3.00911398E-03  7.67746202E-03  2.41017998E-03 -2.48767276E-02  7.21301269E-02
 -2.08568181E-02 -2.40898001E-02  2.83382660E-02 -1.20161961E-01  1.49263350E-03
  3.53373257E-03  1.43704958E-01 -4.79769456E-02 -5.95174934E-01 -1.14357179E-01
 -1.92372749E-01  6.72850580E-02  8.05074676E-01  9.19262064E-01 -5.53987126E-02
 -6.43873531E-02  3.68688997E-03 -2.57554903E-01  6.79807329E-02  8.97685156E-02
  2.47501782E-02  2.37085525E-02 -2.04760576E-02 -9.62622767E-03  5.35940487E-03
 -2.46438111E-03  1.31843303E-01 -5.95906811E-02  1.49958500E-02  7.63194571E-03
 -6.77741004E-03  1.48128731E-03  3.52225472E-03  3.78529117E-01  4.81492838E-01
  8.78411287E-02 -1.14643296E-01 -5.10890434E-01 -6.51011106E-01 -1.21697362E-01
  9.18660432E-01 -2.73442967E-02 -3.07635401E-03  7.99923532E-02 -2.61132802E-01
  2.11779740E-02 -1.61593639E-02 -1.12469932E-01 -2.04978730E-02 -2.99271446E-03
 -7.66154511E-03 -2.41234476E-03  2.48853088E-02 -7.21301356E-02  2.09226674E-02
  2.42083930E-02 -2.83761789E-02  1.20260161E-01 -3.45097888E-05  2.95997194E-05
 -6.04034294E-02 -1.37665458E-01 -1.79698264E-01 -1.10224358E-03  1.99964385E-01
  4.57271114E-01  5.99060713E-01 -5.56486068E-03 -6.83346677E-02 -1.50379316E-01
 -1.88690200E-01 -7.99285045E-03 -4.11353915E-02 -9.15965805E-02 -1.16507450E-01
  1.85735866E-01 -7.23850368E-02 -7.10141313E-03  3.23389928E-02 -1.15225867E-01
  2.70060943E-01 -1.04016146E-01 -8.83468985E-03  4.65573185E-02 -1.67573899E-01
  2.83991875E-05 -4.39707878E-05 -6.01289032E-02 -1.37280308E-01 -1.79535524E-01
  2.07226239E-03  1.98933617E-01  4.56123921E-01  5.99264674E-01  4.88241977E-03
 -6.64238774E-02 -1.47028624E-01 -1.85736525E-01  8.22824931E-03 -4.07671373E-02
 -9.07604427E-02 -1.15417512E-01 -1.85271464E-01  7.26125803E-02  7.60277361E-03
 -3.24269567E-02  1.15055024E-01 -2.68260391E-01  1.04087171E-01  9.36412978E-03
 -4.63283662E-02  1.65616259E-01  1.80373787E-03  2.14081955E-03  9.77423891E-02
 -1.08702026E-01 -6.12052783E-01  4.58069999E-02 -1.34563896E-01  1.46309826E-01
  8.33520240E-01 -5.36632060E-01  7.46752297E-02  1.10284915E-02 -2.11342993E-01
  5.25038541E-01  1.69072621E-02  2.27284469E-02  7.23545434E-03 -1.61171607E-02
 -8.71085610E-03 -9.68798044E-03 -1.98370946E-03  2.96786143E-02 -1.25250470E-01
  1.70526339E-02 -5.25325812E-02  1.74657272E-03  3.05493232E-02 -1.80240966E-03
 -2.14460831E-03 -3.59375126E-01 -4.85848387E-01 -1.61564820E-01 -4.52769175E-02
  4.90105845E-01  6.61690605E-01  2.17898483E-01  5.31348866E-01 -1.45296744E-01
 -1.70871331E-01  4.27226002E-03 -5.23819074E-01 -4.74883895E-03  4.58030043E-03
  2.78420457E-02 -2.32568423E-02  2.41953092E-02  1.13674573E-02 -4.92736211E-03
 -5.24213008E-03 -6.30124011E-02  5.68113316E-02  6.02179871E-02 -3.46434073E-02
  8.59682998E-02 -1.78778751E-03 -2.11294188E-03  9.80855237E-02 -1.07839378E-01
 -6.10759225E-01 -4.60550402E-02 -1.35000228E-01  1.45156312E-01  8.31718877E-01
  5.36564930E-01  7.42166362E-02  1.09026252E-02 -2.10230367E-01 -5.22206169E-01
  1.70132197E-02  2.29642809E-02  7.56756715E-03  1.61212897E-02  8.59040486E-03
  9.57884160E-03  2.00731756E-03 -2.96018677E-02  1.25136972E-01 -1.73723473E-02
  5.21189743E-02 -1.63883888E-03 -3.04578715E-02  1.80286502E-03  2.14669413E-03
 -3.58259659E-01 -4.84602626E-01 -1.61824943E-01  4.51270064E-02  4.88592860E-01
  6.59990690E-01  2.18221392E-01 -5.29593689E-01 -1.45042135E-01 -1.70625606E-01
  4.14677598E-03  5.20156880E-01 -4.30026287E-03  5.09577354E-03  2.77617793E-02
  2.31691789E-02 -2.42086283E-02 -1.14075495E-02  4.92174061E-03  5.32169568E-03
  6.27281873E-02 -5.68907157E-02 -6.03695840E-02  3.46194709E-02 -8.56391689E-02
 -1.52720803E-05 -2.56552428E-05 -5.40072777E-02 -1.22189760E-01 -1.58223659E-01
  6.03961695E-04  1.58378510E-01  3.58504259E-01  4.64481828E-01 -6.44775627E-03
 -4.95593735E-01 -1.12108191E+00 -1.45142330E+00 -2.31324898E-03 -1.47524668E-01
 -3.33502116E-01 -4.31466657E-01  1.86409043E-01 -7.31016003E-02 -7.67096613E-03
  3.26235123E-02 -1.15626398E-01  7.09805939E-01 -2.79207814E-01 -3.07632701E-02
  1.24864387E-01 -4.41696176E-01 -3.84103663E-05 -1.69543739E-05  5.38675941E-02
  1.22282663E-01  1.58926692E-01 -5.81670327E-05 -1.58279256E-01 -3.59275590E-01
 -4.66898521E-01  6.41862204E-03  4.93087830E-01  1.11923780E+00  1.45449677E+00
  2.26781444E-03  1.46525109E-01  3.32809224E-01  4.32809592E-01  1.86740318E-01
 -7.37658376E-02 -8.36275221E-03  3.29018382E-02 -1.15956949E-01  7.10994212E-01
 -2.80267729E-01 -3.08990819E-02  1.24907540E-01 -4.40908398E-01  3.55545315E-03
  5.36171894E-03  6.08048725E-02 -1.50439089E-01 -6.06344258E-01  3.56932460E-03
 -8.79665153E-02  2.08373574E-01  8.51957019E-01 -4.99548012E-01  1.15584536E-01
  5.43223241E-02 -2.25678928E-01  1.39677392E+00  4.33441788E-02 -3.43119419E-02
 -2.33611313E-01 -2.28131989E-02 -9.97571923E-03 -1.81925622E-02  8.08671981E-04
  2.36554472E-02 -1.29080796E-01  3.44063519E-03 -7.33024941E-02  8.38107711E-03
  2.63812609E-02 -3.55954618E-03 -5.36959363E-03 -3.40684685E-01 -4.82558986E-01
 -2.13006705E-01 -3.50328184E-03  4.80000510E-01  6.78224955E-01  2.95573487E-01
  5.00959647E-01 -1.73078344E-01 -1.84368691E-01  5.73288776E-02 -1.39569924E+00
 -1.40624246E-01 -1.86381504E-01 -5.30251142E-02 -1.88162423E-02  2.63265093E-02
  1.99262469E-02 -8.09757605E-03  2.13371233E-03 -5.19390315E-02  6.75589867E-02
  8.08073216E-02 -4.00914704E-02  8.60016822E-02  3.56723882E-03  5.37904913E-03
 -6.18809949E-02  1.49921841E-01  6.08324784E-01  3.63888460E-03  8.95048735E-02
 -2.07637149E-01 -8.54798665E-01 -5.02711408E-01 -1.16008806E-01 -5.48462815E-02
  2.25586671E-01  1.39706833E+00 -4.33061153E-02  3.41292049E-02  2.32931734E-01
 -2.29126647E-02 -9.94669604E-03 -1.81624713E-02  7.75222915E-04  2.38146670E-02
 -1.29619655E-01  3.78409737E-03 -7.31924476E-02  8.28029062E-03  2.65652938E-02
 -3.56008405E-03 -5.36714333E-03  3.40685196E-01  4.83121576E-01  2.14620810E-01
 -3.67117167E-03 -4.79949216E-01 -6.78948953E-01 -2.97828430E-01  5.00811257E-01
  1.73309886E-01  1.84844343E-01 -5.67462186E-02 -1.39799395E+00  1.41018102E-01
  1.86922099E-01  5.32786895E-02 -1.87302339E-02  2.63794343E-02  2.00295697E-02
 -8.11977422E-03  2.10126720E-03 -5.17373065E-02  6.78407841E-02  8.12945553E-02
 -4.02268066E-02  8.60463950E-02 -1.22252798E-08  6.98844085E-10  2.24433771E-06
 -1.09099670E-06  1.38916789E-06  7.58214674E-08 -2.68792589E-06  7.95013411E-07
 -2.45056786E-06  8.26785304E-07  2.74119133E-05 -2.40488440E-06  2.67160808E-05
  3.48146934E-07 -6.48892204E-05  5.67142716E-05 -1.85023493E-05  6.11682917E-03
  1.26195107E-02 -6.89122067E-03  1.13219594E-02  5.53152551E-03 -7.25694251E-03
 -1.49589003E-02  8.17394319E-03 -1.34084684E-02 -6.55297733E-03  8.64161549E-09
 -1.95958878E-09 -3.05857705E-06  1.61765606E-06 -1.73400102E-06 -2.11142877E-08
  1.17478108E-05 -7.48171354E-06  5.29735896E-06 -7.59793075E-07 -5.00024470E-05
  1.95401811E-05 -3.40597181E-05 -3.67678842E-07  5.84513754E-05 -5.07816259E-05
  1.63798983E-05 -6.16475034E-03 -1.27213080E-02  6.94754208E-03 -1.14087402E-02
 -5.57638719E-03  7.27437321E-03  1.50278379E-02 -8.19530542E-03  1.35083843E-02
  6.59307728E-03 -8.01662552E-08 -1.27443502E-07 -3.50993665E-03  2.95784179E-03
 -1.08507176E-03  1.47175001E-06  4.73551927E-03 -3.99067143E-03  1.46322055E-03
 -2.29298675E-06  3.51295085E-03 -2.96172395E-03  1.08863372E-03 -1.42976648E-05
 -6.56450431E-03  5.53341864E-03 -2.02675262E-03 -4.36558377E-02 -1.58522257E-01
 -3.20389418E-02 -5.23350347E-01 -1.15680307E-01  2.02178024E-02  7.38412522E-02
  1.53450068E-02  2.45133810E-01  5.40488294E-02  7.34472890E-08  1.16471841E-07
  3.50464882E-03 -2.95187391E-03  1.08437478E-03 -1.37078931E-06 -4.72102793E-03
  3.97543433E-03 -1.46076481E-03  1.85811866E-06 -3.55306502E-03  2.99638747E-03
 -1.10104928E-03  1.38299156E-05  6.63347268E-03 -5.58478282E-03  2.05422012E-03
 -2.17530304E-01 -3.80538384E-01  3.26204732E-01  3.91297777E-02 -1.20699091E-01
  1.01828394E-01  1.78048716E-01 -1.52802011E-01 -1.88701521E-02  5.64053650E-02
 -8.62922298E-08 -1.37309870E-07 -3.50242451E-03  2.95110168E-03 -1.08447289E-03
  1.58236839E-06  4.70869066E-03 -3.96761226E-03  1.45884618E-03 -2.26447308E-06
  3.61206358E-03 -3.04017802E-03  1.11494510E-03 -1.48838185E-05 -6.69259439E-03
  5.63593863E-03 -2.07442183E-03  4.42824046E-02  1.60058423E-01  3.16370478E-02
  5.26023925E-01  1.16467742E-01 -2.05136250E-02 -7.45681363E-02 -1.51556982E-02
 -2.46404264E-01 -5.44224236E-02  9.04626748E-08  1.44045994E-07  3.51451395E-03
 -2.96227605E-03  1.08699987E-03 -1.63021271E-06 -4.73018903E-03  3.98793760E-03
 -1.46301687E-03  2.51278457E-06 -3.58955027E-03  3.02165562E-03 -1.10855446E-03
  1.54011846E-05  6.65909477E-03 -5.61622562E-03  2.05758692E-03  2.18881826E-01
  3.82718391E-01 -3.28355986E-01 -4.01225485E-02  1.21328219E-01 -1.02459866E-01
 -1.79067337E-01  1.53806945E-01  1.93356107E-02 -5.66992143E-02 -9.66467213E-09
 -9.02785452E-09 -1.80242301E-05  1.47491497E-05 -5.98123292E-06  3.68884606E-07
  3.25106268E-05 -2.60900650E-05  1.12255030E-05 -3.95438928E-07 -2.25959603E-05
  7.97178189E-06 -1.54297071E-05 -1.97749495E-06 -2.84841846E-05  2.21675380E-05
 -9.16934096E-06 -7.98115101E-03 -1.64516172E-02  9.01278542E-03 -1.46651057E-02
 -7.20032761E-03  6.01026775E-03  1.23806669E-02 -6.79409982E-03  1.09980740E-02
  5.41331623E-03 -1.24370265E-08 -1.05706343E-08 -4.09914672E-06  3.78809186E-06
 -1.04214273E-06  4.02224393E-07 -7.33003686E-07 -3.54698587E-07 -6.25915819E-07
  9.16893893E-07 -5.64289373E-05  5.86351018E-05 -8.27005725E-06  2.16541620E-06
 -3.89670166E-05  3.24947641E-05 -1.16874295E-05 -7.91504268E-03 -1.63367410E-02
  8.90779991E-03 -1.46993120E-02 -7.16600798E-03  5.91162494E-03  1.22211736E-02
 -6.63085631E-03  1.11002214E-02  5.37326875E-03  8.87794175E-09  1.42658643E-08
  4.28771637E-04 -3.61413804E-04  1.32309665E-04 -1.33336771E-07  1.02474829E-03
 -8.63144918E-04  3.17654565E-04  5.31056315E-07 -1.03898350E-02  8.75389634E-03
 -3.21463254E-03  8.71480984E-06  1.34640543E-02 -1.13438680E-02  4.16192590E-03
  5.40952599E-02  1.76312379E-01  1.58227713E-02  5.18390206E-01  1.20942833E-01
 -2.55202472E-02 -8.30968513E-02 -7.36889729E-03 -2.44035667E-01 -5.69665171E-02
 -6.06362939E-09 -9.89442160E-09 -4.21268795E-04  3.54414187E-04 -1.30287677E-04
  1.30568802E-07 -1.02715948E-03  8.66469989E-04 -3.17724360E-04 -7.87856532E-07
  1.03260747E-02 -8.70170018E-03  3.19463988E-03 -8.77586802E-06 -1.33625196E-02
  1.12552874E-02 -4.13378935E-03  2.19591523E-01  3.87865425E-01 -3.24889333E-01
 -1.54507659E-02  1.25986545E-01 -1.03392771E-01 -1.82643300E-01  1.52947528E-01
  7.14421953E-03 -5.93421078E-02  4.90078851E-08  7.76879262E-08 -3.98934803E-04
  3.36355166E-04 -1.23351821E-04 -9.61422945E-07 -1.05690721E-03  8.90383568E-04
 -3.27287110E-04  3.59204032E-06  1.03000291E-02 -8.67947303E-03  3.18817398E-03
  6.27417742E-06 -1.33063564E-02  1.12131490E-02 -4.11456306E-03  5.36496806E-02
  1.75439759E-01  1.64047562E-02  5.17923030E-01  1.20564772E-01 -2.53154161E-02
 -8.26984601E-02 -7.63940509E-03 -2.43837762E-01 -5.67953175E-02 -4.28717938E-08
 -6.82513022E-08  4.09149299E-04 -3.44517430E-04  1.26629370E-04  8.82331803E-07
  1.05147391E-03 -8.86612939E-04  3.25300602E-04 -3.52288438E-06 -1.03723114E-02
  8.74218735E-03 -3.20971409E-03 -7.08350713E-06  1.34348108E-02 -1.13174591E-02
  4.15752170E-03  2.17374219E-01  3.84052977E-01 -3.21372692E-01 -1.41964822E-02
  1.24900144E-01 -1.02345780E-01 -1.80843319E-01  1.51286990E-01  6.55189715E-03
 -5.88292318E-02 -1.45153705E-09 -4.86621405E-08  2.87538079E-03 -2.42538099E-03
  8.91476739E-04  1.38854284E-06 -3.11074478E-03  2.63002605E-03 -9.68908988E-04
 -2.21816040E-05  1.55355133E-02 -1.30913067E-02  4.80706589E-03  1.78940929E-05
  6.69720153E-03 -5.63821837E-03  2.06814989E-03  7.96250800E-03  1.01439457E-02
 -1.64308115E-02 -2.58967606E-02  2.07190879E-04 -1.12613118E-02 -1.43719779E-02
  2.31986788E-02  3.64565598E-02 -3.22551678E-04  5.20164632E-07  1.54676783E-07
  2.86709575E-03 -2.41665260E-03  8.87595134E-04 -6.50651089E-06 -3.06621719E-03
  2.59012014E-03 -9.53363659E-04  5.30209128E-06  1.55495682E-02 -1.31174351E-02
  4.82458004E-03 -1.64627713E-05  6.69045468E-03 -5.63357810E-03  2.06711881E-03
 -8.02194931E-03 -1.02635795E-02  1.64996132E-02  2.57929419E-02 -2.61028498E-04
  1.12888693E-02  1.44160640E-02 -2.32524535E-02 -3.64826566E-02  3.34508041E-04
  2.39967410E-08  4.44812339E-08 -3.05800178E-03  2.57657077E-03 -9.44828251E-04
 -1.02794114E-06  3.79011612E-03 -3.19349110E-03  1.17031015E-03  8.93065523E-06
  5.61600648E-03 -4.73097348E-03  1.73450291E-03 -3.04223251E-06 -1.45491220E-02
  1.22569585E-02 -4.49902065E-03 -9.45213671E-02 -9.10482242E-02  2.29939968E-01
  4.97452037E-01  3.02492579E-02  4.47357900E-02  4.27878475E-02 -1.09186653E-01
 -2.37398237E-01 -1.46543465E-02  1.87096493E-08  3.39765911E-08 -3.06162478E-03
  2.57821710E-03 -9.47554271E-04 -1.01241343E-06  3.78275953E-03 -3.18457341E-03
  1.17095801E-03  9.56192973E-06  5.67727569E-03 -4.77945424E-03  1.75519902E-03
 -3.01320634E-06 -1.46590389E-02  1.23490475E-02 -4.53351429E-03 -1.69020710E-01
 -2.44921645E-01  3.13645067E-01  3.58352150E-01 -3.73213864E-02  8.07651422E-02
  1.17203075E-01 -1.49672620E-01 -1.70145028E-01  1.80220698E-02  9.08377762E-10
  3.09643541E-09 -3.06751071E-03  2.58442377E-03 -9.49003319E-04 -5.10435318E-08
  3.79215514E-03 -3.19502769E-03  1.17314382E-03  6.99654849E-07  5.68123503E-03
 -4.78583734E-03  1.75747073E-03  6.32943766E-06 -1.46717194E-02  1.23629600E-02
 -4.53661749E-03  9.48374941E-02  9.19298944E-02 -2.29973459E-01 -4.95125689E-01
 -2.96716009E-02 -4.48905840E-02 -4.32132619E-02  1.09212959E-01  2.36308873E-01
  1.43797148E-02  1.47017524E-09  5.66194809E-09 -3.05600168E-03  2.57505285E-03
 -9.45530620E-04  3.13279255E-08  3.78794426E-03 -3.19180953E-03  1.17213724E-03
 -1.02044900E-07  5.60615053E-03 -4.72269685E-03  1.73304420E-03  4.30071014E-06
 -1.45391429E-02  1.22485245E-02 -4.49877744E-03  1.70023520E-01  2.46679340E-01
 -3.15190766E-01 -3.58600450E-01  3.78886428E-02 -8.12424867E-02 -1.18039799E-01
  1.50407795E-01  1.70260215E-01 -1.82921375E-02  8.27952454E-03  8.43794412E-04
  1.70516975E-02  1.38886628E-02 -1.63335288E-02  1.92060467E-02 -9.43882039E-02
 -7.72844377E-02  9.12007799E-02 -1.20136510E+00  1.02253341E-01  8.64289135E-02
 -1.00969362E-01 -2.56164293E-01 -4.32196555E-02 -3.53495500E-02  4.20045167E-02
  1.24401798E-02  3.24622679E-03  1.85465197E-02 -6.20566297E-03  1.46442530E-02
 -1.03401199E-01  7.09763159E-02 -6.42875788E-02  3.37219609E-02 -1.96694450E-01
 -8.27794392E-03 -8.43052827E-04  1.66742329E-02  1.40547797E-02 -1.65723703E-02
 -1.92244865E-02 -9.30983174E-02 -7.79982598E-02  9.18954008E-02  1.20167651E+00
  1.03977539E-01  8.41095086E-02 -1.01200977E-01  2.56195198E-01 -4.27544969E-02
 -3.58196665E-02  4.20672393E-02 -1.23808337E-02 -3.49005689E-03 -1.82904165E-02
  6.66264327E-03 -1.47677291E-02  1.03615823E-01 -7.00947443E-02  6.31925397E-02
 -3.56201345E-02  1.96957058E-01  5.14048390E-04  8.88681765E-04 -7.18374380E-03
 -6.70914306E-03  5.07609058E-03 -1.67964026E-02  1.50892443E-02  1.44404926E-02
 -9.62774751E-03  2.05433576E-01 -1.62693659E-02 -5.44165407E-02 -9.59374461E-02
  3.28644829E-01  5.07018692E-02  1.05729130E-02 -1.33348941E-01  2.39624492E-02
  1.58949863E-01 -9.49848500E-03  6.66038931E-02 -5.37745280E-01 -1.22222324E-02
 -8.06646896E-02  3.58721664E-03 -3.31005402E-02  2.70029625E-01  5.24395373E-04
  9.04837430E-04 -6.13463201E-03 -4.33480542E-03  8.15236340E-03 -1.69554080E-02
  1.23320530E-02  8.25397001E-03 -1.75662218E-02  2.05280569E-01  4.09207360E-02
  7.49372288E-02  7.15110851E-02  3.28820114E-01  9.35315745E-02  1.07903373E-01
 -6.70347334E-03 -3.68667667E-01  3.12678681E-01  5.69106848E-03 -1.59707550E-03
 -2.94841651E-01  1.84615602E-01 -1.57767911E-01 -4.05525957E-03  1.09444422E-03
  1.48219354E-01 -5.23180247E-04 -9.03258455E-04 -7.26996537E-03 -6.74370977E-03
  5.00458697E-03  1.69589699E-02  1.52021520E-02  1.45047152E-02 -9.45231946E-03
 -2.05697988E-01 -1.59694397E-02 -5.43292558E-02 -9.60379579E-02 -3.29116728E-01
  4.98929057E-02  1.07934251E-02 -1.33632611E-01 -2.24277774E-02 -1.55703610E-01
  7.32202132E-03 -7.29852029E-02  5.37941618E-01  1.14917785E-02  7.90676946E-02
 -2.48647772E-03  3.62945429E-02 -2.70146812E-01 -5.15300253E-04 -8.90221237E-04
 -6.19209656E-03 -4.34010433E-03  8.06760687E-03  1.67903512E-02  1.24596465E-02
  8.32079790E-03 -1.74312405E-02 -2.05141301E-01  4.08757745E-02  7.47621334E-02
  7.18098578E-02 -3.28587408E-01  9.30107083E-02  1.08391082E-01 -7.19261488E-03
  3.69364045E-01 -3.10952745E-01 -1.09388562E-02 -3.68692353E-03  2.95405616E-01
 -1.84957662E-01  1.56880532E-01  6.66565280E-03  1.53787609E-03 -1.48522151E-01
  5.40714334E-05  5.32712122E-06 -2.49195795E-02  2.11779537E-02 -7.84757753E-03
  1.34201527E-04  8.85298300E-02 -7.56056757E-02  2.81642578E-02 -7.92437284E-03
  1.52803905E-01 -1.27594650E-01  4.63887741E-02 -1.54555421E-03  3.68099622E-02
 -3.14498243E-02  1.17232833E-02  1.00741495E-02  1.27839879E-02 -2.04566451E-02
 -3.23183866E-02  3.95095609E-04 -4.39150503E-02 -5.47327948E-02  8.86209013E-02
  1.40023392E-01 -2.56009427E-03 -5.37416596E-05 -5.20159129E-06  2.51307081E-02
 -2.09943911E-02  7.63529343E-03 -1.41695673E-04 -8.97367334E-02  7.46037730E-02
 -2.69850719E-02  7.91999382E-03 -1.51442638E-01  1.28732030E-01 -4.77332797E-02
  1.54578360E-03 -3.73302420E-02  3.10170973E-02 -1.12128929E-02  9.87676313E-03
  1.26727491E-02 -2.06617164E-02 -3.22971133E-02  1.68676431E-04 -4.24758795E-02
 -5.55169571E-02  8.94158459E-02  1.39690843E-01  9.94143484E-05  3.41240737E-06
  5.90456820E-06 -3.38009872E-03  2.76350811E-03 -9.95454348E-04 -1.12114965E-04
  4.86201798E-03 -3.91713838E-03  1.40569261E-03  1.37084852E-03  7.94522902E-03
 -7.14131569E-03  1.85355360E-03  2.15503687E-03 -4.55916935E-02  3.87591841E-02
 -1.50803329E-02 -1.28991451E-01 -1.58716680E-01  2.72154307E-01  4.51513090E-01
 -1.54258979E-03  6.39068801E-02  7.82291766E-02 -1.35311410E-01 -2.26242771E-01
  3.51107925E-04  3.49651781E-06  6.03274976E-06 -3.39901040E-03  2.79898093E-03
 -9.85339779E-04 -1.13518708E-04  4.89108124E-03 -3.99363922E-03  1.37239298E-03
  1.37168294E-03  8.25982443E-03 -6.23025212E-03  2.94096036E-03  2.16029885E-03
 -4.52573967E-02  3.93569995E-02 -1.42302397E-02 -1.44874116E-01 -1.85043786E-01
  2.87341685E-01  4.27037840E-01 -1.18639970E-02  7.27906959E-02  9.33314765E-02
 -1.43964125E-01 -2.12262116E-01  6.36070138E-03 -3.51502725E-06 -6.06684252E-06
  3.30262169E-03 -2.86652258E-03  1.07113123E-03  1.14087766E-04 -4.69798866E-03
  4.13651655E-03 -1.54987265E-03 -1.37465514E-03 -8.09340735E-03  6.37708561E-03
 -3.11151787E-03 -2.15902012E-03  4.61913000E-02 -3.85765217E-02  1.33130823E-02
 -1.29059757E-01 -1.60232066E-01  2.71974636E-01  4.51037886E-01  5.72850378E-03
  6.39461386E-02  7.90085209E-02 -1.35214618E-01 -2.26020519E-01 -3.30136843E-03
 -3.45502618E-06 -5.96906367E-06  3.29618538E-03 -2.84216462E-03  1.08514346E-03
  1.12593918E-04 -4.68721697E-03  4.07708079E-03 -1.58950122E-03 -1.36729198E-03
 -7.76032514E-03  7.26560770E-03 -2.01335194E-03 -2.15152048E-03  4.65318776E-02
 -3.79848908E-02  1.41617149E-02 -1.39647842E-01 -1.88396322E-01  2.86771635E-01
  4.27453152E-01 -7.72886161E-03  7.01746777E-02  9.50274474E-02 -1.43666542E-01
 -2.12480494E-01  4.27920057E-03  1.66741304E-05  4.77038374E-06 -1.43315091E-02
 -3.25081055E-02 -4.22142203E-02 -2.52242868E-04  4.78024872E-02  1.08576229E-01
  1.41202323E-01 -1.27222435E-03  5.34948003E-02  1.20158158E-01  1.54348684E-01
 -3.80941977E-04  3.37298607E-03  7.68908592E-03  1.00397033E-02 -1.93123111E-02
  7.67857843E-03  9.05066092E-04 -3.40901539E-03  1.19406938E-02  1.47852034E-01
 -5.82544816E-02 -6.42299455E-03  2.59838946E-02 -9.17339423E-02  4.85496673E-06
  3.79267268E-06 -1.43507469E-02 -3.25416665E-02 -4.22425401E-02 -2.70504425E-04
  4.79740382E-02  1.08773879E-01  1.41183089E-01  2.37548959E-04  5.30013973E-02
  1.20635739E-01  1.57238206E-01  1.69719308E-04  3.39226044E-03  7.75848629E-03
  1.01652699E-02  1.92907909E-02 -7.55468705E-03 -8.25618812E-04  3.39915411E-03
 -1.20777577E-02 -1.47988374E-01  5.81687330E-02  6.50767040E-03 -2.61062792E-02
  9.24736333E-02  7.18539135E-04  8.85628845E-04 -2.68950333E-03 -1.56275080E-02
 -3.38728057E-02  5.66576238E-03  2.23667393E-03  2.72869256E-02  6.70954977E-02
 -2.11778853E-01 -6.00694359E-03  1.44409082E-02  5.87505235E-02 -4.63535161E-02
 -3.20964173E-02 -3.43355080E-02  1.02386888E-02  1.90727200E-02  3.28025262E-03
 -1.88954870E-01  1.22946730E-01 -5.15572741E-01 -2.55790376E-02  5.17147285E-04
  8.57942713E-02 -6.00584908E-02  2.56888618E-01 -7.19892562E-04 -8.87277154E-04
 -1.60421921E-02 -2.66385703E-02 -2.06947546E-02 -5.65781504E-03  3.33018266E-02
  5.29193595E-02  3.64797108E-02  2.11981745E-01  3.29910003E-02  4.67938044E-02
  2.08062871E-02  4.76414148E-02  2.15110610E-02  1.01689196E-02 -4.18439774E-02
  4.49504710E-01 -1.87998581E-01  1.69054002E-01 -4.09155642E-02  2.26225523E-01
 -2.28719384E-01  9.96627142E-02 -7.50474602E-02  1.55479502E-02 -9.97900937E-02
 -7.17684738E-04 -8.83676537E-04 -2.57928360E-03 -1.55173613E-02 -3.39225656E-02
 -5.72110578E-03  2.03680173E-03  2.70853159E-02  6.71801530E-02  2.12574406E-01
 -6.02025689E-03  1.45341025E-02  5.90493286E-02  4.81832610E-02 -3.21405188E-02
 -3.42077342E-02  1.07211569E-02 -1.89291044E-02 -3.96609707E-03  1.89662675E-01
 -1.23526552E-01  5.19044622E-01  2.55350557E-02 -2.26962086E-04 -8.62015522E-02
  6.03705480E-02 -2.58648800E-01  7.13499558E-04  8.77187925E-04 -1.59533686E-02
 -2.66194142E-02 -2.09355516E-02  5.80674098E-03  3.31458623E-02  5.28915076E-02
  3.69191317E-02 -2.12962920E-01  3.32879526E-02  4.71313669E-02  2.07630513E-02
 -4.80601785E-02  2.16430405E-02  1.02883251E-02 -4.19342052E-02 -4.48566457E-01
  1.87171075E-01 -1.69025011E-01  4.08109344E-02 -2.25120785E-01  2.28208908E-01
 -9.92979899E-02  7.49486618E-02 -1.54745381E-02  9.92454586E-02 -5.43429535E-07
 -7.12877052E-07  6.76651115E-03  1.53204135E-02  1.98542053E-02  1.48128748E-04
 -1.31460847E-02 -2.97888291E-02 -3.86380545E-02 -2.79014545E-03 -2.39736486E-01
 -5.40693416E-01 -6.97706425E-01  4.08743639E-03 -1.83761971E-02 -4.24977101E-02
 -5.63467096E-02  1.72013897E-02 -6.74980907E-03 -7.14819367E-04  3.01296186E-03
 -1.06702677E-02 -2.72824845E-01  1.07240629E-01  1.15777029E-02 -4.78700041E-02
  1.69352787E-01  7.65049925E-06  2.21428299E-06 -6.70758871E-03 -1.52299484E-02
 -1.97978394E-02 -2.08057397E-04  1.30178167E-02  2.95611359E-02  3.84309811E-02
  2.63841476E-03  2.36172671E-01  5.37698451E-01  7.01066296E-01 -4.07254228E-03
  1.95495582E-02  4.34655231E-02  5.51898532E-02  1.71169887E-02 -6.77267461E-03
 -7.85661468E-04  3.02327648E-03 -1.06471089E-02 -2.72296366E-01  1.07410916E-01
  1.20626092E-02 -4.79500848E-02  1.69215712E-01  1.43998684E-03  2.42838831E-03
  1.53682938E-02  2.42150219E-02  1.62735073E-02 -4.44336734E-02 -2.69750421E-02
 -4.38258470E-02 -3.21668824E-02  4.43443709E-01  4.39669868E-02 -1.04672374E-02
 -1.70646407E-01  3.67884936E-01  2.95619301E-02  3.88995697E-03 -8.49851954E-02
 -4.65722194E-03  4.45664353E-03  2.06620110E-01 -1.26710423E-01  5.11673478E-01
  1.40100344E-02 -3.85498397E-05 -9.47439872E-02  6.23286636E-02 -2.60974668E-01
 -1.43606974E-03 -2.42243614E-03  6.44589806E-04  1.20170937E-02  3.06480196E-02
  4.43620373E-02 -2.97970175E-03 -2.39398674E-02 -5.55737528E-02 -4.43123535E-01
 -1.09166353E-01 -1.37200593E-01 -2.07925487E-02 -3.69537962E-01 -5.85520109E-02
 -6.91684523E-02  8.97581107E-04 -4.46872130E-01  1.72525812E-01 -1.87841043E-01
  4.75402548E-02 -2.30819536E-01  2.28902389E-01 -9.51740271E-02  8.46465105E-02
 -1.97399683E-02  1.09894534E-01  1.43901524E-03  2.42652091E-03 -1.53398284E-02
 -2.41581552E-02 -1.62146195E-02 -4.43790949E-02  2.69153464E-02  4.37084523E-02
  3.20464217E-02  4.42933352E-01 -4.40274137E-02  1.03868570E-02  1.70596714E-01
  3.69675995E-01 -2.96907163E-02 -3.83012191E-03  8.55348130E-02 -4.27342075E-03
  5.26042377E-03  2.07143105E-01 -1.26593869E-01  5.09881442E-01  1.38062708E-02
 -4.70850229E-04 -9.50566432E-02  6.22867653E-02 -2.60095269E-01 -1.44220564E-03
 -2.43141877E-03 -5.71898707E-04 -1.19421945E-02 -3.06748499E-02  4.44381934E-02
  2.82975230E-03  2.37889596E-02  5.56407978E-02 -4.43015908E-01  1.09084819E-01
  1.37109371E-01  2.08322603E-02 -3.68012555E-01  5.81891619E-02  6.87772521E-02
 -7.61907579E-04 -4.46469477E-01  1.73049463E-01 -1.86895168E-01  4.72397525E-02
 -2.30603248E-01  2.28644843E-01 -9.54348472E-02  8.41580918E-02 -1.95959713E-02
  1.09837998E-01  5.11292987E-03  2.58354213E-03  5.71021210E-03  4.74277995E-03
 -5.54446669E-03 -1.76801100E-01 -5.66210835E-02 -4.69293940E-02  5.52220693E-02
  4.84618466E-02  1.24478343E-01  1.02623508E-01 -1.22881212E-01 -4.32008312E-02
 -1.94810556E-02 -1.61795640E-02  1.89029549E-02 -7.20632985E-03  2.67004639E-02
  1.54067706E-02 -1.77370472E-03 -3.01207765E-02  4.46921832E-02 -1.15395479E-01
 -4.98837402E-02  1.37434364E-03  1.48881878E-01  5.10755964E-03  2.58314034E-03
 -5.68288565E-03 -4.68515344E-03  5.60060908E-03 -1.76751056E-01  5.64904314E-02
  4.66788450E-02 -5.54367831E-02  4.82737425E-02 -1.24661914E-01 -1.03361454E-01
  1.21475595E-01 -4.24297686E-02  1.93043697E-02  1.59342731E-02 -1.90025923E-02
 -7.23059445E-03  2.67023339E-02  1.54069741E-02 -1.77889735E-03 -3.00872319E-02
  4.46884943E-02 -1.15406194E-01 -4.98927987E-02  1.38348968E-03  1.48879674E-01
 -1.34430836E-03 -2.07346602E-03 -1.49068232E-02 -1.74266507E-02  7.20955101E-04
  2.67916238E-02  2.78422754E-02  3.19690577E-02 -2.92559895E-03 -9.60527876E-02
 -2.60589280E-02 -1.30321512E-02  4.87381884E-02  8.44745626E-02  6.68175433E-04
 -1.16336652E-02 -3.38481821E-02 -4.68666480E-02 -1.77186159E-01 -3.41047488E-02
 -5.79236487E-02  5.32043628E-01  2.23373612E-02  8.68976869E-02  1.06684716E-02
  3.19393829E-02 -2.74988077E-01 -1.34268725E-03 -2.07181636E-03 -7.93122149E-03
 -1.35923991E-03  2.19345720E-02  2.68191081E-02  1.55935358E-02  3.78436824E-03
 -4.00972223E-02 -9.65818772E-02 -3.83566113E-02 -4.02049422E-02  1.44822946E-02
  8.32212418E-02  1.73842059E-02  2.65550504E-02  1.61299615E-02  3.52208900E-01
 -3.36773096E-01 -5.48966720E-02  1.34677120E-02  2.82953644E-01 -1.84692328E-01
  1.69658361E-01  2.14037282E-02 -5.07574423E-03 -1.45807213E-01 -1.34239052E-03
 -2.07117303E-03  1.51630084E-02  1.77493223E-02 -6.72864768E-04  2.68045860E-02
 -2.82690177E-02 -3.25101958E-02  2.83571508E-03 -9.65106923E-02  2.65527042E-02
  1.35061019E-02 -4.90475780E-02  8.33468235E-02 -4.65148467E-04  1.17963803E-02
  3.36250282E-02 -4.65962185E-02 -1.79822938E-01 -3.76221370E-02 -5.66512377E-02
  5.30860276E-01  2.21487673E-02  8.82612874E-02  1.24472085E-02  3.12921676E-02
 -2.74394355E-01 -1.34546430E-03 -2.07539063E-03  7.83437379E-03  1.39929640E-03
 -2.15150341E-02  2.68173197E-02 -1.54434794E-02 -3.86726132E-03  3.93909315E-02
 -9.61189604E-02  3.79550792E-02  3.99646777E-02 -1.38434510E-02  8.39696573E-02
 -1.75246084E-02 -2.66423711E-02 -1.59233431E-02  3.54994314E-01 -3.35474980E-01
 -5.16306289E-02  1.27554864E-02  2.82346819E-01 -1.86143947E-01  1.69019539E-01
  1.97637980E-02 -4.72854165E-03 -1.45450872E-01  2.31430594E-08  1.73537218E-08
  1.44350717E-05  5.77558318E-06  1.95041459E-05 -1.40448801E-06 -7.32388610E-05
  1.17690987E-05 -6.37147368E-05  4.45231140E-06 -9.48232537E-05  1.10037761E-04
 -3.68582919E-06 -1.94593739E-06  1.08094611E-05 -8.40644475E-06  4.83729340E-06
 -1.24417850E-02 -2.56865772E-02  1.40543147E-02 -2.29368303E-02 -1.12540123E-02
 -3.64746349E-02 -7.50601762E-02  4.09790598E-02 -6.74861136E-02 -3.28732601E-02
  2.18090022E-08  3.21716992E-09 -5.18660702E-06  2.35558271E-05  1.45544974E-05
 -6.50092576E-07  4.71277831E-05 -9.26935315E-05 -3.09522798E-05 -1.93840474E-06
  2.28176784E-05 -9.20290836E-06  1.77464016E-05  1.60755984E-06  1.62646550E-05
 -1.37937832E-05  5.66604013E-06 -1.24578595E-02 -2.56670813E-02  1.40254443E-02
 -2.30154656E-02 -1.12429154E-02 -3.63416711E-02 -7.51597976E-02  4.10640961E-02
 -6.72409727E-02 -3.29654234E-02 -7.28099847E-07 -1.13863030E-06  1.57289166E-02
 -1.32806074E-02  4.88202090E-03  1.04421641E-05 -2.80146646E-02  2.36531131E-02
 -8.70222547E-03  5.64366624E-05  6.52044237E-02 -5.50256230E-02  2.01784247E-02
 -5.64843299E-05  3.49644554E-03 -2.93224224E-03  1.10239301E-03  2.14861917E-01
  3.57500059E-01 -3.43739526E-01 -1.55193487E-01  9.91895814E-02 -1.18493037E-01
 -1.97642779E-01  1.89011281E-01  8.25196781E-02 -5.52327896E-02  7.05342518E-07
  1.09730244E-06 -1.57020675E-02  1.32516761E-02 -4.87923643E-03 -9.86227097E-06
  2.79606827E-02 -2.36057542E-02  8.68743466E-03 -5.98033838E-05 -6.51417046E-02
  5.48978312E-02 -2.02213061E-02  5.52813290E-05 -3.47491664E-03  2.95235237E-03
 -1.06281841E-03 -2.39104115E-03  8.03242674E-02  1.04238822E-01  5.46823867E-01
  9.25236367E-02  1.16243699E-04 -4.63155158E-02 -5.55698920E-02 -3.00756685E-01
 -5.15979577E-02  6.78340751E-07  1.05245002E-06 -1.57312775E-02  1.32284759E-02
 -4.85038412E-03 -9.03003145E-06  2.80189966E-02 -2.35620558E-02  8.63244715E-03
 -5.91265820E-05 -6.52034794E-02  5.48581087E-02 -2.01659632E-02  4.44931058E-05
 -3.49681284E-03  2.96172677E-03 -1.06538902E-03  2.14349533E-01  3.57116518E-01
 -3.42787503E-01 -1.55640705E-01  9.87556726E-02 -1.18234418E-01 -1.97446715E-01
  1.88508214E-01  8.27765721E-02 -5.49990296E-02 -6.91957552E-07 -1.07780896E-06
  1.57499310E-02 -1.32490833E-02  4.85176275E-03  9.25938987E-06 -2.80566642E-02
  2.35935260E-02 -8.64378113E-03  5.95753532E-05  6.52383152E-02 -5.49581225E-02
  2.01169584E-02 -4.29320148E-05  3.47574134E-03 -2.90971442E-03  1.08818181E-03
 -2.29097631E-03  8.06020060E-02  1.03550789E-01  5.47466849E-01  9.30852993E-02
  5.30258375E-05 -4.64683941E-02 -5.51853500E-02 -3.01098223E-01 -5.18953848E-02
 -4.48780584E-05 -2.01882014E-05 -1.22137860E-02 -2.77034891E-02 -3.59732443E-02
  1.38466347E-03  3.47206910E-02  7.83843759E-02  1.01255920E-01 -1.21716227E-03
 -1.28649106E-02 -2.83248526E-02 -3.55621068E-02 -3.25989314E-04 -6.25915373E-04
 -1.51828757E-03 -2.11202301E-03 -2.63182822E-02  1.02339082E-02  1.10382735E-03
 -4.65140445E-03  1.65668492E-02  1.69992144E-01 -6.60925148E-02 -6.73332946E-03
  2.97965353E-02 -1.06780256E-01 -5.96590284E-05 -2.73696131E-05 -1.22116926E-02
 -2.77158129E-02 -3.60139745E-02  1.67443046E-03  3.40357390E-02  7.78473131E-02
  1.02009079E-01 -1.65458411E-03 -1.15040377E-02 -2.67841894E-02 -3.57623602E-02
  7.66963360E-04 -9.33025707E-04 -1.77390452E-03 -1.81492761E-03  2.64000006E-02
 -1.05374145E-02 -1.17688654E-03  4.60745851E-03 -1.61254577E-02 -1.70511308E-01
  6.78115400E-02  7.76853169E-03 -2.99586102E-02  1.04568943E-01  1.45352121E-03
  2.24419269E-03  2.92572217E-02  2.55454671E-02 -2.49489607E-02 -1.94249189E-02
 -5.39786613E-02 -4.29559291E-02  5.74035598E-02 -1.16660567E-01  7.77574300E-02
  9.53222475E-02  8.49049511E-03  9.89261621E-02 -8.61248758E-03 -2.37673828E-02
 -3.68879953E-02 -1.04885476E-01  3.98034227E-01  3.49055342E-01 -9.93376964E-02
 -1.53240521E-01  4.72171726E-02 -2.14879530E-01 -1.93962555E-01  5.42617917E-02
  8.49305102E-02 -1.43197240E-03 -2.21115176E-03 -2.72900254E-02 -2.12210508E-02
  3.03684854E-02  1.90095862E-02  5.61311445E-02  4.81047409E-02 -5.03385139E-02
  1.18034318E-01 -3.40394843E-02  3.16571769E-03  1.18438352E-01 -9.93110676E-02
 -1.46704617E-02 -2.88481742E-02 -3.11564274E-02 -1.49937976E-01 -2.96058334E-01
 -3.38100365E-01  5.52176647E-02  3.07665552E-01  7.71453020E-02  1.65051794E-01
  1.88669474E-01 -3.27854461E-02 -1.60081114E-01 -1.43204331E-03 -2.21090186E-03
  2.91579468E-02  2.54812270E-02 -2.49006847E-02  1.89798228E-02 -5.37873840E-02
 -4.28358208E-02  5.72864334E-02  1.18561386E-01  7.74115547E-02  9.54440560E-02
  9.50123718E-03 -9.87661381E-02 -8.60418146E-03 -2.37680016E-02 -3.69300413E-02
  1.04695920E-01 -3.96055781E-01 -3.49166667E-01  9.94896787E-02  1.49868023E-01
 -4.71076286E-02  2.13841808E-01  1.94090214E-01 -5.43658906E-02 -8.30900714E-02
  1.45233083E-03  2.24208048E-03 -2.73537400E-02 -2.13116868E-02  3.04250453E-02
 -1.94006248E-02  5.62627597E-02  4.82851805E-02 -5.04463128E-02 -1.16559562E-01
 -3.45467838E-02  2.35264505E-03  1.18301517E-01  9.83436810E-02 -1.43786526E-02
 -2.84862265E-02 -3.11010556E-02  1.47757184E-01  2.98223924E-01  3.38123100E-01
 -5.44664800E-02 -3.10322640E-01 -7.59309715E-02 -1.66211902E-01 -1.88640227E-01
  3.23618851E-02  1.61510555E-01 -3.64382123E-07 -1.81896828E-07 -3.37442896E-02
  2.84324100E-02 -1.04391424E-02  1.19022613E-05  1.26375812E-01 -1.06479089E-01
  3.90928262E-02 -2.81223466E-05  4.68847650E-02 -3.95289727E-02  1.45224940E-02
  2.77869786E-05 -8.28378491E-03  6.98712296E-03 -2.56855221E-03  2.77631726E-03
  3.54620287E-03 -5.71707252E-03 -8.96256243E-03  8.45785381E-05  3.24833334E-02
  4.14676389E-02 -6.69562438E-02 -1.05218321E-01  9.06882928E-04 -5.75647837E-07
 -1.63962045E-07 -3.37468464E-02  2.84345388E-02 -1.04400261E-02  9.85583404E-06
  1.26417786E-01 -1.06524803E-01  3.91140463E-02  5.08307083E-05  4.69036103E-02
 -3.95088983E-02  1.45018346E-02 -2.44015599E-05 -8.28231568E-03  6.98478067E-03
 -2.56698638E-03 -2.77995016E-03 -3.55275747E-03  5.72097309E-03  8.97026397E-03
 -8.44252107E-05 -3.24876892E-02 -4.14457810E-02  6.69748956E-02  1.05251083E-01
 -9.19699654E-04  6.56973647E-08  9.70023224E-08 -1.33647142E-02  1.12616415E-02
 -4.13492678E-03 -1.03780849E-06  2.64769732E-02 -2.23105541E-02  8.19168109E-03
  3.86386103E-06 -7.93549604E-02  6.68632187E-02 -2.45501314E-02 -3.06198204E-06
 -5.83827986E-04  4.93930168E-04 -1.79597624E-04 -2.00357324E-01 -3.89763567E-01
  2.53861344E-01 -2.17856146E-01 -1.54901495E-01  1.16686620E-01  2.26335777E-01
 -1.48630428E-01  1.22609870E-01  8.94785108E-02  6.16541919E-08  8.64650029E-08
 -1.33952366E-02  1.12870430E-02 -4.14460742E-03 -8.99111576E-07  2.65349585E-02
 -2.23586921E-02  8.21018006E-03  3.50227378E-06 -7.94688642E-02  6.69596049E-02
 -2.45846029E-02 -4.03829082E-06 -5.65697458E-04  4.75315261E-04 -1.76536941E-04
  1.40133830E-01  3.12928433E-01 -1.29726852E-01  4.12912663E-01  1.53186792E-01
 -7.99373507E-02 -1.79448339E-01  7.28825307E-02 -2.41634166E-01 -8.84328229E-02
  1.08198963E-08  9.25668218E-09 -1.33951893E-02  1.12851055E-02 -4.14314494E-03
  3.14254407E-07  2.65353659E-02 -2.23554052E-02  8.20740625E-03 -8.40746591E-06
 -7.94917320E-02  6.69762454E-02 -2.45950932E-02 -9.65920248E-06 -5.65232626E-04
  4.74987610E-04 -1.78696167E-04  2.00728618E-01  3.90237776E-01 -2.54514736E-01
  2.16992498E-01  1.54931234E-01 -1.16908404E-01 -2.26622566E-01  1.49016550E-01
 -1.22121161E-01 -8.95020164E-02  1.15820674E-08  1.50106462E-08 -1.33725455E-02
  1.12663815E-02 -4.13596533E-03  2.35449814E-07  2.64918304E-02 -2.23193684E-02
  8.19363572E-03 -8.24703637E-06 -7.93833128E-02  6.68907864E-02 -2.45566321E-02
 -9.63061463E-06 -5.80755011E-04  4.94084165E-04 -1.78434149E-04 -1.40527322E-01
 -3.13402243E-01  1.30459601E-01 -4.11899252E-01 -1.53216032E-01  8.01639832E-02
  1.79722466E-01 -7.33027033E-02  2.41056716E-01  8.84496697E-02 -4.22334377E-07
 -1.33830384E-07  9.20375009E-03 -7.75589967E-03  2.84800627E-03  2.37882824E-06
 -2.19865169E-02  1.85316332E-02 -6.80571531E-03  7.54887400E-05  6.93263775E-02
 -5.83715720E-02  2.14150868E-02 -2.78072417E-05 -2.74788867E-03  2.30948638E-03
 -8.45307880E-04 -5.59201548E-04 -7.26713941E-04  1.13709335E-03  1.73174759E-03
 -2.92600144E-05 -7.95320274E-02 -1.01600378E-01  1.63799360E-01  2.56948176E-01
 -2.35204966E-03  6.99288948E-07  2.14399641E-07 -9.19322054E-03  7.74542678E-03
 -2.84349643E-03 -8.73007069E-06  2.19919829E-02 -1.85214129E-02  6.79607518E-03
 -8.99507915E-05 -6.92968620E-02  5.84151126E-02 -2.14587278E-02  2.71187737E-05
  2.74287663E-03 -2.31849309E-03  8.53932219E-04 -5.41441241E-04 -6.86578564E-04
  1.12324337E-03  1.77980875E-03 -1.13963519E-05 -7.92951960E-02 -1.01080326E-01
  1.63527630E-01  2.57354934E-01 -2.16647775E-03 -4.76400289E-08 -7.70541814E-08
  1.42787963E-02 -1.20303688E-02  4.41714360E-03  9.52652923E-07 -2.80451802E-02
  2.36290059E-02 -8.67599200E-03 -9.18551744E-07  9.28511531E-02 -7.82303398E-02
  2.87223413E-02  7.67026899E-07 -1.18076629E-02  9.94548826E-03 -3.65124244E-03
  1.80716290E-01  3.68455702E-01 -2.08904685E-01  3.05748125E-01  1.58508508E-01
 -1.09452109E-01 -2.22261081E-01  1.27589862E-01 -1.79378036E-01 -9.50033847E-02
 -4.23192470E-08 -6.40531734E-08  1.42336409E-02 -1.19926512E-02  4.40281055E-03
  7.67609845E-07 -2.79598600E-02  2.35579383E-02 -8.64869251E-03 -1.92575065E-06
  9.26359104E-02 -7.80504287E-02  2.86539266E-02  1.98205026E-06 -1.18030102E-02
  9.94331359E-03 -3.64872096E-03 -1.69456434E-01 -3.53900661E-01  1.85918021E-01
 -3.41086147E-01 -1.58004301E-01  1.00346762E-01  2.10527185E-01 -1.08958360E-01
  2.08173388E-01  9.46318015E-02  4.25046006E-08  6.83298212E-08 -1.42339254E-02
  1.19941354E-02 -4.40385725E-03 -9.88921523E-07  2.79593200E-02 -2.35597371E-02
  8.65027429E-03  6.79750873E-06 -9.26435715E-02  7.80644010E-02 -2.86595457E-02
  3.22836387E-06  1.18011093E-02 -9.94478452E-03  3.65321969E-03  1.80455849E-01
  3.67890184E-01 -2.08561099E-01  3.05452790E-01  1.58288250E-01 -1.09301757E-01
 -2.21930931E-01  1.27391776E-01 -1.79199609E-01 -9.48742823E-02  4.49894262E-08
  7.66405658E-08 -1.42747011E-02  1.20280521E-02 -4.41677442E-03 -1.11793328E-06
  2.80370036E-02 -2.36241567E-02  8.67503842E-03  6.16827326E-06 -9.28203306E-02
  7.82076679E-02 -2.87185259E-02  4.29142343E-06  1.18029536E-02 -9.94831845E-03
  3.65251709E-03 -1.69668795E-01 -3.54285750E-01  1.86133615E-01 -3.41362776E-01
 -1.58143051E-01  1.00480504E-01  2.10768943E-01 -1.09097085E-01  2.08338093E-01
  9.47178962E-02 -3.37702006E-08 -1.67591656E-08  4.47427412E-05 -3.86483158E-05
  1.30889700E-05  4.08137814E-07 -1.97331829E-04  1.81521095E-04 -4.80000610E-05
  1.06922383E-06 -3.95135777E-04  2.88387330E-04 -1.58511552E-04  3.33345439E-06
 -3.75113116E-05  2.93896788E-05 -1.50476166E-05 -1.60909020E-03 -3.33000000E-03
  1.82097987E-03 -2.97288698E-03 -1.46042575E-03 -1.20257902E-01 -2.48064234E-01
  1.35289449E-01 -2.23187366E-01 -1.08780542E-01  2.97874097E-08  5.86152752E-09
 -4.44701393E-05  3.89256455E-05 -1.26493522E-05  1.67627116E-08  1.42339262E-04
 -1.34992319E-04  3.17972478E-05 -3.07598787E-06  3.67912610E-04 -2.82945143E-04
  1.39886142E-04 -3.31992329E-06  4.78222930E-05 -3.69478483E-05  1.63299553E-05
  1.63548537E-03  3.35767871E-03 -1.84634057E-03  2.97638672E-03  1.46546239E-03
  1.20618715E-01  2.48782547E-01 -1.36277619E-01  2.21728318E-01  1.08911257E-01
 -6.03038213E-08 -1.12292217E-07  1.80563732E-02 -1.52134341E-02  5.58792504E-03
  6.49236698E-07 -3.73025811E-02  3.14291701E-02 -1.15461690E-02  6.04272511E-05
  1.56349555E-01 -1.31752260E-01  4.83470085E-02  1.44658263E-05 -1.70191602E-02
  1.43435665E-02 -5.26707097E-03  2.19717274E-01  3.69898986E-01 -3.46584335E-01
 -1.32633418E-01  1.05891500E-01 -1.42796017E-01 -2.41021932E-01  2.24514157E-01
  8.21884124E-02 -6.95106543E-02  5.35990203E-08  9.56720514E-08 -1.81106461E-02
  1.52622008E-02 -5.60229974E-03 -4.43372400E-07  3.74080474E-02 -3.15270314E-02
  1.15714265E-02 -6.09092567E-05 -1.56610423E-01  1.31931220E-01 -4.84623113E-02
 -1.64755009E-05  1.71644068E-02 -1.44662649E-02  5.31314566E-03  7.90551786E-03
  9.97089711E-02  9.01036398E-02  5.53804723E-01  9.99416351E-02 -6.71350364E-03
 -6.74321726E-02 -5.60478254E-02 -3.58821957E-01 -6.56871731E-02 -6.53684325E-08
 -1.17027731E-07  1.81105976E-02 -1.52589055E-02  5.60059735E-03  8.77494821E-07
 -3.74116382E-02  3.15211012E-02 -1.15673943E-02  5.30701646E-05  1.56722045E-01
 -1.32031133E-01  4.84995761E-02  5.88927315E-06 -1.71853536E-02  1.44764220E-02
 -5.31690632E-03 -2.20064011E-01 -3.70538339E-01  3.47084146E-01  1.32795829E-01
 -1.06060652E-01  1.43030981E-01  2.41450706E-01 -2.24850383E-01 -8.23048617E-02
  6.96233841E-02  7.48104478E-08  1.38041386E-07 -1.80637630E-02  1.52177545E-02
 -5.58793517E-03 -1.19340039E-06  3.73186754E-02 -3.14365524E-02  1.15446548E-02
 -5.10247143E-05 -1.56377786E-01  1.31779033E-01 -4.83612678E-02 -3.12212021E-06
  1.70208815E-02 -1.43431767E-02  5.26275978E-03 -7.91457745E-03 -9.96403427E-02
 -8.99281780E-02 -5.53274320E-01 -9.98887343E-02  6.72317070E-03  6.73937831E-02
  5.59266084E-02  3.58482204E-01  6.56549390E-02  1.04355141E-04  2.14852313E-05
  1.60419043E-02  3.62923694E-02  4.69916094E-02 -4.79552750E-04 -1.19025593E-01
 -2.69224310E-01 -3.48519822E-01 -8.50488434E-03 -2.30091094E-01 -5.21378098E-01
 -6.76277623E-01 -3.42474125E-03 -1.29803926E-02 -2.85502642E-02 -3.58003703E-02
 -9.34897617E-02  3.67416860E-02  3.92968245E-03 -1.63833198E-02  5.79611835E-02
  1.27695859E+00 -5.01131430E-01 -5.37027029E-02  2.24055491E-01 -7.94196436E-01
 -2.24035335E-04 -6.56955582E-05 -1.59673659E-02 -3.62053775E-02 -4.69963742E-02
  2.06590556E-03  1.18522211E-01  2.68784828E-01  3.48951770E-01  9.87804050E-03
  2.30484486E-01  5.21692101E-01  6.75860333E-01  3.58741963E-03  1.19704112E-02
  2.77134660E-02  3.67856456E-02 -9.33048373E-02  3.68139113E-02  4.26089747E-03
 -1.65060188E-02  5.82769764E-02  1.27706020E+00 -5.03926565E-01 -5.63732022E-02
  2.24701443E-01 -7.92423203E-01  3.85135408E-03  6.54032151E-03  3.85639741E-03
 -6.00263271E-03 -2.88108472E-02 -8.95398591E-02 -1.81448348E-02  1.67271909E-02
  1.04205092E-01 -5.11408644E-01  1.85547581E-01  2.53753742E-01  9.14663400E-02
  6.36162111E-01 -3.98291055E-04 -8.14766242E-02 -2.20660990E-01 -2.27063222E-01
  4.16702973E-01  2.91575321E-01 -9.27842864E-02 -1.46309048E-01  1.61631012E-01
 -3.10827500E-01 -2.24298436E-01  7.11174527E-02  1.05312352E-01 -3.85536679E-03
 -6.54263087E-03 -1.68368602E-02 -2.31221980E-02 -8.55497405E-03  8.94057076E-02
  6.27108730E-02  8.35806248E-02  2.49371153E-02  5.13272860E-01 -4.57964267E-02
  6.31496985E-02  3.19924843E-01 -6.31686426E-01 -1.11340689E-01 -1.72868351E-01
 -1.10891842E-01 -1.91042952E-01 -2.54626610E-01 -2.76580423E-01  2.02809407E-02
  4.06180704E-01  1.44147261E-01  1.92199082E-01  2.13260611E-01 -1.80837057E-02
 -2.95256744E-01  3.84747942E-03  6.53016889E-03 -3.98103433E-03  5.88974045E-03
  2.89124809E-02 -8.92636803E-02  1.84784912E-02 -1.63728365E-02 -1.04329365E-01
 -5.14131960E-01 -1.85952185E-01 -2.55095810E-01 -9.36341563E-02  6.31111438E-01
  8.22507927E-04  8.13316977E-02  2.18843131E-01 -2.24277426E-01  4.17773068E-01
  2.94325340E-01 -9.32363312E-02 -1.47695703E-01  1.59556210E-01 -3.11540006E-01
 -2.26263694E-01  7.14350701E-02  1.06291345E-01 -3.86202732E-03 -6.55826052E-03
  1.66875010E-02  2.30104797E-02  8.72711567E-03  8.97993208E-02 -6.24206961E-02
 -8.34341957E-02 -2.54647203E-02  5.10614611E-01  4.68864496E-02 -6.12480470E-02
 -3.18444158E-01 -6.36784321E-01  1.12419779E-01  1.74270718E-01  1.11271680E-01
 -1.92492290E-01 -2.51893377E-01 -2.73637668E-01  1.90197584E-02  4.07582587E-01
  1.45273136E-01  1.90262569E-01  2.11171968E-01 -1.71586409E-02 -2.96424129E-01
 -4.40546187E-02 -1.77114549E-02  1.23616670E-02  1.02333447E-02 -1.20847647E-02
  4.93121635E-01 -1.22582126E-01 -1.00972181E-01  1.21264569E-01  9.08502646E-01
 -1.94364531E-01 -1.60102823E-01  1.92266178E-01  5.93425718E-02 -9.52971379E-02
 -7.88308668E-02  9.33524548E-02  3.56969904E-02  3.50457318E-03  4.70560435E-02
 -1.71412938E-02  4.62377589E-02  1.07182399E-01  2.15024213E-01  3.30738178E-01
 -9.27211588E-02 -7.25968546E-03 -4.40636662E-02 -1.77256562E-02 -1.22810713E-02
 -1.01131110E-02  1.21587804E-02  4.93407231E-01  1.22711671E-01  1.01472129E-01
 -1.20289498E-01  9.08872449E-01  1.94854119E-01  1.61009648E-01 -1.91335397E-01
  5.99099287E-02  9.52394592E-02  7.88186217E-02 -9.31926884E-02  3.52412199E-02
  3.69401601E-03  4.71016299E-02 -1.72279629E-02  4.65428375E-02  1.08050488E-01
  2.14653779E-01  3.30667739E-01 -9.25643393E-02 -7.78850718E-03 -4.33028625E-03
 -7.36088129E-03 -1.33408273E-02 -1.38794682E-02  5.32355089E-03  1.17143735E-01
  3.38667484E-02  2.76892578E-02 -3.40646650E-02 -4.87202013E-01 -1.86517307E-01
 -7.06280684E-02  4.10596829E-01 -2.93774912E-01  5.19712848E-02  7.40547366E-02
  3.36989796E-02  4.80246727E-01 -3.15534020E-01 -7.96433300E-02  7.40861973E-02
 -6.19551202E-02 -3.65551222E-01  2.34573134E-01  5.30580620E-02 -5.38035360E-02
  4.52187715E-02 -4.30481907E-03 -7.31647812E-03 -9.37185483E-03 -4.88093956E-03
  1.70027933E-02  1.16465760E-01  3.41410443E-02  2.84409003E-02 -3.29045677E-02
 -4.87414071E-01 -3.02205305E-01 -3.33621124E-01  6.82599568E-02 -2.90890831E-01
  9.22914305E-03 -2.30823525E-02 -9.27048529E-02 -3.56689005E-01  1.38003967E-02
 -4.42576367E-02 -7.25534701E-02  4.56194863E-01  2.66165439E-01 -1.40248834E-02
  2.63294763E-02  5.68853498E-02 -3.45874869E-01 -4.31633053E-03 -7.33637528E-03
  1.33751885E-02  1.39290439E-02 -5.29609531E-03  1.16761581E-01 -3.39266417E-02
 -2.78216325E-02  3.38874133E-02 -4.86298386E-01  1.86676865E-01  7.12349663E-02
 -4.09387921E-01 -2.93061311E-01 -5.19659433E-02 -7.40095846E-02 -3.35912302E-02
  4.78159306E-01 -3.15696901E-01 -8.10580382E-02  7.43157755E-02 -6.15799301E-02
 -3.63998929E-01  2.34711026E-01  5.41324087E-02 -5.39817554E-02  4.49461598E-02
 -4.31879749E-03 -7.34155391E-03  9.35105037E-03  4.87623817E-03 -1.69445835E-02
  1.16873513E-01 -3.41723431E-02 -2.85379923E-02  3.27305511E-02 -4.88615326E-01
  3.02813460E-01  3.34676337E-01 -6.72790378E-02 -2.92012923E-01 -9.10555323E-03
  2.32736657E-02  9.28272423E-02 -3.57347041E-01  1.51864410E-02 -4.24958154E-02
 -7.32856977E-02  4.57528012E-01  2.66657530E-01 -1.50746256E-02  2.49881045E-02
  5.74429185E-02 -3.46892868E-01 -3.88416246E-02 -1.36727523E-02  1.56932668E-02
  1.31098965E-02 -1.50192353E-02  3.69127396E-01 -1.58194025E-01 -1.31741863E-01
  1.52565165E-01  1.79723382E+00 -9.69002728E-02 -8.13942360E-02  9.15563934E-02
  1.33874728E+00  1.91170162E-01  1.58042761E-01 -1.87495876E-01  3.30704938E-02
  1.60349124E-02  5.60076425E-02 -1.88075450E-02  3.51176928E-02 -1.42396831E-02
 -2.70040742E-01 -2.67570440E-01  6.09672450E-02  1.73686988E-01  3.88166451E-02
  1.36776017E-02  1.55152828E-02  1.27586849E-02 -1.54103466E-02 -3.69507258E-01
 -1.57009518E-01 -1.29396897E-01  1.55114664E-01 -1.79616641E+00 -9.52131609E-02
 -7.77745005E-02  9.59612719E-02 -1.33874521E+00  1.91446002E-01  1.58622740E-01
 -1.86818356E-01 -3.38964228E-02 -1.56760756E-02 -5.59246664E-02  1.86431871E-02
 -3.45828474E-02  2.28029597E-02  2.66356949E-01  2.66900490E-01 -5.94696339E-02
 -1.78650925E-01 -4.36574969E-03 -7.45261296E-03  2.53835874E-03  4.35503764E-03
  3.65432330E-03  1.18800014E-01 -1.00212478E-02 -2.57754721E-02 -3.78064376E-02
 -3.49360544E-01  1.27096583E-01  2.72958878E-01  3.32588089E-01 -5.81839201E-01
 -8.50759468E-02 -3.57298819E-02  1.77712431E-01  3.12676810E-01  1.80245503E-01
  4.48984188E-01 -1.17783932E-01  4.34612611E-02 -2.43940596E-01 -1.40429273E-01
 -3.49909993E-01  9.17326435E-02 -3.35576597E-02 -4.39670277E-03 -7.50685805E-03
 -6.23576354E-04 -2.81505434E-03 -5.65398395E-03  1.19652724E-01  1.45932577E-02
  2.97499537E-02  3.38595249E-02 -3.47720031E-01 -1.07489946E-01 -2.56488529E-01
 -3.51138946E-01 -5.86024038E-01 -1.33855989E-01 -1.45888068E-01  3.53618127E-02
  8.78953148E-02  2.67176667E-01  4.57558857E-01 -1.57156383E-01  1.84955914E-01
 -6.80929653E-02 -2.08367744E-01 -3.56550239E-01  1.22517176E-01 -1.44284412E-01
  4.38869914E-03  7.49305984E-03  2.56388939E-03  4.42114549E-03  3.75610724E-03
 -1.19426375E-01 -9.96430948E-03 -2.59004060E-02 -3.83375331E-02  3.46815364E-01
  1.25497317E-01  2.71118593E-01  3.32774839E-01  5.85482862E-01 -8.50136099E-02
 -3.52923273E-02  1.78666696E-01 -3.15320868E-01 -1.77281819E-01 -4.47092554E-01
  1.16935257E-01 -4.32293736E-02  2.46047950E-01  1.38046783E-01  3.48384523E-01
 -9.10531376E-02  3.33880006E-02  4.36545074E-03  7.45285147E-03 -5.78080212E-04
 -2.73178500E-03 -5.57009172E-03 -1.18824119E-01  1.42613306E-02  2.92846012E-02
  3.36581082E-02  3.49501014E-01 -1.06345470E-01 -2.55802120E-01 -3.52936001E-01
  5.81952014E-01 -1.33308687E-01 -1.45020113E-01  3.59230270E-02 -9.05232416E-02
 -2.67589555E-01 -4.58479704E-01  1.56800775E-01 -1.81496257E-01  7.01817600E-02
  2.08741685E-01  3.57338438E-01 -1.22252568E-01  1.41540067E-01  1.52314137E-04
  3.81961036E-05 -1.49577955E-02 -3.37082781E-02 -4.34585370E-02  5.14934121E-04
  2.05726532E-01  4.63836314E-01  5.98316190E-01 -5.63660995E-03  1.59210543E-01
  3.59887182E-01  4.65558836E-01  4.39198804E-04  1.82056124E-02  4.06604992E-02
  5.18957861E-02  1.49386490E-01 -5.87816470E-02 -6.52951909E-03  2.63058809E-02
 -9.30253129E-02  2.67766010E-01 -1.03576716E-01 -9.97922011E-03  4.67480771E-02
 -1.67826990E-01  2.15756791E-04  8.18213248E-05 -1.46629840E-02 -3.34441353E-02
 -4.36917948E-02 -1.90051388E-04  2.01849565E-01  4.60689816E-01  6.02274578E-01
 -8.24490235E-03  1.57137043E-01  3.58103164E-01  4.67397799E-01 -1.03182499E-03
  1.75299479E-02  4.00966756E-02  5.25427137E-02 -1.49611928E-01  5.88460862E-02
  6.26361945E-03 -2.61850976E-02  9.25768273E-02 -2.68431043E-01  1.07372856E-01
  1.29492320E-02 -4.73737839E-02  1.64938843E-01 -4.29754894E-03 -7.98747235E-03
  1.26103146E-02  3.90930023E-03 -3.01202070E-02  1.53804955E-01 -1.92345459E-02
 -1.33881372E-02  2.57181503E-02 -7.05398684E-01 -5.88835661E-02  1.38004962E-01
  5.66250449E-01 -4.89709705E-01 -3.40872583E-02 -9.01519370E-03  8.56481572E-02
  5.34584901E-01 -9.18082530E-02  2.25994774E-01 -1.55361423E-02 -6.82479027E-02
 -4.61301180E-01  8.67455749E-02 -1.87730024E-01  1.16951802E-02  5.43059341E-02
  4.35875146E-03  8.08755538E-03 -2.16418507E-02 -2.44362818E-02  3.40661255E-03
 -1.55299659E-01  2.24815244E-02  2.10122525E-02 -1.54487564E-02  7.09661308E-01
  3.20289371E-01  4.53220689E-01  1.99045234E-01  4.92249778E-01  6.10497441E-02
  6.98499048E-02 -7.11264268E-03  2.28367281E-01 -2.09849971E-01 -2.61867912E-01
  1.50906921E-01 -4.08779756E-01 -1.98061455E-01  1.73852440E-01  2.18500385E-01
 -1.28581098E-01  3.57683250E-01  4.36275731E-03  8.09626272E-03  1.25780563E-02
  3.85199707E-03 -3.01641166E-02 -1.55530372E-01 -1.91620493E-02 -1.33974595E-02
  2.54477235E-02  7.11361333E-01 -5.86731944E-02  1.39978784E-01  5.70884627E-01
  4.93377097E-01 -3.42656800E-02 -8.97524812E-03  8.63076203E-02 -5.38374334E-01
  9.16903446E-02 -2.29192377E-01  1.63282627E-02  6.71917915E-02  4.64431796E-01
 -8.66783955E-02  1.90303748E-01 -1.23178139E-02 -5.35174367E-02 -4.28901928E-03
 -7.97237395E-03 -2.16768579E-02 -2.44670951E-02  3.42837788E-03  1.53543546E-01
  2.27708372E-02  2.13974278E-02 -1.53247100E-02 -7.04491151E-01  3.18078340E-01
  4.49747544E-01  1.96790004E-01 -4.88286560E-01  6.05619706E-02  6.91978071E-02
 -7.28565215E-03 -2.28409027E-01  2.08548339E-01  2.58813615E-01 -1.49504490E-01
  4.05204950E-01  1.98036725E-01 -1.72811297E-01 -2.16103321E-01  1.27469004E-01
 -3.54841917E-01 -2.46213751E-02 -7.60095301E-03  1.65164205E-02  1.35607808E-02
 -1.64603249E-02 -1.61553894E-01 -2.95187811E-01 -2.42796066E-01  2.92953232E-01
  1.10431300E+00 -9.01474505E-02 -7.34951970E-02  9.12461721E-02  4.29336023E-02
 -6.09224122E-03 -4.94601549E-03  6.22511703E-03  2.92865754E-02  2.02786476E-02
  5.41492137E-02 -1.72175811E-02  2.40513546E-02  6.52401623E-03 -3.91819059E-01
 -3.50677406E-01  7.34071657E-02  2.99549649E-01 -2.46473898E-02 -7.62281835E-03
 -1.66952780E-02 -1.39642512E-02  1.59233866E-02 -1.61000172E-01  2.97539513E-01
  2.47851166E-01 -2.86678833E-01  1.10534747E+00  9.17648055E-02  7.71206942E-02
 -8.65396691E-02  4.49196364E-02  5.95234179E-03  5.05206670E-03 -5.48206051E-03
  2.80595864E-02  2.07770793E-02  5.42458620E-02 -1.74530819E-02  2.48725566E-02
  3.16676277E-03 -3.90785663E-01 -3.50863257E-01  7.29426706E-02  3.01625575E-01
 -5.04332673E-03 -8.45185938E-03  3.58828274E-03  2.21605017E-03 -5.56304961E-03
  1.34006892E-01 -1.24988009E-02 -2.21878421E-02 -2.00311750E-02 -4.01120153E-01
  1.55279710E-01  2.98784579E-01  3.11848003E-01 -3.03722271E-01 -3.65749797E-02
 -1.29302878E-02  8.30182350E-02  2.51819705E-01  2.06089233E-01  4.64470266E-01
 -1.35679804E-01  1.07748245E-01 -2.06274480E-01 -1.66715026E-01 -3.76205628E-01
  1.09295671E-01 -8.39700875E-02 -5.00348824E-03 -8.37696221E-03  4.40308308E-03
  4.32580928E-03 -2.45140650E-03  1.32530368E-01  4.26758399E-03  1.54147486E-02
  2.81890814E-02 -3.94379314E-01 -7.89062067E-02 -2.33812597E-01 -3.81756151E-01
 -2.99021994E-01 -6.00310715E-02 -6.67773065E-02  1.21810417E-02  1.76753200E-01
  2.34463715E-01  4.65316180E-01 -1.47830270E-01  1.51877366E-01 -1.39835527E-01
 -1.91920891E-01 -3.77054349E-01  1.20076886E-01 -1.23002624E-01 -5.00722814E-03
 -8.38353722E-03 -3.45933554E-03 -2.18000336E-03  5.24510735E-03  1.32642942E-01
  1.22686924E-02  2.20446963E-02  2.03819319E-02 -3.94740967E-01 -1.55672347E-01
 -2.97548015E-01 -3.07195482E-01 -2.99488861E-01  3.63686668E-02  1.29893495E-02
 -8.21825385E-02  2.48088004E-01  2.06690851E-01  4.62692854E-01 -1.35475703E-01
  1.07810482E-01 -2.02946442E-01 -1.67347626E-01 -3.74728547E-01  1.09142911E-01
 -8.40073327E-02 -5.04816651E-03 -8.45986987E-03 -4.62602333E-03 -4.57263884E-03
  2.50033615E-03  1.34123488E-01 -4.00892528E-03 -1.51969970E-02 -2.84345553E-02
 -4.01059977E-01  8.15138401E-02  2.37827789E-01  3.84270952E-01 -3.04210417E-01
  6.07735640E-02  6.76640993E-02 -1.21574023E-02  1.75991927E-01  2.36146244E-01
  4.68089086E-01 -1.49152062E-01  1.55088700E-01 -1.39070563E-01 -1.93334565E-01
 -3.79381660E-01  1.21221601E-01 -1.25903190E-01  1.78019171E-02  5.17746288E-03
 -6.25787154E-02 -5.17668606E-02  6.12965662E-02  2.73057831E-01  6.32787088E-01
  5.23676856E-01 -6.19232343E-01 -1.15691667E+00  8.50249056E-01  7.03146052E-01
 -8.33471374E-01  1.50246102E+00  3.14933271E-01  2.60688746E-01 -3.08044401E-01
 -2.92941721E-02 -6.20287938E-02 -9.30008449E-02  2.57512560E-02  5.33723643E-03
 -3.67451849E-01 -5.18463617E-01 -9.29470720E-01  2.72645575E-01 -1.26835435E-01
 -1.78089975E-02 -5.19060829E-03 -6.26529515E-02 -5.19336167E-02  6.10682172E-02
 -2.72910045E-01  6.33158867E-01  5.24345207E-01 -6.18495426E-01  1.15836917E+00
  8.51367878E-01  7.05320052E-01 -8.30857261E-01 -1.50245429E+00  3.14981549E-01
  2.60701472E-01 -3.08067591E-01  2.97014933E-02  6.19134242E-02  9.30346436E-02
 -2.56893802E-02 -5.60939884E-03  3.72043432E-01  5.16775596E-01  9.29490682E-01
 -2.71965154E-01  1.24237707E-01  4.37680918E-03  7.91088951E-03 -7.96721444E-03
  6.22920516E-03  4.27200199E-02 -1.61640982E-01  7.11832564E-03 -1.53365191E-02
 -6.47776218E-02  1.11357823E+00  2.80769034E-01  7.32857904E-02 -7.08086447E-01
  7.02589088E-01 -6.42382669E-02 -1.28143908E-01 -1.41353822E-01 -4.47082878E-01
  3.46118483E-01  1.41403611E-01 -9.10451735E-02  6.71366268E-02  4.11750097E-01
 -3.00875565E-01 -1.04876248E-01  7.48467857E-02 -5.26356436E-02  4.39512856E-03
  7.94113148E-03 -2.58238331E-02 -3.42003560E-02 -9.67451886E-03 -1.62122558E-01
  3.66231349E-02  5.15369870E-02  2.19883803E-02  1.11577218E+00  5.03078141E-01
  5.75729272E-01 -5.82203233E-02  7.01279957E-01  3.96291654E-02  1.07566242E-01
  1.64887274E-01  3.75717688E-01  2.30317803E-02  1.06441022E-01  5.34758862E-02
 -4.44729720E-01 -3.26434551E-01 -1.09752180E-02 -7.34748892E-02 -5.48186119E-02
  4.06558919E-01 -4.38846186E-03 -7.93043804E-03 -7.99719188E-03  6.22152958E-03
  4.27951397E-02  1.61976053E-01  7.14040735E-03 -1.53555915E-02 -6.49046054E-02
 -1.11602490E+00  2.81512626E-01  7.37008817E-02 -7.09192106E-01 -7.01446792E-01
 -6.44074174E-02 -1.28136170E-01 -1.40819494E-01  4.47057892E-01 -3.46936413E-01
 -1.42114293E-01  9.12159191E-02 -6.65932755E-02 -4.11809552E-01  3.01606369E-01
  1.05476385E-01 -7.50010051E-02  5.21995962E-02 -4.38285775E-03 -7.92152876E-03
 -2.58228503E-02 -3.42075759E-02 -9.69791113E-03  1.61840206E-01  3.66622878E-02
  5.15844471E-02  2.19870310E-02 -1.11464407E+00  5.02473641E-01  5.75236527E-01
 -5.74486660E-02 -7.03063281E-01  4.00243076E-02  1.08126508E-01  1.65099915E-01
 -3.75709032E-01 -2.20571230E-02 -1.05473134E-01 -5.36688383E-02  4.44208909E-01
  3.26394410E-01  1.01511801E-02  7.26369975E-02  5.49830433E-02 -4.06113464E-01
  3.16270027E-05  3.10339227E-05  1.93383879E-02  4.37898033E-02  5.67570844E-02
 -5.65662038E-04 -2.07320561E-01 -4.70089532E-01 -6.10196502E-01  9.17515791E-04
 -1.52107506E-01 -3.44496493E-01 -4.46600381E-01 -5.64254460E-03 -8.96191206E-02
 -2.01810806E-01 -2.59967844E-01 -1.09156752E-01  4.27120825E-02  4.35573935E-03
 -1.90545351E-02  6.76565631E-02 -1.18067420E+00  4.64014746E-01  5.03327075E-02
 -2.07333253E-01  7.33816948E-01 -1.72332819E-05 -6.17349512E-06 -1.93181466E-02
 -4.37655976E-02 -5.67555641E-02 -7.24022553E-05  2.07755325E-01  4.70602633E-01
  6.10181687E-01 -1.35223531E-03  1.51850730E-01  3.44387756E-01  4.47130579E-01
  5.63036619E-03  8.78757869E-02  2.00378601E-01  2.61702182E-01 -1.08910743E-01
  4.31385807E-02  5.07342462E-03 -1.92665412E-02  6.77659240E-02 -1.18052220E+00
  4.65751445E-01  5.21097947E-02 -2.07742326E-01  7.32886318E-01  4.47608515E-03
  8.22473498E-03 -4.59633789E-03  1.29701004E-02  5.01889630E-02 -1.72457675E-01
  8.14181155E-03 -2.03663434E-02 -8.17977440E-02  1.36831487E+00  2.11369974E-03
 -3.22997942E-01 -8.86646148E-01  3.06279351E-01  4.21371909E-02  8.47075451E-02
  9.44993196E-02 -5.02288507E-01 -6.73135680E-03 -3.01120087E-01  3.49772828E-02
  1.23930896E-01  4.87131204E-01 -1.94947999E-03  2.86227652E-01 -3.34705636E-02
 -1.09010099E-01 -4.45512541E-03 -8.19088248E-03  2.80561959E-02  3.99624356E-02
  1.81459877E-02  1.71976146E-01 -4.61719509E-02 -6.53004511E-02 -2.85950401E-02
 -1.36782141E+00 -4.53752781E-01 -6.99763248E-01 -4.39073432E-01 -3.05491168E-01
  2.72497635E-02  7.23531203E-02  1.08985823E-01 -2.07281396E-01  2.85176084E-01
  3.30387076E-01 -1.59134355E-01  3.15793168E-01  1.96812556E-01 -2.66351911E-01
 -3.14390238E-01  1.53146503E-01 -3.14984949E-01  4.45279784E-03  8.18822493E-03
  4.76178428E-03 -1.28315585E-02 -5.03371904E-02 -1.71987616E-01 -8.47854949E-03
  2.01361675E-02  8.22439122E-02  1.36857199E+00 -2.83715487E-03  3.21992603E-01
  8.86129600E-01  3.05769016E-01 -4.20285784E-02 -8.45712493E-02 -9.44872445E-02
 -5.01848096E-01 -6.09039370E-03 -2.99787154E-01  3.45209840E-02  1.24692670E-01
  4.86832686E-01 -2.67521745E-03  2.84945245E-01 -3.30324422E-02 -1.09627698E-01
 -4.47638294E-03 -8.22530245E-03 -2.79204137E-02 -3.98861103E-02 -1.83860994E-02
  1.72472432E-01  4.58296466E-02  6.50412563E-02  2.90108407E-02 -1.36834547E+00
  4.53705220E-01  7.00295508E-01  4.40782969E-01 -3.06300688E-01 -2.71561198E-02
 -7.23224062E-02 -1.09196055E-01 -2.06091509E-01  2.85706677E-01  3.31914698E-01
 -1.59525623E-01  3.16079179E-01  1.95709830E-01 -2.66967810E-01 -3.15914959E-01
  1.53528005E-01 -3.15142184E-01 -1.44081800E+00  1.58547149E+00 -3.44234004E-02
 -2.84838021E-02  3.36992949E-02 -6.37463908E-01  1.33676779E-01  1.10574426E-01
 -1.30977498E-01  6.63986854E-02  8.14232912E-02  6.73957127E-02 -7.96434359E-02
  8.65445369E-03  4.25485681E-02  3.51931992E-02 -4.16873524E-02 -2.31496547E-02
 -2.52849820E-03 -3.09445020E-02  1.12851162E-02 -3.02812094E-02 -4.48449476E-02
 -8.49469701E-02 -1.32932157E-01  3.72973316E-02  1.43910845E-03 -1.43999891E+00
  1.58457392E+00  3.44611017E-02  2.85132530E-02 -3.37320922E-02 -6.37133650E-01
 -1.33935320E-01 -1.10770238E-01  1.31227815E-01  6.66020572E-02 -8.18357412E-02
 -6.76753960E-02  8.02099828E-02  9.13514233E-03 -4.26392139E-02 -3.52699545E-02
  4.17733322E-02 -2.31608769E-02 -2.56592246E-03 -3.09846099E-02  1.12896447E-02
 -3.02422932E-02 -4.52862039E-02 -8.50136100E-02 -1.33217664E-01  3.73138292E-02
  1.69163431E-03  4.62465130E-03  2.25072227E-03 -1.05017488E-03  6.64590197E-03
  2.14970304E-02 -8.80445491E-02 -2.09234973E-03 -1.12043481E-02 -2.37541983E-02
  3.34094343E-01  6.24640714E-02 -1.24604909E-02 -2.35869886E-01 -6.97784675E-02
 -4.19015718E-02 -1.30482238E-02  9.99138858E-02 -4.11040852E-02  1.20835273E-02
 -1.15440775E-02 -5.42569921E-04  4.60758543E-03  1.21574512E-01 -3.57302434E-02
  3.50719180E-02  1.03848570E-03 -1.13344756E-02  4.62972003E-03  2.25270436E-03
 -1.14855613E-02 -1.70034239E-02 -9.18305510E-03 -8.80522889E-02  1.10209860E-02
  1.85574723E-02  1.49177709E-02  3.33744696E-01  1.51755675E-01  1.89623401E-01
  2.58998654E-02 -6.94660585E-02 -7.19343176E-02 -8.10720141E-02  1.17221425E-02
  2.03582190E-02 -1.20248551E-02 -1.41055855E-02  1.02317326E-02 -3.35863076E-02
 -5.82010968E-02  3.47868383E-02  4.25504690E-02 -3.04673396E-02  1.00343954E-01
  4.62639503E-03  2.25177244E-03  1.06884472E-03 -6.62946568E-03 -2.15105837E-02
 -8.80975257E-02  2.07456728E-03  1.11988449E-02  2.37950208E-02  3.34550864E-01
 -6.27831098E-02  1.21887853E-02  2.36133663E-01 -6.93465285E-02  4.20165342E-02
  1.32308923E-02 -9.97803101E-02 -4.11145448E-02  1.21714586E-02 -1.14484802E-02
 -5.74062186E-04  4.60674789E-03  1.21645763E-01 -3.59897763E-02  3.48148602E-02
  1.12747306E-03 -1.13378957E-02  4.62287137E-03  2.24978216E-03  1.14924408E-02
  1.70208125E-02  9.20996809E-03 -8.79991598E-02 -1.10690680E-02 -1.86235791E-02
 -1.49436815E-02  3.33873133E-01 -1.51620888E-01 -1.89581082E-01 -2.62470823E-02
 -6.95110199E-02  7.19088319E-02  8.10770110E-02 -1.16185726E-02  2.02991344E-02
 -1.20817051E-02 -1.41885012E-02  1.02424476E-02 -3.35208945E-02 -5.80438600E-02
  3.49555662E-02  4.28018249E-02 -3.05081324E-02  1.00195298E-01  1.44441729E+00
 -1.60870595E+00 -4.14502174E-02 -3.43169028E-02  4.05188018E-02  6.68418721E-01
  2.00302614E-01  1.65896964E-01 -1.95616421E-01  8.77655134E-01  3.02633324E-01
  2.50380096E-01 -2.96322674E-01  1.91881803E-01  3.36891317E-02  2.78620191E-02
 -3.30101093E-02  2.31846219E-02 -3.94673441E-02 -7.29324261E-03 -3.20791436E-03
  6.18820208E-02 -6.39936324E-03 -1.97916025E-01 -1.87794550E-01  4.07885641E-02
  1.41157790E-01 -1.44524142E+00  1.60962776E+00 -4.14203548E-02 -3.42786390E-02
  4.05276357E-02 -6.68922951E-01  2.00090359E-01  1.65579753E-01 -1.95811766E-01
 -8.77729479E-01  3.02736049E-01  2.50703010E-01 -2.95751162E-01 -1.91882660E-01
  3.36808906E-02  2.79036795E-02 -3.28758064E-02 -2.31910103E-02  3.94563274E-02
  7.25835242E-03  3.22238393E-03 -6.19225748E-02  5.29309470E-03  1.98264724E-01
  1.87720027E-01 -4.09509451E-02 -1.40490641E-01 -4.77831101E-03 -2.08894130E-03
 -9.25284987E-04 -3.57090055E-03 -6.73536974E-03  6.62700831E-02  4.92003717E-03
  4.03770870E-04 -1.48051808E-02 -1.21324213E-01  2.71776668E-02  7.69647727E-02
  1.21777837E-01  4.12053361E-02 -1.97050191E-02 -3.97954858E-02 -4.46962707E-02
  2.95671220E-02 -8.99386743E-04  2.14367350E-02 -4.81539633E-03  5.92389054E-03
 -7.15565717E-02 -2.03459919E-03 -5.68754657E-02  1.31760695E-02 -1.40677391E-02
 -4.76914169E-03 -2.08455951E-03  2.97745407E-03  5.26894785E-03  4.72565766E-03
  6.61284564E-02  9.99094515E-03  1.19166940E-02  1.60265247E-04 -1.21985681E-01
 -4.86474002E-02 -9.48684750E-02 -1.01130711E-01  4.10725486E-02  1.29095316E-02
  3.41881840E-02  5.13825902E-02 -1.56283640E-03  1.13824638E-02  2.27977823E-02
 -1.02854442E-02  2.52082758E-02  1.25702244E-03 -3.07830028E-02 -6.00733213E-02
  2.59717499E-02 -5.91467188E-02  4.77390291E-03  2.08715684E-03 -9.17891262E-04
 -3.58019613E-03 -6.78377496E-03 -6.62648494E-02  4.91571644E-03  4.46640925E-04
 -1.46730655E-02  1.22478499E-01  2.72085088E-02  7.72223443E-02  1.22372603E-01
 -4.10463564E-02 -1.97448017E-02 -3.98619297E-02 -4.47435070E-02 -2.96143086E-02
  8.94027208E-04 -2.14566816E-02  4.81137046E-03 -5.87100551E-03  7.17194492E-02
  2.05614066E-03  5.69626969E-02 -1.31730338E-02  1.39290225E-02  4.78100162E-03
  2.09007779E-03  2.97638779E-03  5.26995753E-03  4.73256271E-03 -6.63050271E-02
  1.00259130E-02  1.19674817E-02  1.86924833E-04  1.21429626E-01 -4.86185987E-02
 -9.47278069E-02 -1.00846747E-01 -4.12511929E-02  1.29906380E-02  3.42426974E-02
  5.12736724E-02  1.53334258E-03 -1.13485617E-02 -2.27925569E-02  1.02855367E-02
 -2.52512814E-02 -1.19942910E-03  3.06863736E-02  6.00459624E-02 -2.59725598E-02
  5.92817414E-02 -1.30527963E-05  2.38956936E-05  1.55387932E-04  3.62428627E-04
  4.84831192E-04 -5.71568637E-05  1.45842089E-02  3.29467300E-02  4.25918655E-02
 -1.77672389E-04  2.34731172E-02  5.27850851E-02  6.78915467E-02  1.20747785E-05
 -5.78006929E-03 -1.30763930E-02 -1.69314077E-02  9.11010073E-03 -3.58030961E-03
 -3.92723974E-04  1.60246892E-03 -5.67336434E-03  2.25732603E-02 -8.89532708E-03
 -9.89227070E-04  3.97185025E-03 -1.40201527E-02 -1.94099477E-05  3.60981740E-05
  1.62250341E-04  3.70706243E-04  4.85202675E-04 -1.12072891E-04  1.44810169E-02
  3.28665233E-02  4.27066404E-02 -8.12609882E-04  2.30870461E-02  5.25810982E-02
  6.85826699E-02  4.34262675E-05 -5.74726412E-03 -1.30461396E-02 -1.69549550E-02
 -9.11447275E-03  3.59689274E-03  3.98439544E-04 -1.60118919E-03  5.64536050E-03
 -2.25752198E-02  8.91956856E-03  1.00026420E-03 -3.97018832E-03  1.39864556E-02
  1.16158028E+00 -1.19829622E+00 -5.56036744E-04 -2.01117632E-04  1.24952363E-03
  1.25740743E-01  2.52984847E-03  3.07115634E-04 -7.34124504E-03 -1.97946466E-01
 -1.49925231E-02  5.22243941E-03  6.26901173E-02  3.70555540E-02 -2.95256343E-03
 -3.62899627E-03 -3.38868618E-04  5.15894258E-03 -1.73094555E-03  1.41959248E-03
  7.44827953E-06 -1.63143459E-06 -1.78013593E-02  5.84803545E-03 -4.87051137E-03
 -8.86577789E-05  4.53768755E-04 -1.16446362E+00  1.20127159E+00  9.19093069E-04
  1.02094831E-03 -1.90179328E-04 -1.26062253E-01 -5.02986631E-03 -5.95740114E-03
  3.31803324E-05  1.98470739E-01  3.96242737E-02  5.04828516E-02  9.40936112E-03
 -3.69444178E-02  1.30175296E-03 -8.05621664E-05 -4.42861608E-03  2.19946515E-03
 -1.16274073E-03 -1.73795333E-03  1.28695163E-03 -4.57782805E-03 -7.89564622E-03
  4.25649185E-03  5.98056462E-03 -4.43086749E-03  1.55366530E-02 -1.16502768E+00
  1.20185475E+00 -5.58008218E-04 -2.01170807E-04  1.25591727E-03 -1.26136433E-01
  2.53715119E-03  3.03278066E-04 -7.37536400E-03  1.98655465E-01 -1.50351169E-02
  5.27142209E-03  6.29565282E-02 -3.67055621E-02 -2.94556850E-03 -3.57301720E-03
 -2.10756518E-04 -5.17749281E-03  1.73983589E-03 -1.42111488E-03 -8.79172755E-06
  3.36704390E-06  1.78639072E-02 -5.87859481E-03  4.87521241E-03  9.32826533E-05
 -4.59125931E-04  1.16127991E+00 -1.19798674E+00  9.16431908E-04  1.01748344E-03
 -1.91176206E-04  1.25712051E-01 -5.01424139E-03 -5.93589685E-03  4.13229879E-05
 -1.97924546E-01  3.95131531E-02  5.03273245E-02  9.34916008E-03  3.69241275E-02
  1.31961495E-03 -7.79332820E-05 -4.47705593E-03 -2.18966888E-03  1.16111967E-03
  1.73593488E-03 -1.28333235E-03  4.56137200E-03  7.86270319E-03 -4.25241606E-03
 -5.97603557E-03  4.41953905E-03 -1.54828148E-02 -8.66646277E-03  1.59094974E-02
 -3.61315167E-03 -3.00012092E-03  3.50918413E-03 -1.62256662E-02  4.07824113E-02
  3.37707152E-02 -3.98592711E-02 -3.47163673E-01  9.11794333E-02  7.55314587E-02
 -8.90321831E-02 -9.36733798E-03  1.25842471E-02  1.04183227E-02 -1.23004042E-02
 -1.75846610E-03 -2.05502056E-03 -4.04145621E-03  1.21157339E-03 -8.81868697E-04
 -2.39705231E-02  1.26374593E-02 -1.82157321E-02  8.79597521E-03 -4.30206555E-02
 -9.21852243E-03  1.69240670E-02  3.78898928E-03  3.13023863E-03 -3.72110375E-03
 -1.52130715E-02 -4.37297170E-02 -3.62111411E-02  4.27215097E-02 -3.88946724E-01
 -9.76066485E-02 -8.10089787E-02  9.48679228E-02  7.37404392E-02 -2.52686708E-02
 -2.08782416E-02  2.48186517E-02 -1.68562399E-03 -2.26487909E-03 -4.18101606E-03
  1.24169387E-03 -7.19118124E-04 -2.81232705E-02  1.21837013E-02 -2.36369031E-02
  1.07356334E-02 -4.81163562E-02 -1.12643486E+00  1.16372378E+00  8.01730937E-04
  3.19989802E-04 -1.72013096E-03 -1.38186353E-01 -2.63357447E-03  8.52247838E-04
  1.08347426E-02  2.64197272E-01  7.63805037E-03 -2.95890596E-02 -1.05285883E-01
  2.10913468E-02 -1.36036073E-02 -1.82361024E-02 -5.69751874E-03 -6.16219481E-03
  9.14243275E-04 -3.65972736E-03  7.74240978E-04 -1.41664610E-03  2.13920800E-02
 -2.63473938E-03  1.30901417E-02 -2.72652089E-03  4.24743877E-03 -1.12508822E+00
  1.16233341E+00  1.27513860E-03  1.39679022E-03 -3.17595300E-04 -1.38044585E-01
 -6.83336192E-03 -8.67872951E-03 -1.54847204E-03  2.64200514E-01  5.76391244E-02
  8.36231938E-02  4.14358885E-02  2.13597198E-02 -3.85928407E-03  3.78654460E-03
  2.27859559E-02  6.48319214E-04 -1.76851168E-03 -3.95235484E-03  1.96935698E-03
 -5.63580596E-03 -2.48317273E-03  6.76653938E-03  1.41166183E-02 -6.91784730E-03
  1.90507458E-02 -1.19689450E+00  1.23651563E+00 -7.52635741E-04 -2.85299871E-04
  1.65572605E-03 -1.47096999E-01  2.50102998E-03 -1.04563856E-03 -1.09320128E-02
  2.86525728E-01 -8.86023349E-03  3.13786446E-02  1.14100455E-01  2.42441145E-02
  1.42531127E-02  1.95993218E-02  7.30593481E-03 -6.59286150E-03  1.02646804E-03
 -3.82661341E-03  7.91275937E-04 -1.43816599E-03  2.30271678E-02 -3.11475982E-03
  1.36660546E-02 -2.77564256E-03  4.34903341E-03 -1.20220309E+00  1.24199823E+00
 -1.23162523E-03 -1.36244796E-03  2.70298203E-04 -1.47711652E-01  6.87670088E-03
  8.83149041E-03  1.82536985E-03  2.87374662E-01 -6.28068958E-02 -9.07672346E-02
 -4.41983853E-02  2.43316684E-02  3.34879260E-03 -5.06268848E-03 -2.46162248E-02
  7.77458995E-04 -1.87688560E-03 -4.15369847E-03  2.09098056E-03 -6.03209421E-03
 -2.98743681E-03  7.13267136E-03  1.48159253E-02 -7.36043142E-03  2.05532722E-02
 -8.93676235E-03  1.64159826E-02 -3.13976799E-03 -2.59184618E-03  3.09064966E-03
  1.63107487E-02  4.79140824E-02  3.94912539E-02 -4.73305163E-02 -6.65677773E-01
  1.03421192E-01  8.44633024E-02 -1.04296964E-01  1.31359710E+00  2.01432008E-01
  1.66784297E-01 -1.96865854E-01  4.06416410E-04 -3.10767928E-03 -2.28344154E-03
  3.80811081E-04  3.01620708E-03 -6.39747340E-02 -7.89687747E-03 -8.64929112E-02
  3.14510960E-02 -8.33665405E-02  8.37062505E-03 -1.53770618E-02 -2.91802842E-03
 -2.42777368E-03  2.82034773E-03 -1.72747455E-02  4.54870690E-02  3.78263249E-02
 -4.40093532E-02  6.42514687E-01  9.90217209E-02  8.30564254E-02 -9.38445269E-02
 -1.31154602E+00  2.00152258E-01  1.65594388E-01 -1.95965250E-01 -6.16628938E-04
  3.01109667E-03  2.02654671E-03 -3.19950965E-04 -3.00803444E-03  6.25603908E-02
  8.61110916E-03  8.51929596E-02 -3.08000670E-02  8.03483930E-02 -1.20527782E+00
  1.24515184E+00 -7.27416151E-04 -5.83403298E-04  7.62483443E-04 -1.51594336E-01
  1.91179660E-03  3.27722816E-03  2.74627487E-03  3.68733200E-01  1.92990799E-02
 -2.99943162E-02 -1.44090739E-01  4.99180658E-02 -1.08694962E-02 -2.25685157E-02
 -2.63318370E-02 -7.09633186E-03  1.84077040E-03 -2.81852245E-03  3.23543633E-04
 -5.27380733E-04  2.66538146E-02 -7.70845261E-03  9.70960846E-03 -9.68349122E-04
  2.19588316E-03 -1.19388812E+00  1.23338573E+00 -7.64352988E-04 -6.59250506E-04
  6.75300629E-04 -1.50201828E-01 -3.83604053E-04 -1.97168218E-03 -4.13004241E-03
  3.65883824E-01  8.26797548E-02  1.14081897E-01  4.34444260E-02  4.78881906E-02
  7.54151765E-03  1.96138519E-02  2.90445863E-02  2.16567206E-03 -1.78797414E-03
 -3.19281691E-03  1.94153005E-03 -6.26575613E-03 -8.47965102E-03  6.06813101E-03
  1.11399286E-02 -7.10799891E-03  2.39540955E-02  1.11976797E+00 -1.15681237E+00
 -7.78027464E-04 -5.95465691E-04  8.92990549E-04  1.41106206E-01  2.08500012E-03
  3.18349674E-03  1.93112703E-03 -3.48441963E-01  1.86704410E-02 -2.78369723E-02
 -1.36163358E-01 -4.66303728E-02 -1.01708932E-02 -2.13436105E-02 -2.52578450E-02
  6.62970132E-03 -1.77218835E-03  2.55757215E-03 -2.74575731E-04  4.60357346E-04
 -2.50268067E-02  7.49495396E-03 -8.78120965E-03  7.95584786E-04 -1.99298768E-03
  1.13180990E+00 -1.16925152E+00 -8.34038386E-04 -7.30975751E-04  7.04969786E-04
  1.42572862E-01 -7.62812515E-06 -1.50519269E-03 -4.07475755E-03 -3.51344887E-01
  7.94316465E-02  1.09358567E-01  4.10970452E-02 -4.84020727E-02  8.20922160E-03
  1.98890061E-02  2.76313046E-02 -2.15653079E-03  1.70531450E-03  2.96657159E-03
 -1.82967991E-03  5.93454104E-03  8.42860166E-03 -5.73466099E-03 -1.03278909E-02
  6.71470494E-03 -2.28460563E-02  3.10783471E-05 -5.66609217E-05  4.87658617E-04
  1.06851648E-03  1.33389301E-03 -1.19770027E-04 -1.85380145E-02 -4.15417387E-02
 -5.32209013E-02  1.37574489E-03 -1.51451164E-01 -3.41409788E-01 -4.40313391E-01
 -6.09105702E-03  8.96505192E-03  2.16491143E-02  2.99850001E-02 -1.35649774E-02
  5.34605729E-03  5.86172308E-04 -2.38144729E-03  8.40736070E-03  2.78332420E-02
 -1.07418219E-02 -7.33109394E-04  4.68125979E-03 -1.67824621E-02 -4.35844419E-05
  8.00489064E-05 -4.28382650E-04 -1.01540821E-03 -1.38087336E-03  8.60775281E-05
  1.78026785E-02  4.09263016E-02  5.39213469E-02 -2.11742354E-03  1.48843183E-01
  3.39292350E-01  4.42975066E-01  6.13075164E-03 -1.08695110E-02 -2.32232365E-02
 -2.81160927E-02 -1.35494682E-02  5.32633512E-03  5.86394379E-04 -2.38429475E-03
  8.43997375E-03  2.72105121E-02 -1.09497645E-02 -1.72423202E-03  5.03107097E-03
 -1.75383281E-02 -1.15824851E+00  1.19702444E+00  3.60525480E-04 -7.12543106E-04
 -3.10652722E-03 -1.45063640E-01 -2.82972951E-03  2.46865767E-03  1.58723807E-02
  2.74968066E-01  3.20255411E-02  2.12192420E-03 -9.77448143E-02  1.92463007E-01
  1.39834075E-02 -8.84343658E-03 -6.93005134E-02 -6.18631567E-03  2.76010471E-03
 -2.55136049E-04 -6.46707161E-04  1.54917875E-03  2.09792981E-02 -1.01640660E-02
  2.30484304E-04  2.28786064E-03 -4.40447893E-03  1.16841379E+00 -1.20753043E+00
 -1.76175459E-03 -2.46857368E-03 -1.02825412E-03  1.46383681E-01  9.53527939E-03
  1.27140517E-02  3.80432041E-03 -2.78217175E-01 -6.67358816E-02 -7.99881255E-02
 -2.13407272E-03 -1.93173751E-01 -4.25036532E-02 -5.57430190E-02 -1.44188973E-02
 -4.42960598E-03  1.41035428E-03  7.24401460E-04 -1.22838036E-03  5.09672660E-03
  1.48204830E-02 -3.89833297E-03 -1.81756828E-03  4.03882797E-03 -1.80237338E-02
 -1.16988603E+00  1.20905316E+00 -3.56696480E-04  7.14792695E-04  3.09956331E-03
 -1.46587971E-01  2.82986853E-03 -2.48186523E-03 -1.59062043E-02  2.78728207E-01
 -3.23353894E-02 -1.94232964E-03  9.92326220E-02  1.93358705E-01 -1.38751874E-02
  9.10570923E-03  6.96460552E-02 -6.25385009E-03  2.79305468E-03 -2.67841853E-04
 -6.46638024E-04  1.53244616E-03  2.12388262E-02 -1.02887123E-02  2.78975033E-04
  2.28845510E-03 -4.34677984E-03  1.15650394E+00 -1.19522190E+00  1.76625833E-03
  2.47304641E-03  1.02654003E-03  1.44843210E-01 -9.51432719E-03 -1.26830983E-02
 -3.79013756E-03 -2.74489792E-01  6.58196117E-02  7.87958617E-02  1.85082620E-03
 -1.92484400E-01  4.24085888E-02  5.55163240E-02  1.41265478E-02 -4.40892141E-03
  1.40978952E-03  7.08262955E-04 -1.21262532E-03  5.02250594E-03  1.47373880E-02
 -3.89173314E-03 -1.75610922E-03  3.97924738E-03 -1.77472358E-02
Total SCF Density                          R   N=       13203
  6.57473477E-01  5.57805713E-01  4.85498594E-01 -6.01674523E-03 -8.53445543E-03
  9.25465358E-02 -4.97972558E-03 -7.06349711E-03 -1.06251890E-02  8.29782238E-02
  5.88676062E-03  8.35016642E-03 -2.74793924E-03 -1.37800125E-02  7.19973708E-02
 -7.79333701E-02 -1.39060284E-01  2.00771842E-02  1.66182170E-02 -1.96393738E-02
  4.43928975E-01 -2.42417751E-03 -5.36781094E-03  1.33714891E-01 -2.22621730E-02
  2.41686935E-04  1.86551730E-02  1.94640726E-01 -2.00471448E-03 -4.44110332E-03
 -2.22626509E-02  1.18998588E-01 -1.94052555E-02  1.54405357E-02 -4.13605082E-02
  1.71921568E-01  2.37755318E-03  5.25760543E-03  2.40330643E-04 -1.94071012E-02
  9.89087126E-02 -1.82523251E-02  5.64818190E-03 -2.78486595E-02  1.37123720E-01
 -2.94161935E-02 -4.66788571E-02  2.80074326E-02  2.31418484E-02 -2.75240112E-02
  1.36089141E-01  3.32879969E-02  2.75069352E-02 -3.27143373E-02  1.28049396E-01
 -7.17975155E-04 -3.84544840E-03  6.52465930E-02 -5.18976298E-02  1.04923443E-02
  2.00457785E-02  9.91234315E-02 -7.80414963E-02  1.71888930E-02  2.39167810E-02
  9.29961716E-02 -5.98220140E-04 -3.18667008E-03 -5.18851265E-02  3.98020632E-02
 -2.95179963E-02  1.65939052E-02 -7.80259546E-02  6.21074369E-02 -4.21714880E-02
  1.98321447E-02 -3.99975531E-02  7.98350899E-02  6.93927475E-04  3.75511440E-03
  1.05284813E-02 -2.94754457E-02 -2.09928413E-03 -1.96135861E-02  1.72344056E-02
 -4.21177695E-02 -2.35396287E-04 -2.33162763E-02  1.53875871E-02 -1.13028868E-02
  5.09252419E-02 -1.00206870E-02 -1.66534871E-02  9.11570316E-03  7.52000315E-03
 -8.98358959E-03  3.88779370E-02  9.15742364E-03  7.53631527E-03 -9.07401458E-03
 -1.44880240E-01 -6.44943461E-02 -5.33349482E-02  6.32018220E-02  5.12641172E-01
 -2.59828800E-03 -4.06789943E-03  6.82829139E-03 -8.07548923E-03  1.29340173E-03
  1.00782582E-02  1.00648049E-02 -1.22044985E-02  2.09644817E-03 -2.33776377E-02
 -3.11439024E-03 -1.55104595E-02  1.35255458E-02  7.90179723E-02  1.57280256E-02
 -2.15035460E-03 -3.36664981E-03 -8.07327061E-03  2.56885835E-03 -5.12495276E-03
  8.34067316E-03 -1.21999611E-02  3.75623777E-03 -7.51824312E-03 -1.93372483E-02
 -1.55142943E-02 -1.50099680E-03  7.55078743E-03  6.53935909E-02  9.35358911E-03
  1.19804320E-02  2.54279090E-03  3.98090662E-03  1.29969401E-03 -5.11782665E-03
 -4.10804687E-03 -9.86364558E-03  2.10935040E-03 -7.50353976E-03 -6.25907421E-03
  2.28959639E-02  1.35165739E-02  7.53913890E-03 -9.01672079E-03 -7.73098450E-02
 -1.12667121E-02 -9.48209214E-03  1.49536651E-02 -6.27993117E-04 -1.31774287E-03
 -4.69290719E-04  3.44918898E-03  6.13567014E-03  4.74928857E-03 -7.65961554E-04
  4.80228128E-03  8.21593479E-03 -1.73252368E-03 -2.93946736E-03 -2.03468773E-03
 -3.18633290E-03  4.42667762E-03  7.68310219E-04  1.60976703E-04 -1.70105047E-03
  1.52901238E-03  9.42557448E-04  1.88007874E-03 -3.93967837E-03 -2.48599072E-03
 -1.28598196E-04 -6.53231848E-03 -5.33560821E-03 -3.04435815E-03 -4.08349147E-04
 -6.12922629E-03 -3.46518160E-03  3.89735379E-04  3.14293017E-03  7.34287359E-03
  1.68677292E-03  1.41775102E-03 -1.15173254E-03 -1.15230520E-04  1.06774319E-03
  8.08765905E-05  8.12643626E-05 -2.10618244E-03 -4.66207030E-03  3.95530534E-03
 -7.34778286E-05 -2.34019116E-03 -6.40386696E-03  5.25301458E-03 -7.71016076E-03
 -2.71033942E-04 -4.36793680E-03  3.70739500E-03  1.21751734E-02  2.46832441E-03
  2.26106860E-03 -2.52929816E-03  1.94227634E-04  4.38220548E-04  1.43391522E-03
  1.12174128E-04  2.53791314E-04  4.02082498E-03 -6.68276865E-04  6.58823030E-04
 -9.59907037E-04  5.87940585E-03 -1.35592664E-03  1.08587142E-03  1.97635531E-03
  4.47878947E-03 -3.20437752E-03 -6.45326823E-05 -3.48361490E-03 -9.81545109E-04
 -5.59909753E-04  5.35439200E-04  3.94530782E-05 -2.22338185E-04 -1.45629242E-04
  8.55722287E-04 -1.58472994E-03 -3.25021610E-03 -1.32953741E-03 -2.59565178E-03
 -2.90567616E-03  1.15240943E-02 -1.90382689E-03 -3.58721639E-03 -3.82204646E-03
  2.24807465E-03  1.66875479E-03  2.46224575E-03  1.10854020E-03  6.49489355E-04
  3.85644086E-04  5.50084276E-04  2.61545433E-04 -5.15267310E-04  2.42230082E-04
  2.37304479E-05 -7.83590461E-05  8.86349903E-04 -5.18123906E-05 -1.16995422E-04
  1.84861777E-04  5.80394940E-03  4.96991628E-03  4.63996983E-04 -4.06770175E-04
  7.44996372E-03  5.82922722E-03 -1.57492411E-03 -6.45163998E-03 -3.69433866E-03
 -4.38302755E-03  6.60512860E-03  9.79943805E-04 -2.76080806E-04 -2.87361274E-03
  2.61702324E-03 -2.08054658E-04 -1.46055012E-05  1.52113615E-04 -1.38129993E-03
  9.93205936E-03 -1.75243445E-03 -1.71011539E-03 -3.39902838E-03 -1.40680642E-04
 -2.46479364E-03  1.35990723E-03 -4.82102102E-03  4.88283521E-04 -3.22082356E-03
 -9.55488455E-03 -8.53452219E-03 -4.57093704E-04  6.97177186E-03  2.80972244E-02
  5.79818466E-03  4.72525954E-03 -4.53964731E-03 -2.01404831E-05  2.07654367E-03
  1.08003166E-03 -5.98289468E-04  6.76303125E-04 -1.80170013E-03  6.17190164E-03
 -1.66489729E-03 -1.71346916E-03  3.20880761E-03 -3.49707717E-03  1.20628300E-03
  1.84880644E-03  5.05760280E-03 -5.25422372E-03  1.85327328E-03 -1.05896756E-02
 -2.43593403E-03 -1.08465914E-02  9.60537765E-03  3.38679158E-02  6.21962159E-03
  5.79609508E-03 -6.47387641E-03  1.57794769E-04  8.50309348E-04  2.59093417E-03
 -8.99426014E-05 -2.42229574E-04  2.82997338E-04  3.51622683E-03  7.12705022E-03
  3.63869129E-04  3.90132623E-04  6.07339760E-03 -3.98244155E-03  2.67146854E-03
 -5.00112805E-04  9.23613706E-03 -6.39662115E-03  3.79376202E-03  2.53290641E-03
  1.01560464E-02 -6.12368315E-03 -3.93321317E-04 -8.54785648E-03 -2.34802622E-03
 -1.11093391E-03  1.17386249E-03  1.15300380E-04 -5.12227340E-04 -5.62983438E-05
  1.71933262E-03 -1.36859166E-05  8.51183324E-04 -1.97604391E-03 -4.46177461E-04
  3.89644441E-03  1.23640528E-03  1.09768987E-03 -8.61278275E-04 -2.32022432E-03
 -3.82995566E-03 -2.88788078E-04 -1.12173407E-03 -2.83253690E-03 -4.54270476E-03
  5.16213990E-03  2.80934515E-03  4.12679344E-03  1.72063784E-03 -1.17191791E-02
 -1.76280359E-03 -9.77048151E-04  3.06501317E-03 -1.51969114E-03  4.21945798E-04
 -6.44850519E-04  9.95247997E-05  9.47746102E-04 -5.75770309E-03  1.50312713E-03
 -1.36106928E-03 -3.18873936E-04  4.15992434E-03  8.84162979E-03  1.41798777E-02
 -1.40978906E-02 -1.16647817E-02  1.38009021E-02 -3.95726253E-02 -2.39472287E-02
 -1.98158586E-02  2.34384922E-02 -3.29084194E-02 -1.08145062E-02 -8.94595841E-03
  1.05916999E-02  9.10580256E-03  6.11125805E-04  5.06230914E-04 -5.96887464E-04
  2.73678327E-04  2.16681483E-03  2.31341244E-03 -5.45005108E-04 -1.24841103E-03
  1.13998796E-03  5.48935611E-03  6.42002193E-03 -1.59302269E-03 -2.52520582E-03
  6.57473282E-01  1.41799187E-02  2.21633970E-02 -2.25719139E-02 -1.86763065E-02
  2.20963799E-02 -6.09217279E-02 -3.48590610E-02 -2.88443793E-02  3.41206332E-02
 -4.26398852E-02 -1.31718027E-02 -1.08952188E-02  1.29020884E-02  1.54619161E-02
  1.47977196E-03  1.22482640E-03 -1.44771204E-03  4.52586505E-04  3.18835586E-03
  3.46570718E-03 -8.25164194E-04 -1.76782203E-03  1.44812151E-03  6.06508521E-03
  7.33440831E-03 -1.85282806E-03 -2.50846318E-03  5.57805128E-01  4.85497486E-01
  1.41042295E-02  2.25819242E-02  2.11796242E-02 -5.67826579E-02  3.90460817E-02
 -6.44992640E-02  3.86467804E-02 -8.16317873E-02  5.34309403E-02 -4.23217985E-02
  4.59437004E-02 -4.78706952E-02  3.35806165E-02  7.42121787E-03  4.35732497E-03
  2.21203576E-03 -1.26870587E-03 -1.13455711E-03  1.05538603E-03  5.90257127E-03
  3.48491122E-03 -9.16887178E-04 -4.45345510E-03 -2.14128364E-03  7.66721599E-03
  9.36038561E-03  2.37265421E-04  6.01661951E-03  8.53418426E-03  9.25514260E-02
  1.16762667E-02  1.86945169E-02 -5.67948362E-02  1.78034090E-02  1.11797112E-02
 -5.33958744E-02 -8.16477331E-02  3.13909262E-02  1.18008729E-02 -3.50040745E-02
 -4.78685515E-02  4.37019974E-02  1.04701294E-02  6.15995627E-03  2.21630494E-03
  4.71627807E-03 -4.16489015E-05  7.30839473E-04  3.95498364E-03  2.97705228E-04
 -4.46169449E-03 -3.41396119E-04 -7.95995548E-04  5.65364057E-03 -4.12525903E-03
 -9.24400923E-03  1.73402862E-03  4.98118421E-03  7.06534454E-03 -1.06090736E-02
  8.29949862E-02 -1.37882789E-02 -2.20762249E-02  3.90176066E-02  1.11441334E-02
 -1.46654142E-02  6.30555115E-02  5.33951813E-02  1.17557411E-02 -1.66183824E-02
  4.14501366E-02  3.35948626E-02  1.04837476E-02  1.66309168E-02 -7.22848132E-03
 -1.25931353E-03 -2.93056614E-05  6.09217184E-03 -2.16446392E-03 -2.62375202E-03
 -2.14893041E-03  1.90390444E-03  1.80992796E-03 -5.69230422E-03 -5.52076126E-04
  9.08987587E-04  2.56774701E-03  3.44105939E-03 -5.88207070E-03 -8.34375102E-03
 -2.74134812E-03 -1.37752455E-02  7.19878662E-02 -3.95725263E-02 -6.09208541E-02
  6.44725666E-02  5.33463299E-02 -6.31113247E-02  1.67084189E-01  8.89983578E-02
  7.36409459E-02 -8.71157182E-02  8.79780778E-02  2.33165432E-02  1.92836275E-02
 -2.28447141E-02 -3.68061736E-02 -3.88888621E-03 -3.21765372E-03  3.80806193E-03
 -1.20097871E-03 -8.00204764E-03 -8.77878990E-03  2.10143981E-03  4.34599068E-03
 -2.76706683E-03 -8.18152982E-03 -1.09336264E-02  2.89943091E-03  2.16917787E-03
 -7.79302555E-02 -1.39056347E-01 -2.00737676E-02 -1.66180219E-02  1.96290787E-02
  4.43922635E-01  2.39562078E-02  3.48730155E-02  3.86458802E-02 -8.16361829E-02
  5.34298915E-02 -8.90345960E-02  6.71144133E-02 -1.18164611E-01  7.35257820E-02
 -5.42255506E-02  7.25982596E-02 -7.15469596E-02  4.70924449E-02  6.94927463E-03
  5.38882680E-03  1.96824815E-03 -5.98400563E-04 -1.95512086E-03  7.45819537E-04
  7.72705227E-03  5.59411657E-03 -1.34010974E-03 -6.45711513E-03 -4.68438773E-03
  9.99909003E-03  1.46045578E-02  4.41927942E-04  2.42653150E-03  5.37016251E-03
  1.33720485E-01 -2.22416804E-02  2.49785248E-04 -1.86542839E-02  1.94646576E-01
  1.98306434E-02  2.88684094E-02 -8.16525451E-02  3.13876212E-02  1.18013035E-02
 -7.37072954E-02 -1.18186665E-01  5.32191486E-02  1.10561712E-02 -4.48546395E-02
 -7.15463547E-02  6.64896192E-02  1.07547742E-02  5.78232579E-03  1.97475273E-03
  6.18199231E-03  7.97502571E-04  1.05837237E-03  5.20194776E-03 -5.29727211E-04
 -6.41969941E-03 -5.77814709E-04 -1.36354028E-04  6.98045896E-03 -7.54380209E-03
 -1.33715560E-02  2.15364582E-03  2.00858157E-03  4.44518798E-03 -2.22410387E-02
  1.19020309E-01 -1.94019497E-02 -1.54407571E-02 -4.13340086E-02  1.71948676E-01
 -2.34239962E-02 -3.40953979E-02  5.33926255E-02  1.17540887E-02 -1.66118628E-02
  8.70407735E-02  7.34774562E-02  1.09943637E-02 -1.81384023E-02  5.30911917E-02
  4.71063898E-02  1.07662222E-02  2.45107726E-02 -6.73969665E-03 -5.84145498E-04
  8.16179827E-04  7.65699974E-03 -2.59401894E-03 -3.29939726E-03 -2.11092696E-03
  2.61525538E-03  2.41991906E-03 -6.50905170E-03 -3.20735939E-04  2.79216347E-03
  3.79256166E-03  3.66047484E-03 -2.37315518E-03 -5.25221972E-03  2.51125165E-04
 -1.94004659E-02  9.88914451E-02  1.82475897E-02  5.66092855E-03 -2.78442522E-02
  1.37096285E-01 -3.29112862E-02 -4.26451819E-02  4.23524330E-02  3.50776743E-02
 -4.13649464E-02  8.79983101E-02  5.42580660E-02  4.49332091E-02 -5.30066631E-02
  2.08722568E-02 -5.95866259E-03 -4.96390146E-03  5.74216339E-03  1.44284638E-01
  2.00460920E-02  1.65820667E-02 -1.96320338E-02 -4.24069662E-04 -2.76322536E-03
 -3.06175306E-03  7.41297623E-04  1.44131069E-03  4.18969557E-04  2.33371924E-03
  2.57760439E-03 -6.03765649E-04 -1.34042293E-03 -2.94070986E-02 -4.66655771E-02
 -2.80750979E-02 -2.32604546E-02  2.73914294E-02  1.36058426E-01 -3.33719019E-02
 -2.76465343E-02  3.25636362E-02  1.28044370E-01  1.08253807E-02  1.31858416E-02
  4.59319354E-02 -4.78981875E-02  3.35660666E-02 -2.33445187E-02  7.25823119E-02
 -7.15814942E-02  4.70727377E-02  5.90880485E-03  7.31792458E-02 -5.36066662E-02
  2.39718768E-03 -6.62272554E-02 -7.65193326E-03 -1.09345724E-02  9.98047132E-03
 -5.40878109E-04 -3.12821297E-03  2.45811854E-03  5.81443158E-03 -1.08740002E-03
 -2.82110740E-03 -9.96970623E-03  1.66756694E-03  1.36844544E-02 -3.31855926E-05
  7.15000828E-04  3.84233752E-03  6.52750386E-02 -5.18307622E-02  1.05513327E-02
 -2.00428577E-02  9.91608858E-02 -7.79541925E-02  1.72651656E-02 -2.38815005E-02
  9.29669352E-02  8.96554518E-03  1.09212588E-02 -4.78925186E-02  4.36771969E-02
  1.04623902E-02 -1.93377788E-02 -7.15751540E-02  6.64586419E-02  1.07445548E-02
  4.85676071E-03 -5.36376461E-02  3.93061870E-02 -4.39237122E-02 -5.48577857E-02
 -1.09476442E-02 -6.12593747E-03  6.04069731E-03  4.38703756E-03  8.28952290E-05
 -3.69837012E-03 -3.68238353E-03 -2.12336168E-03  6.91875611E-03 -1.72274244E-03
 -1.13113184E-02 -7.82877085E-03 -1.81663837E-03  5.87248636E-04  3.17530878E-03
 -5.18402415E-02  3.98604406E-02 -2.94898474E-02 -1.65828317E-02 -7.79667331E-02
  6.21850103E-02 -4.21355520E-02 -1.97392971E-02 -4.00336149E-02  7.97922395E-02
 -1.05728846E-02 -1.28758894E-02  3.35876849E-02  1.04857838E-02  1.66654134E-02
  2.27883215E-02  4.70997405E-02  1.07733183E-02  2.45570070E-02 -5.88828990E-03
  2.32456617E-03 -4.40142274E-02 -8.29900376E-03  6.46378339E-02  9.94074769E-03
  5.99545529E-03 -1.11542840E-02  4.12649575E-03 -1.87916826E-03  1.70222005E-03
  2.14685183E-03 -2.54354783E-03  6.67617044E-03  3.62315457E-04  7.66518457E-03
  3.32500918E-03 -5.45463169E-03 -7.11635325E-04 -3.77147396E-03  1.05244325E-02
 -2.95209833E-02 -2.20986302E-03  1.96216912E-02  1.72298446E-02 -4.21762176E-02
 -3.77415229E-04  2.34255118E-02  1.53623673E-02 -1.12967739E-02  5.10263814E-02
  9.11090926E-03  1.54740462E-02 -7.37035442E-03 -6.07274741E-03  7.28014071E-03
 -3.68593238E-02 -6.87332619E-03 -5.64200165E-03  6.84485103E-03  1.44321215E-01
  6.61563796E-02  5.47113998E-02 -6.48303046E-02 -5.11887051E-01 -7.96258085E-02
 -6.58965922E-02  7.79048492E-02 -4.52500905E-03 -7.71345423E-03 -1.26355148E-02
  3.60126024E-03 -5.09608648E-04 -6.91576434E-03 -2.88078676E-02 -3.49020681E-02
  8.83057893E-03  1.18169188E-02 -1.00151408E-02 -1.66406542E-02 -9.16627479E-03
 -7.60139715E-03  8.93842047E-03  3.88225650E-02 -9.23304534E-03 -7.66828620E-03
  8.97778841E-03 -1.44848702E-01  6.45649087E-02  5.34839179E-02 -6.30123733E-02
  5.12653537E-01 -6.11741166E-04 -1.48181278E-03  4.34767687E-03  2.19805664E-03
 -1.27541880E-03  3.89808691E-03  5.37487635E-03  1.94781572E-03 -6.10713634E-04
 -2.00632928E-02 -7.64489914E-03 -1.09225028E-02  9.98400505E-03  7.96242548E-02
  9.77602880E-03  1.04915958E-02 -1.24739022E-02  3.50031350E-04  5.09283103E-04
  1.90750017E-03  4.84150470E-04 -1.61559748E-04  6.08623856E-04  2.85370841E-03
  5.84712105E-03  9.19987069E-04 -1.77421187E-03  2.59743766E-03  4.06602211E-03
  6.83893121E-03 -8.05859150E-03  1.29932488E-03 -1.00702135E-02  1.00807467E-02
 -1.21771729E-02  2.11013205E-03  2.33843934E-02 -3.13357120E-03 -1.55403211E-02
  1.34972927E-02 -7.90182685E-02  1.57265875E-02 -5.06342190E-04 -1.22666393E-03
  2.20537961E-03  4.70195616E-03 -4.34903935E-05  3.22717860E-03  1.95891103E-03
  6.16018313E-03  7.93618326E-04 -1.66157978E-02 -1.09352447E-02 -6.11334243E-03
  6.04135708E-03  6.59101637E-02  1.04934356E-02  5.71967443E-03 -1.03789855E-02
  9.55058492E-04  8.84279269E-04  6.76237406E-04 -9.61360253E-04 -2.65098891E-04
  2.02076479E-03  3.50602210E-03  2.67275498E-03 -2.52888976E-03 -1.73423558E-03
  2.14945012E-03  3.36523077E-03 -8.05980908E-03  2.58511835E-03 -5.12338000E-03
 -8.33608851E-03 -1.21797272E-02  3.78191751E-03 -7.51153620E-03  1.93655845E-02
 -1.55358705E-02 -1.53394336E-03  7.53620074E-03 -6.54080572E-02  9.35422146E-03
  1.19819771E-02  5.97817398E-04  1.44815356E-03 -1.25632992E-03 -2.09278791E-05
  6.10530795E-03 -3.80876725E-03 -5.81842324E-04  8.27839787E-04  7.68050230E-03
  1.95991969E-02  9.94997146E-03  6.00032152E-03 -1.11721270E-02 -7.78738037E-02
 -1.24706584E-02 -1.03745015E-02  9.13096810E-03 -4.51628492E-05 -1.17174102E-03
 -1.20259282E-03  7.17965172E-04 -2.43449160E-04 -1.05435838E-04 -4.32233901E-03
 -4.11658067E-03  1.92698297E-03  9.08297350E-04 -2.54177524E-03 -3.97752656E-03
  1.29721289E-03 -5.12655029E-03 -4.12238382E-03  9.84693215E-03  2.10484736E-03
 -7.51879313E-03 -6.28448629E-03 -2.28476038E-02  1.35114153E-02  7.55181270E-03
 -8.96669216E-03  7.72816719E-02 -1.12627319E-02 -9.48052679E-03  1.49463220E-02
  2.74655169E-04  4.53868794E-04  1.13137263E-03 -7.32435331E-04  2.16849178E-03
 -1.20393396E-03  1.95033733E-03 -1.06055076E-03  2.59987203E-03 -4.67309550E-04
  5.26870440E-04 -4.39619915E-03 -4.11164173E-03 -4.53195097E-03 -3.50092957E-04
 -9.54206449E-04  4.66859991E-05  2.31282591E-04 -6.50679317E-05  1.04755965E-04
  1.02606090E-04 -1.13024134E-04  9.73888513E-04 -5.25791572E-04 -5.41085953E-05
  3.53823158E-04 -6.39512844E-04 -6.29698822E-04 -1.32052439E-03  4.79964918E-04
 -3.43799525E-03 -6.13824488E-03  4.75510242E-03  7.79276091E-04 -4.78797782E-03
 -8.21751312E-03 -1.69511664E-03  2.92729585E-03  2.02524262E-03  3.20009555E-03
  4.43205340E-03 -7.72428908E-04 -1.65163474E-04  1.70305546E-03  1.52922346E-03
  2.16694813E-03  3.18857837E-03 -1.05464632E-03 -3.95183773E-03  2.62417026E-03
 -8.00246922E-03 -7.45051173E-04 -5.19720142E-03  3.29970980E-03 -2.74668997E-03
  3.13323109E-03 -7.25880590E-05  1.87725758E-03 -7.71004925E-03 -5.08740224E-04
 -8.82143152E-04  1.17312176E-03 -6.62767103E-05  2.53286870E-04  3.06066914E-04
  4.28814947E-05 -5.93085668E-05 -4.94936562E-04  2.58082984E-05  1.35493705E-05
  1.46346848E-04  2.66023906E-04  9.42999030E-04  1.88062819E-03  3.94168168E-03
  2.49338409E-03  1.45071035E-04 -6.53259982E-03  5.33888263E-03  3.05446629E-03
  4.30072928E-04 -6.14383131E-03  3.47045947E-03 -3.86047661E-04 -3.15034040E-03
  7.34005240E-03 -1.68614006E-03 -1.41879689E-03  1.14744499E-03 -1.16262706E-04
  1.06931208E-03  2.31406270E-03  3.46664582E-03 -5.90157177E-03 -2.95918689E-04
  2.15226088E-03 -8.78086963E-03 -7.72542190E-03  5.32156317E-04  2.11561610E-03
 -3.06018244E-03 -2.45419333E-03  3.70281002E-03 -1.69736396E-03 -1.26338537E-02
 -1.90591672E-03 -6.73816025E-04  1.20513093E-03  1.03159480E-04  3.06626536E-04
  2.32415167E-04 -2.52591691E-04 -9.05474525E-05 -2.48734340E-05 -2.46835009E-05
 -3.98851093E-04 -2.40215945E-04  4.51432490E-05  8.05361635E-05  8.04013670E-05
  2.11326032E-03  4.67764164E-03 -3.93618351E-03 -7.00849467E-05  2.34948978E-03
  6.42504216E-03 -5.22696501E-03 -7.71238758E-03  2.72554613E-04  4.36899834E-03
 -3.71026836E-03  1.21737037E-02 -2.46945426E-03 -2.26396039E-03  2.52490094E-03
  1.93033648E-04  4.38893788E-04  1.43488306E-03 -5.45052273E-04 -8.25266537E-04
 -3.48717960E-03  4.46177393E-03 -1.90464587E-03  2.10163100E-03 -5.59760432E-03
  6.41997014E-03 -2.61633437E-03  7.34252426E-04 -5.82015089E-03  3.68126097E-03
 -2.14621091E-03  3.59896325E-03 -4.85245591E-04  9.61092927E-04 -7.18610048E-04
  1.03104403E-04  4.28403823E-05 -2.52285219E-04 -1.93744002E-04  4.66419911E-06
  3.47336963E-04  1.61115043E-04 -2.34934235E-04 -4.30329349E-04 -1.11067299E-04
  1.11932362E-04  2.53505390E-04 -4.02019874E-03  6.64315368E-04 -6.65347617E-04
 -9.59762526E-04 -5.87868212E-03  1.35047410E-03 -1.09453990E-03  1.98349164E-03
 -4.48149774E-03  3.20262908E-03  6.74146442E-05 -3.48141779E-03  9.81309582E-04
  5.59766531E-04 -5.33505238E-04  3.97211874E-05 -2.22728997E-04 -1.46107563E-04
  8.55903666E-04 -1.24889792E-03 -1.76838369E-03  9.18417499E-04  3.43292108E-04
 -1.81159460E-03  4.34728194E-03  1.34228569E-03  5.80765873E-04 -2.42232332E-03
  1.46770702E-03  1.09456530E-03  2.12943381E-03  2.53233678E-03 -5.02935928E-04
  1.61843523E-04  2.65432178E-04  2.42479945E-04 -1.13403872E-04 -5.99344670E-05
 -9.15126966E-05  4.96335382E-06  2.04203611E-04 -6.59839615E-04  2.22723605E-04
 -2.12897217E-05 -9.22563895E-05  4.09995286E-04 -1.58376918E-03 -3.24886142E-03
  1.32516389E-03  2.59144410E-03  2.91066268E-03  1.15221577E-02  1.89853051E-03
  3.58186261E-03  3.82806671E-03  2.22275488E-03 -1.66029816E-03 -2.45529903E-03
 -1.11664920E-03  6.43654471E-04 -3.82714943E-04 -5.47441095E-04 -2.63571249E-04
 -5.14559198E-04  2.43003774E-04  2.45525973E-05 -7.84825378E-05  8.85729212E-04
  1.15971826E-03  1.48630848E-03  4.45969165E-03  8.04162623E-04  5.68793696E-03
 -2.88730010E-03  6.46517565E-03  1.47234869E-04  6.50137665E-03  2.70141207E-04
  2.81657946E-03 -6.91898726E-03 -6.67753180E-03 -7.11248638E-03 -6.39296343E-04
 -2.04535787E-03  1.36863450E-04  9.71308459E-04 -4.96479648E-04 -2.95891299E-05
  3.48666385E-04 -6.62161104E-04  6.53664926E-03 -3.06130176E-03 -5.17320833E-04
  1.52302343E-03 -4.14377986E-03 -5.63381769E-05 -1.35923211E-04 -1.71836193E-04
 -5.78985092E-03 -4.97917242E-03  5.40612281E-04  4.23549557E-04 -7.43110604E-03
 -5.83941250E-03 -1.42651399E-03  6.46053310E-03  3.70530149E-03  4.37642411E-03
  6.79954682E-03 -1.01872993E-03  2.43184823E-04  2.90758545E-03  2.62194058E-03
 -2.04955270E-04 -7.86525546E-06  1.50309968E-04 -1.38045893E-03  9.96030993E-03
  5.48333753E-03  6.05234829E-03  2.13466327E-03 -5.65590650E-03  5.50989876E-04
 -8.13894609E-03  4.67429601E-03 -6.98258568E-03  3.19926911E-04  2.38921055E-03
  9.96211233E-03  1.72347901E-03 -3.71011853E-04 -2.87283346E-02 -2.84024990E-03
 -3.49195940E-03  4.31447612E-03 -5.26298827E-04  2.71425506E-05 -2.29717795E-05
  1.59909942E-04  2.24624870E-04 -3.04792952E-03  1.30527760E-05 -7.72244337E-04
  1.05004384E-04  1.87702337E-03 -1.74990342E-03 -1.70234261E-03  3.39711831E-03
  1.48379653E-04  2.48218728E-03  1.33118614E-03  4.81848487E-03 -4.78444538E-04
  3.24254487E-03 -9.60801803E-03  8.53123712E-03  4.61656441E-04 -6.96559211E-03
  2.80189061E-02 -5.78619074E-03 -4.71864811E-03  4.51613579E-03 -2.32011635E-05
  2.07703515E-03  1.07779697E-03 -5.97998496E-04  6.77307177E-04 -1.79571086E-03
  6.16462541E-03  6.42127272E-03  7.33529426E-03 -7.66849508E-03  4.12095307E-03
 -9.10541019E-04 -1.09328111E-02 -1.00009130E-02  7.53672978E-03 -2.79488444E-03
  2.58119894E-03 -1.66805545E-03  1.13022965E-02 -7.67293447E-03 -3.48926626E-02
 -5.84357931E-03 -2.66767878E-03  4.12029355E-03 -5.55030542E-05  1.42727616E-05
 -3.98385211E-04 -2.35125904E-04 -2.01829314E-05 -4.95846841E-04 -7.79462725E-04
 -1.83699022E-03 -1.48711304E-04  4.98546828E-04 -1.66351374E-03 -1.71212135E-03
 -3.20265741E-03  3.50786700E-03 -1.19158198E-03  1.84788839E-03 -5.04941558E-03
  5.26905683E-03 -1.83343846E-03 -1.05899821E-02  2.44153181E-03  1.08527977E-02
 -9.59949944E-03  3.38592477E-02 -6.22113143E-03 -5.80258348E-03  6.46216845E-03
  1.56970480E-04  8.50718758E-04  2.59199875E-03 -9.04708800E-05 -2.41922557E-04
  3.08238775E-04  3.50606394E-03  7.12703361E-03 -1.59031601E-03 -1.84696302E-03
 -9.36321071E-03  9.25025779E-03 -2.56900617E-03  2.87934741E-03 -1.46092189E-02
  1.33812388E-02 -3.79416371E-03 -6.27994008E-04 -1.36917942E-02  7.83644588E-03
 -3.32412758E-03  8.79625613E-03 -9.26616654E-04  2.52409150E-03 -1.92308093E-03
  3.53805606E-04  1.46112328E-04 -2.41359138E-04 -4.30302274E-04 -9.29192991E-05
  1.51563754E-03  1.07264165E-04 -1.53216828E-04 -7.55003209E-04 -8.23134847E-04
  3.62720691E-04  3.86672787E-04 -6.07412239E-03  3.98339549E-03 -2.67730016E-03
 -4.87543163E-04 -9.23798490E-03  6.39816342E-03 -3.80187325E-03  2.55788530E-03
 -1.01603391E-02  6.12693172E-03  3.89141341E-04 -8.51368628E-03  2.34188217E-03
  1.10755349E-03 -1.16519892E-03  1.15700553E-04 -5.12085181E-04 -5.53521257E-05
  1.71898993E-03 -1.36105658E-05  8.45449612E-04 -1.97196950E-03 -4.41938011E-04
  3.89340215E-03 -2.53729340E-03 -2.53254763E-03 -2.44614455E-04 -1.73924797E-03
 -3.43910750E-03  2.24709831E-03 -4.52926026E-04 -2.16193670E-03 -3.66008932E-03
 -1.24855083E-03  3.15421435E-05  1.81904596E-03  5.45143641E-03  1.19349328E-02
  1.79237274E-03  1.74846582E-03 -9.29021818E-04 -6.36653507E-04  2.66760121E-04
  4.81873381E-05 -1.12072007E-04  4.10952107E-04 -4.13067862E-03  1.88059955E-03
  5.11239452E-04 -8.26528690E-04  2.47989904E-03  1.23969465E-03  1.10963231E-03
  8.49726073E-04  2.30768272E-03  3.82756268E-03 -3.34845456E-04  1.10735665E-03
  2.81777536E-03  4.54092869E-03  5.06789831E-03 -2.81613001E-03 -4.13003992E-03
 -1.71664316E-03 -1.18361921E-02  1.78615165E-03  9.98861064E-04 -3.08277800E-03
 -1.51911249E-03  4.19241138E-04 -6.49086421E-04  1.01122159E-04  9.45335598E-04
 -5.75808851E-03  1.49409088E-03 -1.37700304E-03 -3.13046667E-04  4.14956084E-03
  1.45030022E-03  1.65786898E-03  1.34810982E-03 -9.77143980E-04 -7.01971803E-03
 -2.29947488E-03  5.34911274E-04 -1.06949181E-03 -4.64226511E-03  3.80329721E-02
  1.49548756E-03  9.72554596E-03  2.16561978E-02 -5.44073050E-02 -9.29230412E-03
 -9.51840933E-03  4.11194123E-03 -2.57989339E-03  4.38930335E-04 -1.16289242E-03
  1.17866575E-04  1.60931578E-04 -3.83371084E-04 -2.34291512E-04  9.62117099E-04
 -7.89988301E-04  3.77407486E-03 -8.82087001E-04 -1.37016773E-03 -1.29330553E-03
 -7.39439057E-04  2.16658554E-03  3.77180027E-03 -1.08999848E-03 -5.03451510E-04
  2.15228978E-03 -5.25775366E-03 -2.40569509E-03 -8.09545764E-03 -1.42732225E-02
  5.10033232E-02 -6.60604151E-03 -4.55553534E-03  8.94636196E-03  4.06616248E-05
 -1.42995729E-04 -1.23720523E-04  3.54286833E-05  5.46277088E-05 -1.33176466E-03
  1.22271305E-04 -7.81550100E-04  1.33874058E-04 -5.41891789E-05  6.33077434E-01
  2.10705612E-03  2.51661259E-03  2.14111690E-03 -1.55654378E-03 -1.11615160E-02
 -3.01029268E-03  1.24752843E-03 -1.65319620E-03 -8.53587200E-03  5.40844933E-02
  2.57565430E-03  1.39729299E-02  2.97334013E-02 -7.64737076E-02 -1.30377902E-02
 -1.34738970E-02  5.44553073E-03 -4.27239665E-03  7.13169188E-04 -1.89707025E-03
  1.72501467E-04  3.80036783E-04 -1.34192243E-03 -3.36842480E-04  7.46424606E-04
 -9.76780778E-04  5.18147674E-03 -1.46463587E-03 -2.27089775E-03 -2.13913004E-03
 -1.23065605E-03  3.56278829E-03  6.02909560E-03 -1.79714344E-03 -8.03158759E-04
  3.62185440E-03 -6.40350832E-03 -2.93980747E-03 -1.08921293E-02 -2.01639767E-02
  7.16216636E-02 -9.19588746E-03 -6.23439485E-03  1.27454796E-02  3.30980377E-05
 -2.25491390E-04 -2.19860452E-04  6.19711797E-05  7.70982246E-05 -1.57196262E-03
  2.08809749E-04 -8.22449470E-04  1.20237903E-04 -9.08587841E-06  5.70568706E-01
  5.32293948E-01 -1.16522872E-03 -1.77453754E-03  7.53648738E-03  4.00795624E-03
  1.34325961E-02  4.77468105E-03  1.19803777E-02  7.52790118E-03  1.95118384E-02
 -2.89612101E-02 -2.96133592E-02 -1.33892036E-02  1.31119914E-02  8.58099754E-02
  2.35676602E-02  9.13666005E-03 -1.56754612E-02  3.05489078E-03  1.00526798E-02
  7.72100957E-04 -2.51235889E-03  2.55514955E-03 -4.75912130E-03  2.87097098E-02
  6.58911146E-03 -9.33139092E-03  8.67708638E-03  3.75852711E-03  5.98848708E-03
 -1.22673741E-02  2.04358706E-02 -1.00964995E-02 -1.39272906E-02 -2.30516381E-02
  2.48959266E-02 -1.34489436E-02  8.43681688E-03 -3.86515905E-02  1.29859271E-02
  8.90530227E-03 -8.93159880E-02  3.79396289E-03  1.73558303E-02 -1.01008349E-02
  1.48043788E-03 -5.81751294E-04  5.81138117E-04  9.51191051E-04 -5.54846942E-04
 -6.37257969E-03  3.35672919E-04 -1.63309783E-03 -4.59072244E-04  3.78920602E-03
  1.25626654E-03  1.98425277E-03  2.01089398E-01  6.33480046E-03  1.00777423E-02
  3.68008803E-03  7.31833465E-03 -1.46115977E-02 -2.95552161E-02  6.96939940E-03
  1.25767808E-02 -2.00707853E-02 -3.79581360E-02 -1.41311122E-02 -2.28919250E-02
  2.22102068E-02  9.66191782E-02  1.41710687E-02  2.18083553E-02 -1.64256485E-02
 -6.62121614E-03  9.09193371E-04  8.86922734E-03 -1.47540579E-03  1.35945423E-04
 -2.30759825E-02  1.18416879E-02  2.52060340E-02 -5.75599418E-03  6.62383760E-03
  2.19604031E-03  3.51051195E-03  1.84404816E-02 -9.78240161E-03  2.56299758E-03
 -6.79157810E-03  2.30747749E-02 -1.95000995E-02  3.54596216E-03  1.66963003E-02
  3.42039699E-03 -3.66999316E-02  1.65524664E-02 -9.93019019E-02  1.95359232E-02
  5.70995334E-03 -9.58894211E-03  1.15584710E-03 -4.24614862E-04 -3.01500993E-04
 -5.47065144E-04 -3.89079394E-04 -9.57059430E-03  2.70135625E-03 -1.37318656E-03
 -1.21681561E-03  6.37583010E-03 -2.01902842E-03 -3.17726237E-03  1.59647803E-03
  1.99944039E-01  2.10221784E-02  3.31872425E-02  1.25397519E-02 -1.56718525E-02
 -7.49092655E-02 -9.59396222E-02  1.79909826E-02 -2.18767216E-02 -1.06073389E-01
 -9.77703508E-03  1.10909310E-02  1.98127229E-02  3.83732224E-03 -1.42050502E-02
 -1.96033279E-03 -1.49922360E-04  1.69484718E-02 -9.17294830E-03  2.68161623E-03
 -6.52588721E-03  2.49586852E-04  2.42404629E-03 -1.06532367E-02  2.50141834E-03
 -9.46125255E-03 -8.62081335E-04  8.91953414E-03 -6.16868212E-03 -9.79713614E-03
 -1.55296657E-02 -3.88587572E-03  7.00759231E-03  2.65234042E-02 -1.84061348E-02
 -2.33862662E-03  4.94171236E-03  1.82165398E-02 -1.71467166E-02 -1.43696422E-02
 -3.05466142E-02  1.82363593E-02 -4.16191584E-03 -2.54071874E-03 -7.42108076E-03
 -2.35483223E-03  1.84923563E-04 -7.75435833E-04  1.88856233E-04  1.13170219E-03
 -6.48489747E-03  4.43784029E-03  2.99390689E-03 -2.02571069E-03  4.48989913E-03
 -9.56086865E-03 -1.50692050E-02  7.22487685E-03 -1.07040162E-02  1.49465559E-01
 -3.34671291E-03 -4.08551989E-03 -6.10160167E-03  3.90599183E-03  3.03643577E-02
 -6.79161310E-05 -4.75908135E-03  3.81366870E-03  2.57725356E-02 -1.37542978E-01
 -8.50021095E-03 -3.55285622E-02 -6.92944260E-02  1.89843999E-01  3.21912797E-02
  3.37933667E-02 -1.20143107E-02  1.27998203E-02 -1.99292278E-03  5.65667050E-03
 -4.47512549E-04 -1.64166108E-03  6.39406094E-03  9.99673531E-04  6.85215857E-04
  1.82508138E-03 -1.22323148E-02  4.96935990E-03  7.58247072E-03  6.86151251E-03
  4.02250507E-03 -1.12237761E-02 -1.90877462E-02  5.97588534E-03  2.71969900E-03
 -1.19097416E-02  1.20127010E-02  4.93541645E-03  2.39558790E-02  4.92947584E-02
 -1.77600859E-01  2.25623810E-02  1.48228058E-02 -3.25612323E-02 -1.33339842E-04
  7.22123021E-04  7.21239940E-04 -2.17035100E-04 -1.57279858E-04  2.39126270E-03
 -5.73697459E-04  9.22306346E-04 -7.49902768E-05 -3.25328355E-05 -1.46022675E-01
 -2.47252603E-01 -6.46551508E-03  9.92059220E-03  4.79242333E-02  7.74375648E-01
 -1.71392473E-03 -2.66126516E-03  1.09803187E-02  5.62464864E-03  1.95386195E-02
  7.31437359E-03  1.74482801E-02  1.06123638E-02  2.83788059E-02 -4.17635001E-02
 -4.23420855E-02 -1.94680027E-02  1.88041952E-02  1.23780629E-01  3.39572966E-02
  1.31572952E-02 -2.25948720E-02  4.43182683E-03  1.44420720E-02  1.12439506E-03
 -3.58968261E-03  3.68014706E-03 -6.83770324E-03  4.12733253E-02  9.46993862E-03
 -1.33640863E-02  1.24652342E-02  5.36949895E-03  8.60432012E-03 -1.75054194E-02
  2.92021060E-02 -1.44543893E-02 -2.01598066E-02 -3.29416775E-02  3.55220100E-02
 -1.92377659E-02  1.21891170E-02 -5.53373115E-02  1.85665248E-02  1.29946141E-02
 -1.28796610E-01  5.52556269E-03  2.49903872E-02 -1.45853184E-02  2.12021831E-03
 -8.32553739E-04  8.11645049E-04  1.35405033E-03 -7.96718153E-04 -9.19932985E-03
  4.92214293E-04 -2.39439996E-03 -6.98110619E-04  5.48475910E-03  1.41749918E-03
  2.36288330E-03  2.89128658E-01  2.06580035E-03  1.01810035E-02 -8.32212454E-03
  4.15716955E-01  9.33276971E-03  1.47631269E-02  5.35383612E-03  1.07022391E-02
 -2.16203125E-02 -4.30025902E-02  1.00681237E-02  1.83473066E-02 -2.96564333E-02
 -5.39819958E-02 -2.03379051E-02 -3.25159244E-02  3.19834397E-02  1.37939599E-01
  2.01569908E-02  3.11937578E-02 -2.34538566E-02 -9.60921685E-03  1.29096271E-03
  1.26723518E-02 -2.12473265E-03  1.95068472E-04 -3.32244128E-02  1.69586771E-02
  3.61486074E-02 -8.29998509E-03  9.58184963E-03  3.18445574E-03  5.03100264E-03
  2.61252103E-02 -1.41840104E-02  3.78922202E-03 -9.55999795E-03  3.26712146E-02
 -2.81399589E-02  5.19267063E-03  2.41175805E-02  4.72855777E-03 -5.27200742E-02
  2.34961888E-02 -1.41797719E-01  2.79719981E-02  8.12910240E-03 -1.36860187E-02
  1.65035001E-03 -6.28836296E-04 -4.46611076E-04 -7.65684818E-04 -5.66214420E-04
 -1.37842044E-02  3.89612433E-03 -1.93268641E-03 -1.72774081E-03  9.17496140E-03
 -2.06353802E-03 -3.46164378E-03  1.89741420E-03  2.87364019E-01 -1.47771791E-02
  1.18522308E-02  2.39300041E-03  4.13020699E-01  3.09621119E-02  4.88162744E-02
  1.88012162E-02 -2.24963812E-02 -1.09768774E-01 -1.40778660E-01  2.68968831E-02
 -3.14166266E-02 -1.55236145E-01 -1.20410813E-02  1.64343226E-02  2.91724558E-02
  6.21219536E-03 -2.43950431E-02 -3.52569085E-03 -8.24533338E-04  2.50324766E-02
 -1.35603812E-02  3.86806543E-03 -9.62124503E-03  4.08152396E-04  3.48590318E-03
 -1.54669103E-02  3.45607475E-03 -1.37813887E-02 -1.21002098E-03  1.30576618E-02
 -8.68427970E-03 -1.41119057E-02 -2.28326781E-02 -6.15525929E-03  1.04616554E-02
  3.91305564E-02 -2.69982690E-02 -4.01949098E-03  7.50450360E-03  2.63061999E-02
 -2.46936934E-02 -2.12374427E-02 -4.49781376E-02  3.01080887E-02 -6.46294070E-03
 -4.04647520E-03 -1.01726410E-02 -3.35858971E-03  2.44746199E-04 -1.13712021E-03
  2.76974859E-04  1.60737200E-03 -9.20470120E-03  6.46421720E-03  4.43398275E-03
 -2.94463581E-03  6.35924994E-03 -1.02033712E-02 -1.70679243E-02  9.72238291E-03
 -1.53214310E-02  2.17372280E-01  5.91880205E-02  1.36593941E-02 -2.10963095E-02
  3.16302954E-01 -8.96989174E-04  2.50754771E-03 -6.60117849E-03 -1.97014658E-03
  1.59747994E-02 -2.59836935E-02 -4.97107223E-03 -2.96667808E-03  7.99097760E-03
 -1.22757586E-01 -5.26355625E-03 -2.78795586E-02 -5.89222060E-02  1.52393147E-01
  2.60358706E-02  2.81647433E-02 -7.44779653E-03  8.59419164E-03 -9.82100299E-04
  4.33264563E-03 -4.98159543E-04 -8.43726650E-04 -1.20893497E-04  1.97183052E-03
 -5.01406111E-04  9.97199380E-04 -7.03060173E-03  1.23263168E-03  3.23639483E-03
  7.40376583E-03  3.24966582E-03 -1.50809269E-02 -1.19460789E-02  7.53452464E-03
  2.05267372E-03 -1.87637676E-02  8.59703930E-03  5.45310542E-03  1.95792811E-02
  3.57014788E-02 -1.41965759E-01  1.74489378E-02  1.08507543E-02 -2.68503433E-02
  2.53384528E-04  1.07401887E-03  1.39754644E-03 -3.89685823E-04 -1.91777570E-04
 -8.99818887E-04  2.27913769E-03  2.85897566E-03 -1.18381246E-03  1.78026566E-03
 -1.47316308E-01 -2.28949950E-01 -1.53561535E-03  2.11518013E-02  6.25815553E-02
  6.50649694E-01 -1.42201162E-03  2.84796119E-02  8.21755506E-02  5.54672525E-01
 -5.25530777E-04 -5.76702756E-04  5.04283177E-03  6.90418990E-03  1.62732132E-02
  8.16517081E-04  8.58889038E-03  1.24161622E-02  2.31917172E-02 -3.70936887E-02
 -4.03982171E-02 -1.35751715E-02  1.32507626E-02  1.02300307E-01  2.80897477E-02
  1.11947233E-02 -1.86705219E-02  3.76123690E-03  1.24607810E-02  7.17053423E-04
 -3.33620577E-03  3.07357252E-03 -5.85774958E-03  3.51264461E-02  7.22610190E-03
 -1.19062760E-02  1.07778535E-02  3.87810156E-03  6.85718269E-03 -1.71654992E-02
  2.80099153E-02 -1.55446234E-02 -1.78276480E-02 -3.15862373E-02  3.49943319E-02
 -2.10840903E-02  8.69021496E-03 -5.01677368E-02  2.04513197E-02  9.32932807E-03
 -1.06596449E-01  3.96893643E-03  2.11503142E-02 -1.18912122E-02  2.03447596E-03
 -7.68234692E-04  1.13392850E-03  1.45108550E-03 -8.63267485E-04 -7.51526071E-03
  2.62767574E-04 -1.22739765E-03  7.08228356E-05  4.30669013E-03 -2.81952264E-04
  1.28595457E-04  2.47673895E-01  1.14238253E-03  1.09259757E-02 -3.24690698E-03
  3.56091504E-01  1.15503022E-03  1.48738263E-02  2.68790613E-03  3.05523051E-01
  8.34198703E-03  1.26752637E-02  6.33271481E-03  6.86858156E-03 -1.33677808E-02
 -3.51719894E-02  1.13220700E-02  1.20465394E-02 -1.82326811E-02 -4.54301754E-02
 -1.46081808E-02 -3.21974976E-02  2.72356402E-02  1.15666638E-01  1.71836450E-02
  2.59177869E-02 -2.00414314E-02 -7.82482883E-03  9.04318684E-04  1.10628877E-02
 -1.53574898E-03 -2.67174887E-05 -2.75345701E-02  1.37264979E-02  3.09537536E-02
 -6.35098990E-03  7.65926560E-03  2.37540383E-03  4.28983841E-03  2.61869776E-02
 -1.36982444E-02  2.16780183E-03 -9.82471803E-03  3.36179172E-02 -2.65127264E-02
  3.21512544E-03  1.89095776E-02  8.58018003E-03 -4.61532562E-02  2.22635309E-02
 -1.19163951E-01  2.38804741E-02  6.80743302E-03 -1.09036131E-02  1.83306440E-03
 -4.85859054E-04 -4.72638032E-04 -8.93371109E-04 -6.82207838E-04 -1.04462591E-02
  2.95874669E-03 -2.26258872E-03 -1.79489548E-03  7.11288855E-03 -9.07868320E-04
 -1.97990704E-03  2.14276257E-04  2.43477011E-01 -1.87082055E-02  8.40462827E-03
  3.55205741E-05  3.49904216E-01 -2.68489098E-02  2.17444751E-02 -8.62698075E-04
  2.97066961E-01  2.44213649E-02  3.63900611E-02  1.47174372E-02 -1.52147821E-02
 -8.47592855E-02 -9.84427127E-02  2.02129095E-02 -2.17689456E-02 -1.19334416E-01
 -3.84069048E-03  1.04370752E-02  2.38977682E-02  6.49292993E-03 -1.56249880E-02
 -2.35459227E-03 -6.79613223E-04  1.86416499E-02 -9.98306940E-03  2.94659063E-03
 -7.79372583E-03  2.84779591E-04  2.66456837E-03 -9.83458032E-03  2.55805711E-03
 -1.09248933E-02 -1.00626205E-03  9.28355039E-03 -6.06655326E-03 -1.04824481E-02
 -2.05066438E-02 -3.72220358E-03  1.05770122E-02  3.08697320E-02 -2.48276845E-02
 -1.22962470E-03  9.31596343E-03  2.34290032E-02 -2.30008278E-02 -1.61102366E-02
 -3.40378179E-02  1.99931295E-02 -4.45338032E-03 -2.07660545E-03 -8.79074361E-03
 -3.02160606E-03 -2.16768822E-04 -1.44736978E-03  4.88789234E-04  1.40033666E-03
 -6.60954096E-03  3.41563116E-03  2.06005503E-03 -1.51089058E-03  4.63953341E-03
 -1.56176500E-03 -5.80919686E-03  8.39752867E-03 -2.17087805E-02  1.63809806E-01
  3.33906881E-02  1.18237856E-02 -3.04684713E-02  2.38500538E-01  5.05431899E-02
  1.23512322E-02 -3.26312872E-02  1.81255688E-01  7.93311916E-03  9.41147441E-03
  3.42857069E-04  4.89121726E-03  1.22153925E-02 -1.62441511E-02  1.37723429E-03
  7.23513680E-03  1.52565764E-02  3.48394675E-03  3.65840680E-03 -5.36562515E-03
 -2.64373564E-02 -4.73066903E-02 -8.41650674E-03 -7.69243225E-03  6.25471495E-03
  1.27649874E-03 -1.42924860E-03 -1.28622002E-03  6.40335089E-04 -1.06332368E-03
  1.32042485E-03 -4.65752885E-03 -4.97455369E-03  1.73350008E-03 -5.79722682E-04
  1.74006360E-03  2.77167013E-03 -5.32296420E-03 -1.16726175E-02 -1.45826548E-02
 -9.00890774E-03 -6.88309219E-03 -1.56390949E-02 -2.03412913E-02 -1.70792243E-02
  1.48545044E-02  1.96079356E-02  5.39241718E-03  4.79723878E-02 -6.64740325E-03
 -4.32636611E-03  9.70443921E-03  3.80054439E-03 -8.78227865E-05  1.43399519E-03
  2.03161942E-04 -2.63102975E-03  6.54339629E-03  1.83190464E-03  4.83920400E-03
 -3.78112847E-04 -4.61098942E-03 -7.41634491E-03 -1.11673079E-02 -4.33186676E-03
 -6.70580577E-03 -4.26562559E-03  2.98002890E-02 -6.19680551E-03 -9.67939698E-03
 -6.33801346E-03  2.71196917E-02 -3.83716940E-03 -7.23194129E-03 -7.29910156E-03
  2.04344971E-02  1.51361982E-03  2.05562023E-03 -1.16702533E-02  9.02824883E-03
 -8.08484598E-04 -4.71808078E-03 -1.74283579E-02  1.39972159E-02 -1.59723787E-03
 -5.61255925E-03 -1.83252534E-02  8.23766971E-03 -2.52853370E-03  1.11056058E-02
  1.58722659E-03  2.58023447E-03 -2.43230333E-03  6.91422177E-04  1.89557856E-03
 -2.46461905E-04 -9.54412888E-04  2.15261596E-04  1.10277769E-04  4.70765189E-03
  9.24785387E-05 -2.57096326E-03  1.15424262E-03  2.75425469E-03  3.84599209E-03
 -1.03415044E-02  1.08526771E-02 -5.98020217E-03 -8.86412925E-03 -1.66022820E-02
  1.56009860E-02 -8.45305307E-03 -1.51925985E-03 -1.63003983E-02  1.24063707E-02
 -2.37590588E-03 -1.17375663E-02  1.78982437E-04  2.57002116E-03 -1.47218779E-03
  1.55485797E-05 -3.05813525E-04  7.73140729E-04  1.20501491E-03 -3.11456780E-04
 -1.27569530E-03 -7.77487834E-04  1.19309407E-03  2.30490895E-03  3.80933474E-04
  1.42033350E-04  1.64026235E-04  2.99024959E-02 -1.50536397E-03  2.11338102E-03
 -2.92210216E-04  4.29518364E-02 -2.18755908E-03  2.94940601E-03  4.19733849E-04
  3.76503365E-02 -2.64300033E-03  2.64845222E-03 -2.93172692E-05  7.11092326E-03
  5.93822955E-04  1.31943023E-03  8.89591144E-03 -8.44925522E-03  1.41563791E-03
 -4.99922122E-03  1.37307307E-02 -1.25122311E-02  2.47121806E-03 -6.48669922E-03
  7.87206631E-03 -1.33836059E-02  9.04667939E-03  1.75368472E-02  4.15236399E-03
  2.65542674E-03 -2.54264942E-03 -1.06091967E-03  9.21996710E-05  1.96021563E-03
  2.07478897E-04 -1.01977627E-04 -3.31322386E-03  1.62133415E-03  5.15361493E-03
  5.86375632E-05  6.70893834E-04  2.13638662E-03  2.93690473E-03  1.15250651E-02
 -6.64149394E-03  2.76589915E-03 -6.35224398E-03  1.65018705E-02 -1.11541193E-02
  4.41932434E-03  1.39759640E-03  9.40252888E-03 -1.44111814E-02  5.22312170E-03
 -1.81946778E-02  3.53346027E-03  9.75386050E-04 -2.11425494E-03  7.94023803E-05
  3.31761855E-04 -6.05313260E-04 -9.89250308E-04 -4.77982969E-06 -1.28135143E-03
  8.05672254E-04 -1.82600200E-03 -2.07466492E-03  1.18974464E-03  9.24187071E-04
  1.12160160E-03 -7.38849229E-04  2.96964715E-02 -3.40719748E-03 -1.89389637E-03
 -1.06525335E-03  4.26485876E-02 -4.88645465E-03 -3.11979939E-04 -1.76559305E-03
  3.67226209E-02 -5.11531275E-03 -2.61562176E-03 -2.34674725E-03  6.47127383E-03
 -3.27602867E-03 -3.05198198E-03 -1.16952230E-03  9.87157861E-04 -1.30585364E-02
  1.63704244E-03 -2.32396432E-03  1.60874994E-03 -1.78227427E-02  4.77756730E-04
 -3.52467411E-03  7.86549256E-03  6.76811844E-03  1.18706427E-02  1.85055595E-03
  2.53991204E-03 -4.03298736E-04 -1.07073430E-03  7.10814871E-04 -5.42476863E-04
 -3.40489061E-04  7.14636358E-04 -1.31733374E-03  2.05568343E-03  1.62651569E-04
 -1.05455596E-03  1.18142555E-03 -3.08433392E-03 -4.43301884E-03 -4.14709958E-03
  4.94151620E-03  5.52867532E-03  1.13516357E-02 -5.99679718E-03  7.33444701E-03
  6.99874338E-03  8.71953901E-03 -1.05564541E-02 -4.48637349E-03 -5.58449936E-03
 -1.16180710E-02  1.15224349E-03  1.00024815E-03 -3.44213814E-03 -1.56230218E-03
 -1.17587912E-04 -3.54603747E-04  2.68774281E-04  1.16185665E-03 -3.25656866E-03
 -9.46998243E-05 -6.22624099E-04  5.35168929E-04  2.07785012E-03  2.05850168E-03
  2.52526521E-03  4.20152294E-03 -9.29412267E-04  1.57121502E-02 -4.21517236E-03
  6.00676184E-03 -1.25858654E-03  2.28630828E-02 -2.20728682E-03  5.03888209E-03
 -2.27897851E-03  1.82015240E-02 -7.03111587E-03  1.16856968E-03 -5.25865052E-04
  4.24033634E-03 -3.43770753E-04 -7.66468006E-04 -4.72203359E-04  6.56262158E-04
  1.67680701E-03  2.89052617E-03 -7.16719630E-04  9.17449887E-04  2.34765719E-03
  2.03260971E-04 -5.21635494E-04 -2.18057530E-04 -4.36133811E-04  7.16820414E-04
  8.17082112E-05  8.72846017E-05 -3.91310672E-04  2.54085004E-04 -6.86282455E-05
  1.20957043E-04 -1.84706679E-05 -3.67042235E-05  2.58811777E-04 -3.98330264E-05
  1.33530470E-04 -5.39044994E-06 -2.02386806E-04  1.34429769E-04  1.76564689E-04
 -1.98960823E-05  2.26287599E-04 -9.63260854E-05 -3.62949313E-04 -1.26162370E-04
  2.78622137E-04 -4.32776038E-05 -2.15418982E-04  5.38691343E-05  6.52244475E-04
  7.58281973E-04 -7.60466552E-04  1.23740983E-04  1.15982256E-04  7.59752599E-05
  3.94963479E-05 -3.02574828E-05  7.93872841E-06  2.56671204E-05 -2.01390493E-05
  1.25806551E-04 -1.45844738E-04 -6.81311193E-05  1.02741712E-04 -9.25822997E-05
  3.95490502E-05 -1.15568064E-04  4.99786549E-05 -9.12637421E-05 -3.28926008E-03
  8.47510803E-04  7.90928865E-05 -1.50573838E-04 -4.81249819E-03  1.56196951E-04
  4.00651240E-05 -5.72608699E-06 -3.61602282E-03  1.74118324E-04  3.41099973E-05
 -3.48279904E-05 -3.39830614E-04  8.11347596E-05  1.05724000E-04  2.05603142E-04
 -7.10335260E-04  4.87000513E-05 -4.62558729E-04 -6.95962729E-04 -1.04341456E-03
  1.10280482E-04 -6.84447109E-04  1.58505852E-04 -1.94096245E-04  6.68831415E-04
 -2.28932802E-04 -1.23760961E-03 -3.39373676E-04 -7.09047650E-05  2.46651399E-04
 -7.56373835E-05 -5.43737158E-05 -3.69248685E-05 -5.85803124E-06 -4.19940646E-06
 -1.79549268E-05 -2.40635160E-04 -1.54019586E-04  3.30782238E-05 -1.60500856E-05
 -2.13071305E-05  2.71916164E-07 -1.73435078E-04  2.11495992E-04 -1.85455187E-04
 -1.44657359E-04 -2.36936358E-04  3.68927037E-04 -2.91633702E-04 -3.27157366E-04
 -7.82138366E-05  2.41398969E-04 -5.19290380E-04  1.26833950E-03 -1.25466328E-04
 -2.11670619E-04  1.29534616E-04 -2.32825820E-05  1.00311501E-05  4.10156010E-05
  2.45914555E-05 -1.76820693E-06  1.07470219E-05  3.30349197E-06  1.07213648E-04
  7.56746859E-05 -2.56015220E-05 -2.52091444E-05  8.72773448E-06 -1.84055936E-03
 -9.48167966E-05  5.15827167E-04 -1.71868959E-04 -2.64948524E-03 -1.28419636E-04
  7.60915712E-04 -5.32294350E-05 -2.22000748E-03 -1.36451160E-04  5.60702232E-04
  5.74623047E-05 -1.63581397E-04 -8.95180008E-05  3.19373981E-05 -1.27066677E-05
  2.50146183E-05 -9.51802013E-05 -2.57414360E-04  1.35422542E-05 -5.38564076E-04
  9.11924872E-04  1.08591955E-03  5.12174027E-05 -8.12514807E-04  1.27517233E-03
  3.42449481E-04  5.48280495E-04 -2.70865862E-04 -2.23202490E-04 -1.05127080E-03
 -9.52203135E-05 -2.57355613E-04  1.31633844E-04  1.14241045E-04 -2.91298538E-05
 -1.99476271E-05  2.83674137E-05  6.78347558E-06  2.15032283E-04 -1.65454924E-04
 -2.09686339E-04  1.14825114E-04 -8.28805818E-05  4.26263520E-05  1.00932265E-04
  3.46367624E-04 -7.71211205E-05 -1.20421106E-04 -4.21429895E-04  5.18203919E-04
 -1.19699015E-04 -1.22033775E-04 -5.41182191E-04  5.63483714E-04  2.02383159E-04
  5.14733396E-05  1.06118621E-03 -1.90066238E-04 -8.35730109E-05  1.71078831E-04
  2.30573875E-05  2.48266955E-05  2.07704381E-06 -3.00242898E-05 -1.42869337E-05
  1.46553692E-04 -1.78907963E-05 -4.43356160E-05 -5.05992925E-05 -8.69586035E-05
  7.02885208E-06 -5.09310250E-05 -9.33530604E-05 -1.95717853E-03 -8.77085139E-04
  3.19734750E-04 -1.27973905E-04 -2.82141957E-03 -1.29074781E-03  2.01015869E-05
 -1.26501273E-04 -2.31759025E-03 -9.03385506E-04  1.88120571E-04 -7.78899213E-05
 -2.15877183E-04 -1.54943242E-04  2.32828327E-05 -3.78380828E-06  3.22064899E-05
 -3.66357436E-06  8.53707493E-06  1.31430740E-04  8.70659908E-05 -7.07782159E-05
 -7.37634936E-05  1.89413794E-04  1.22751435E-04 -9.32367777E-05 -9.24983564E-05
 -3.28719293E-05 -9.72400048E-05  8.84096964E-05  4.01798267E-04  6.30902992E-05
  6.90140013E-05 -7.26497441E-05 -7.23318568E-06  1.12502511E-05  1.63827394E-05
  6.48048943E-06 -1.63857084E-06 -3.31494274E-05  6.29357674E-05  7.87114860E-05
 -2.45679022E-06  1.27747304E-05  5.46904593E-06 -1.00497383E-05  3.23156509E-05
 -7.35998944E-05  7.49149992E-05  9.91712038E-05  4.35342208E-05 -1.18599986E-04
  1.05490083E-04  1.49046406E-04 -9.38360632E-06 -1.38744735E-04  1.08541512E-04
 -4.09422419E-04  7.51535213E-05  3.45182372E-05 -4.50618253E-05  3.16835361E-07
 -5.65068222E-06 -7.18656202E-06 -6.13363868E-07  2.77797498E-06 -2.30712578E-05
  1.20763883E-06 -8.79092010E-06 -4.51027492E-06  1.59912952E-05 -1.96409782E-06
  5.46073667E-07  2.37772540E-04  4.31439108E-04  2.25741405E-05 -1.06136967E-05
  3.41497105E-04  6.19982965E-04  3.40947425E-05  1.39896146E-05  2.83696429E-04
  5.21254678E-04  1.11573533E-05 -4.33219254E-05  2.43825397E-05  6.70976059E-05
  1.53312152E-05 -1.25327105E-06 -3.10071904E-06 -5.39085240E-06  1.69550799E-06
  2.77914666E-05  4.01800110E-05 -1.86696446E-04  6.43573203E-05 -1.60212160E-04
 -1.04194808E-04 -2.79171942E-04  1.06268996E-04 -2.22296471E-04  2.97644656E-05
 -1.14028521E-04  1.64104491E-04 -3.73452798E-05 -1.01246230E-04 -6.00798431E-05
  2.14700474E-05  2.91435795E-05 -3.05875833E-05 -9.79842599E-06 -2.60396576E-06
 -4.72425465E-06  5.04191361E-06 -6.22083882E-05 -2.67442312E-05 -1.02507835E-05
 -7.27281583E-06  2.66845819E-05 -5.81047419E-05 -4.95148922E-05 -7.26010124E-05
  4.28356196E-05 -3.84833241E-05  3.27676094E-06 -1.04898372E-04  7.41854907E-05
 -6.97760785E-05  5.17826416E-06 -7.20063953E-05  3.28310342E-05 -9.38448383E-05
  1.07345366E-04  8.15703681E-06 -3.02148381E-05  2.98224209E-06 -6.65511838E-06
 -5.10436630E-06  3.88154977E-06  1.08700992E-05 -4.36539116E-07 -3.89754748E-05
 -1.67998449E-06  1.45204362E-05  2.37990525E-05  2.06870102E-05  2.65491007E-05
  4.32753366E-05 -3.48627727E-04  2.72992978E-04  1.17817411E-04 -1.24820773E-04
 -5.02226250E-04  3.94652187E-04  1.74447029E-04 -5.48385428E-05 -4.18292597E-04
  3.23899972E-04  1.16455575E-04 -5.50825982E-07 -2.17661699E-05  1.36485758E-05
  1.33914840E-05 -2.98918699E-06  5.35152856E-06 -4.00339186E-06 -5.31825537E-08
  1.82760643E-06 -3.90302146E-03 -5.12679965E-03 -2.76443334E-03  3.16040331E-03
  6.36476025E-03  1.13165480E-02 -4.09904693E-03  4.52592540E-03  8.73152186E-03
 -5.91875368E-04 -2.79539169E-03 -4.79754728E-04 -2.29974183E-03  4.57103028E-03
  4.97857356E-04  9.00407270E-04 -1.75022082E-03  1.00556151E-03 -3.14432890E-04
  6.32111062E-04 -1.32696212E-04 -1.44852655E-04  7.99374124E-04 -1.30801124E-04
  7.69176257E-04 -1.15134206E-04 -8.67053091E-04 -1.32951759E-04  1.08495432E-04
 -2.48423560E-04  1.30702268E-03 -5.23954421E-04 -1.16739249E-03 -8.75776798E-04
  1.64211575E-03 -3.38566170E-04 -7.20664070E-04 -1.28158875E-04  2.83331849E-03
  3.10845440E-03 -4.67943772E-03  7.35161280E-04  4.44313536E-04  8.10181243E-05
  1.42593365E-04 -1.09398986E-04  1.20812548E-04  1.17539085E-04 -6.03050191E-05
  3.81935838E-04 -5.12507877E-04 -7.31612700E-05  4.75072961E-04 -3.16751266E-04
 -2.87947406E-03 -4.05439209E-03 -1.13851645E-03  2.33467997E-03 -1.29154956E-02
  9.57210853E-03 -1.60583590E-03  3.26152628E-03 -1.89802203E-02  6.10112018E-03
 -1.41571512E-03  3.18942809E-03 -1.45271961E-02  8.30111492E-04  5.22039050E-05
  1.11787251E-04 -1.35177922E-03  3.29156971E-04 -3.41561846E-05  6.47470431E-05
 -1.43577996E-06 -5.24856213E-06  1.45871170E-03  8.08737648E-04  1.09030434E-03
 -4.57485269E-03  9.04222468E-04 -2.61848409E-03 -2.47782512E-03 -6.80151612E-03
  1.53170785E-03 -3.77931229E-03  1.12107290E-03 -1.80895246E-03  3.99793441E-03
 -9.86200040E-04 -5.56517059E-03 -1.87544870E-03 -1.56355711E-04  9.85603271E-04
 -3.46015422E-04 -4.22624800E-04 -9.46220696E-05 -5.45238026E-05 -1.01802096E-04
  8.43020975E-05 -1.50156659E-03 -5.75441914E-04  1.50622649E-04 -3.22911336E-04
  4.95790731E-04  5.38446989E-04 -1.24828146E-03  1.28591759E-03 -9.80870386E-04
 -9.48180840E-04 -1.76656791E-03  2.24591810E-03 -1.50631197E-03 -1.43835737E-03
 -8.37990821E-04  1.28393445E-03 -2.48627776E-03  5.71785631E-03 -3.80765528E-04
 -1.10671302E-03  4.93309512E-04 -2.50388539E-04  1.48349769E-05  1.79099226E-04
  1.57450034E-04  4.40225983E-05 -1.96473945E-04 -1.20635868E-04  4.47604017E-04
  5.20431021E-04  4.53658805E-06  7.35604297E-04  1.00723199E-03 -1.28499572E-02
  2.96383188E-04  1.07317626E-03 -2.24622515E-03 -1.84912627E-02  4.73820645E-04
  1.63456154E-03 -1.71799342E-03 -1.56293491E-02  2.48903365E-04  1.21385587E-03
 -1.83227745E-04 -1.21071947E-03 -3.70123616E-04  1.82956004E-04 -3.49377833E-05
  1.57384630E-04 -2.71261838E-05 -1.76682918E-05  3.50999806E-05 -2.87276288E-05
  1.08005647E-03 -1.65117084E-03 -2.12104879E-03  8.28816059E-04 -3.69377857E-03
  3.65454139E-03  4.55338989E-03  1.41515791E-03 -5.51784378E-03  5.10565074E-03
  1.05739349E-03  3.45613739E-03 -1.54172350E-03 -5.43101344E-04 -4.28165549E-03
 -1.23533896E-04 -1.26332475E-03  7.11495398E-04  6.07312668E-04 -4.58598627E-05
 -1.74883672E-04  1.69186180E-04  5.21077125E-05  1.33258169E-03 -6.71404917E-04
 -1.14765457E-03  6.24223545E-04 -4.94334258E-04  5.73717575E-04  7.50971460E-04
  1.91271530E-03 -5.48843001E-04 -3.12637465E-04 -1.79071708E-03  2.89612559E-03
 -8.42651403E-04 -1.54800910E-04 -2.36542443E-03  2.68582746E-03  4.02419222E-04
  5.93678845E-05  4.40070820E-03 -9.87438949E-04 -3.53977286E-04  4.70302016E-04
 -2.24084502E-05  2.02988150E-04 -2.54795624E-05 -1.97710971E-04  3.83732535E-05
  5.07429579E-04  7.06761493E-05 -2.86667195E-04 -3.93746873E-04 -2.49582523E-04
 -1.08660473E-03 -1.56418165E-03  3.79004437E-04 -1.24585907E-02 -2.06305784E-03
  3.85426083E-03  5.83143929E-04 -1.79500761E-02 -3.11677605E-03  2.13660510E-03
  3.51611008E-04 -1.49725209E-02 -1.87258133E-03  4.09991075E-04 -3.64539947E-04
 -1.33185037E-03 -3.62030538E-04  6.73287239E-05 -2.62433567E-05  1.72128459E-04
 -2.90392609E-05 -2.65000994E-05  1.07767854E-04 -1.96405212E-04  1.04812468E-03
  1.65052275E-04  1.97695978E-04  5.34965046E-04  5.49914067E-04 -2.43524104E-04
 -3.83588462E-04  7.62045444E-04  7.87840698E-04 -3.10284844E-04 -4.11946560E-04
 -3.16810095E-04 -4.99027757E-04  3.14325662E-04  1.92909968E-03  3.04548555E-04
  3.33323223E-04 -3.50621438E-04 -6.45770745E-05  5.68597986E-05  8.46927400E-05
  1.16821003E-05  2.77478535E-07 -2.90953763E-04  3.33486252E-04  3.89276358E-04
 -6.85280831E-05  1.34385018E-04 -2.09402077E-04 -2.31711807E-04  3.50031041E-05
 -2.74050034E-04  2.16683191E-04  4.08961530E-04  2.28892604E-05 -4.57045046E-04
  2.80240025E-04  7.13337370E-04 -1.31473636E-04 -5.14118623E-04  5.39990751E-04
 -1.97799456E-03  3.58601498E-04  2.14608916E-04 -1.84212153E-04  4.93174567E-05
 -2.96567450E-05 -4.48033382E-05  1.70133276E-05 -8.81790200E-06 -7.95107110E-05
  1.62525332E-05 -6.62120496E-05  9.67365835E-06  7.77155808E-05  9.19888855E-05
  1.40063209E-04  1.41690421E-03  2.79979371E-03 -5.81616131E-05 -3.81406658E-04
  2.03356254E-03  4.02405844E-03 -7.29793994E-05 -1.51613715E-04  1.72082808E-03
  3.40712602E-03 -1.67119109E-04 -7.53881628E-05  1.72445267E-04  3.96723946E-04
  9.45867241E-06 -2.51332391E-06 -1.63532917E-05 -3.10345586E-05  9.09086079E-06
  9.52912379E-07  1.13513327E-05 -1.00040456E-04 -1.90149998E-04  5.66397083E-05
  7.52658127E-05  1.33689298E-04 -1.07894767E-03  9.41173226E-04 -5.00284173E-04
 -4.00793632E-04 -1.60247858E-03  1.42881881E-03 -7.96233274E-04  2.58414872E-04
 -5.79936621E-04  1.25447116E-03 -4.72187356E-04 -1.64100492E-03 -5.23821923E-04
  3.26867901E-05  2.15913558E-04 -1.00049785E-04 -1.21163113E-04  1.41145145E-05
 -2.75357839E-05 -1.72434962E-05 -9.32192269E-05 -3.20081782E-04 -2.71149056E-05
 -5.34402120E-06 -6.28659772E-05  1.59282839E-04  6.15220162E-05 -4.74712841E-04
  4.77020910E-04  1.56082944E-04  3.85792245E-04 -7.13595574E-04  7.60172789E-04
  1.75385280E-04 -3.29399979E-04 -2.39956544E-04  4.70801299E-04 -6.23793324E-04
  1.66084266E-03 -1.33495683E-04 -3.42311748E-04  2.97019327E-04 -9.16906265E-06
  4.95458217E-06  9.88876868E-05  4.72896772E-05  6.47650250E-07  1.24016914E-04
  2.65899538E-05  2.97078283E-04  1.57878344E-04 -1.28700928E-04 -3.65561180E-05
 -5.05949299E-05 -2.88085451E-03  1.63425321E-03 -2.17837716E-04  1.23677210E-04
 -4.14978902E-03  2.35697608E-03 -2.97493878E-04  1.45812509E-04 -3.47721290E-03
  1.97320205E-03 -3.34250100E-04  1.65403941E-04 -2.38668195E-04  4.93049758E-05
 -5.39832743E-05  3.71940958E-06  3.48976770E-05 -2.11855098E-05 -4.57372656E-07
  9.43192809E-06  7.32417603E-05  2.32051456E-04 -1.64090801E-04  3.56161118E-06
  8.64113443E-05  1.44946437E-03  1.65681441E-03  4.25859206E-03  5.61444395E-03
  1.52530150E-03 -2.29590185E-03  2.63433905E-03  3.68994551E-03  1.53437693E-03
  3.79254029E-02 -1.03687753E-02 -1.70640067E-02 -1.29578846E-02 -5.43015010E-02
 -6.72955504E-03 -3.74093238E-03  1.15636199E-02  9.58350858E-04 -9.49490968E-04
 -1.31053550E-03  7.38027454E-04 -2.03625054E-03  3.20461026E-03 -1.63876605E-03
  8.14283555E-04 -1.61006827E-04  1.53876554E-03 -8.80386660E-04 -1.36786891E-03
 -1.75053509E-03 -1.77958099E-03  8.11585513E-04  3.77046704E-03 -1.65041878E-03
 -1.76663420E-03  5.23350265E-04 -5.16924286E-03  6.03242948E-03  1.11002375E-02
  1.07327412E-02  5.08995994E-02 -7.86542543E-03 -7.42430741E-03  5.20383899E-03
 -5.55752169E-05 -1.05432377E-04 -1.19630100E-04  1.84414112E-05  1.15189827E-04
  3.17892988E-04 -5.32727921E-04 -8.61595297E-04  4.27086410E-04 -1.08338859E-03
 -2.45643995E-04 -4.05005567E-04 -2.39191033E-03 -3.49193377E-03 -1.77874425E-03
  1.33036703E-03 -3.56988861E-03 -5.07031936E-03 -2.26977190E-03 -3.27615118E-03
 -2.28918829E-03 -2.55049624E-03  4.53724478E-04  2.87820216E-03  1.05355128E-03
  7.78156809E-04 -1.28644098E-03  8.27947821E-05  1.66551937E-05  8.26989374E-05
 -2.03730704E-05  1.52021878E-05  3.25092316E-05  1.06528089E-05 -4.11565040E-05
  3.87796896E-05 -1.90954303E-04  6.33077983E-01  2.10578135E-03  2.51493454E-03
  6.76961980E-03  8.92645761E-03  2.42883717E-03 -3.00485942E-03  4.97793412E-03
  6.80131467E-03  2.43272415E-03  5.39381916E-02 -1.39763732E-02 -2.34016752E-02
 -1.85574447E-02 -7.63110320E-02 -9.27418044E-03 -4.99071989E-03  1.63847737E-02
  1.67643156E-03 -1.62130620E-03 -2.14551885E-03  1.21525865E-03 -3.31427943E-03
  4.56176096E-03 -2.64879295E-03  5.02578133E-04  5.81451327E-05  1.50548849E-03
 -1.46192364E-03 -2.26691789E-03 -2.88512820E-03 -2.92748075E-03  1.35264839E-03
  6.02494948E-03 -2.75498423E-03 -2.96645789E-03  8.25951323E-04 -6.28428083E-03
  8.75376613E-03  1.57091974E-02  1.44890267E-02  7.14618379E-02 -1.10956869E-02
 -1.05636349E-02  7.09532443E-03 -8.89006778E-05 -1.77929526E-04 -2.14767455E-04
  4.04724536E-05  1.53816512E-04  4.69179817E-04 -6.02308419E-04 -9.22608480E-04
  4.83470898E-04 -1.28328807E-03 -4.05004951E-04 -6.50565663E-04 -3.99612621E-03
 -5.80717876E-03 -2.89887938E-03  2.00305478E-03 -5.91490989E-03 -8.41343400E-03
 -3.79473264E-03 -4.22378667E-03 -3.99596371E-03 -4.72601577E-03  4.58146501E-05
  3.99532596E-03  1.35558165E-03  9.62408038E-04 -1.76098563E-03  1.26507774E-04
  2.04504169E-05  1.13260142E-04 -2.49138996E-05  5.58553012E-06  1.22320498E-04
  5.81310356E-05  6.22818047E-05  1.90596536E-05 -2.29364773E-04  5.70569436E-01
  5.32294996E-01 -1.13323792E-02 -1.78576383E-02 -2.02520201E-02 -3.92673891E-02
 -1.46135440E-02  5.14514858E-02 -2.85890999E-02 -5.57307155E-02 -2.16433502E-02
 -9.48568808E-03 -1.95068684E-02  1.46136987E-03  2.09185495E-02  5.03583941E-02
  2.02491120E-02  8.99936495E-03 -5.27639105E-03 -1.03876811E-03  1.62403117E-03
  5.08022691E-03 -9.86062331E-03  1.18486014E-03  3.98661982E-03  4.27065320E-03
  9.42382205E-03 -1.82271372E-02 -6.75756800E-03  5.02985790E-03  7.99729706E-03
 -1.06225060E-02  2.09690192E-02 -1.39230568E-02 -2.05079696E-02 -1.98831476E-02
  2.79431430E-02 -1.53063983E-02 -5.10372912E-03 -3.84088573E-02  3.71913467E-03
 -1.70140280E-02 -5.41780587E-02 -4.13006763E-03  7.26634018E-03 -1.19812669E-02
 -1.68003445E-03  5.48580290E-04  1.23741982E-03  1.87916774E-05  1.13900483E-03
 -1.64880238E-03 -1.06685086E-03 -2.36164476E-03  8.80194704E-04  9.33144874E-04
 -2.84012398E-04 -5.11676094E-04  5.05370929E-04  9.45831337E-03 -1.26453840E-03
  2.25925484E-03  5.02884864E-04  1.35652815E-02 -2.30359250E-03 -1.29901425E-03
  6.43615987E-04  9.86713517E-03  6.52064949E-04 -2.02933561E-02  3.64321959E-04
  4.72414706E-03  6.03922423E-03 -4.10004784E-05  5.82935062E-05 -5.53899490E-05
 -1.14562501E-04 -2.01184976E-05  2.18250090E-04  1.09206053E-03  5.58112627E-04
 -6.44803274E-04 -2.05065915E-04  5.51616859E-03  8.69659312E-03  1.84337091E-01
 -1.66735061E-02 -2.63185899E-02 -3.89343764E-02 -4.47215713E-02 -1.85866892E-02
  7.60554449E-02 -5.51631557E-02 -6.33936253E-02 -2.61321661E-02  6.35945219E-03
  2.24329573E-03 -3.96100694E-03  2.08162869E-02  1.59192455E-02  3.94381038E-03
  1.55258808E-02 -5.13986979E-04 -2.72518640E-03  5.83657201E-03  5.18196983E-03
  4.08311660E-03  6.97891361E-03 -5.52282653E-03  1.07407849E-02  8.18048924E-03
  1.00847565E-02  6.24689309E-03  5.07391593E-03  8.05919883E-03  2.29528381E-02
 -6.71351319E-03 -3.69704941E-03 -2.17006085E-02  2.97629496E-02 -1.35702571E-02
 -1.99443052E-03 -1.41092006E-02  1.33782326E-02 -3.62328290E-02 -1.44508345E-02
 -1.93005206E-02  5.06211280E-03 -9.19788476E-03 -3.39599411E-03 -1.06196703E-03
  1.43830459E-03  4.15764365E-04 -9.41606322E-04  1.15542420E-03 -6.30400691E-03
  6.41270709E-04 -1.90473116E-03 -7.03690094E-04  3.37840255E-03  1.27832006E-03
  2.07813067E-03  1.20850658E-02  9.78169187E-03  8.97048329E-03 -6.31590786E-03
  1.75075030E-02  1.37494434E-02  1.25558645E-02 -3.77598533E-03  1.34664310E-02
  1.22367518E-02  1.01387816E-02 -1.63382441E-02  2.57425924E-03  3.53106786E-03
  6.05829058E-03 -1.83387024E-04  1.32107961E-04  1.37181312E-04  4.34664740E-05
  6.57907109E-05 -5.13411786E-04  7.08060350E-04  1.12416680E-03  6.51055256E-05
 -2.12369329E-04  7.62123076E-03  1.20125617E-02 -2.42920069E-02  1.68580009E-01
 -8.77903424E-03 -1.39549044E-02 -1.37056946E-02 -1.75090158E-02  4.92965478E-03
  4.08229937E-02 -2.00958712E-02 -2.42952448E-02  1.04631771E-02  4.79844624E-02
  2.30430881E-02  2.33389582E-02 -2.51880830E-02 -1.19355384E-01 -1.90339064E-02
 -1.68449442E-02  2.66780779E-02 -7.64934578E-03 -2.70426961E-03 -5.33694520E-03
 -2.13680408E-03  5.30786781E-03 -3.19150746E-02 -5.69568705E-03 -1.90157260E-02
 -4.48080463E-03  2.08765205E-02 -2.43993395E-03 -3.90155834E-03 -8.51825822E-03
  2.71690557E-03  2.33867179E-03  7.18803722E-03 -1.03464928E-02  3.89107533E-03
 -4.11729655E-03 -2.19174732E-02  9.29737788E-03  1.67774489E-02 -3.11586475E-02
  1.22497974E-01 -1.79758502E-02 -1.05150314E-02  1.55109477E-02  8.64610909E-04
 -3.67012274E-04  1.35969681E-04  3.66997293E-04 -1.00061615E-03 -1.14664394E-02
  6.21567282E-03  2.33216688E-03 -2.42395451E-03  6.80426684E-03  4.39995434E-03
  7.31441539E-03  5.88984815E-03  1.74615138E-02  2.06658061E-02 -2.45065341E-02
  8.43358639E-03  2.52990788E-02  3.00061798E-02 -6.08778027E-03  1.04562752E-02
  2.17757324E-02  1.80400523E-02  2.10963420E-02  1.82038198E-04 -8.93111773E-04
 -4.76875132E-03 -2.40642278E-04  2.94996568E-04  2.47811312E-04 -1.63436853E-04
  2.05939192E-04 -9.96423892E-04  1.02795862E-05 -7.89812722E-04 -4.10674431E-05
  3.36989629E-04  2.92567209E-03  4.60491118E-03 -9.12312109E-03 -1.24469798E-02
  1.97572069E-01 -3.34390356E-03 -4.08127914E-03 -1.85513067E-02 -2.42948688E-02
 -6.20122593E-03 -8.24894014E-05 -1.55276798E-02 -2.05901784E-02 -5.88565664E-03
 -1.37206057E-01  3.13302247E-02  5.44085998E-02  4.69108720E-02  1.89377514E-01
  2.21563885E-02  1.11813970E-02 -4.11633874E-02 -5.36451304E-03  5.13567096E-03
  6.41606227E-03 -3.63180585E-03  9.63949656E-03 -1.13178785E-02  7.93909626E-03
  1.41866886E-03 -1.27982206E-03 -1.21022511E-03  4.96140155E-03  7.56924553E-03
  9.14989370E-03  9.22840768E-03 -4.44181934E-03 -1.90660398E-02  9.07604755E-03
  9.73877924E-03 -2.81330186E-03  1.17454312E-02 -2.25335692E-02 -3.85361083E-02
 -3.21174418E-02 -1.77140603E-01  2.78713672E-02  2.69286424E-02 -1.67506682E-02
  3.66707031E-04  5.26445367E-04  7.00427842E-04 -1.29224391E-04 -4.69385388E-04
 -9.45240428E-04  7.57904399E-04  1.09504755E-03 -6.72175606E-04  2.05551130E-03
  1.33024152E-03  2.00280225E-03  1.36644481E-02  1.94897773E-02  8.91155094E-03
 -5.37496662E-03  1.99994335E-02  2.81618309E-02  1.20526194E-02  9.10653444E-03
  1.45887476E-02  1.81826591E-02  2.36234043E-03 -9.06962216E-03 -2.61294813E-03
 -1.66495687E-03  3.91217033E-03 -3.63239729E-04 -5.58505110E-05 -2.96858758E-04
  5.51652522E-05  4.62469244E-05 -6.56479644E-04 -4.35383156E-04 -8.11509751E-04
  1.45718882E-04  4.10077771E-04 -1.46025832E-01 -2.47257432E-01 -2.77380960E-02
 -3.82141095E-02 -1.44146241E-02  7.74394609E-01 -1.66888500E-02 -2.62920294E-02
 -2.97138958E-02 -5.75392499E-02 -2.09637406E-02  7.56501746E-02 -4.18611492E-02
 -8.15940958E-02 -3.10470104E-02 -1.47266355E-02 -2.77191139E-02  2.22173064E-03
  3.06495864E-02  7.46302051E-02  2.95175523E-02  1.32348429E-02 -7.96711700E-03
 -1.55303187E-03  2.40908454E-03  7.45657186E-03 -1.42382110E-02  1.86270029E-03
  5.63110269E-03  6.24275682E-03  1.36695019E-02 -2.62234207E-02 -9.74895917E-03
  7.12055988E-03  1.15084865E-02 -1.48776363E-02  3.01667004E-02 -2.02654446E-02
 -3.00599594E-02 -2.80956768E-02  4.01192343E-02 -2.22575344E-02 -7.36909727E-03
 -5.52903080E-02  4.68905256E-03 -2.48029231E-02 -8.00671667E-02 -5.64264348E-03
  1.06789237E-02 -1.74837502E-02 -2.39031168E-03  7.89356275E-04  1.77022966E-03
  1.29067160E-05  1.62319139E-03 -2.31208783E-03 -1.61291672E-03 -3.50542158E-03
  1.26215474E-03  1.32902575E-03 -6.20390949E-04 -1.01046210E-03  7.09608141E-04
  1.38852453E-02 -2.09931085E-03  3.81142934E-03  7.02772140E-04  1.99085572E-02
 -3.74636576E-03 -1.36743237E-03  8.80520903E-04  1.45292550E-02  5.69867135E-04
 -2.94007336E-02  4.52569671E-04  6.86455065E-03  8.70178585E-03 -5.21508983E-05
  8.47929184E-05 -7.33833118E-05 -1.65985567E-04 -2.83166247E-05  3.54843187E-04
  1.57531461E-03  8.33640308E-04 -9.32916064E-04 -2.93417962E-04  5.92642722E-03
  9.90958275E-03  2.65970099E-01 -3.38862476E-02 -1.28733124E-02 -3.44311988E-02
  3.83817986E-01 -2.45562704E-02 -3.87145573E-02 -5.72605380E-02 -6.55062453E-02
 -2.67652597E-02  1.11615701E-01 -8.10360610E-02 -9.27154827E-02 -3.76384572E-02
  7.54979932E-03  3.15068792E-03 -5.12636843E-03  3.06213430E-02  2.60388324E-02
  6.20410236E-03  2.27830182E-02 -1.31106892E-03 -3.97787664E-03  8.53639642E-03
  7.64339829E-03  5.76830892E-03  1.02633042E-02 -8.03844904E-03  1.56680973E-02
  1.18888994E-02  1.44342855E-02  8.94802070E-03  7.14756331E-03  1.16068145E-02
  3.32271928E-02 -9.27885734E-03 -5.85551982E-03 -3.19900795E-02  4.29685415E-02
 -1.90696804E-02 -3.49355762E-03 -2.03760393E-02  1.86630269E-02 -5.26161550E-02
 -2.13898547E-02 -3.08334931E-02  7.66192374E-03 -1.28832932E-02 -5.25031844E-03
 -1.50069590E-03  2.06098412E-03  6.18586199E-04 -1.33855240E-03  1.64538886E-03
 -9.02832501E-03  7.92568910E-04 -2.83327991E-03 -9.40954994E-04  4.84911317E-03
  1.60391720E-03  2.68445464E-03  1.78268519E-02  1.41372106E-02  1.25786797E-02
 -8.46313044E-03  2.58255555E-02  1.98651977E-02  1.75520773E-02 -4.86382606E-03
  1.99081599E-02  1.76448224E-02  1.41678027E-02 -2.38271845E-02  3.76545516E-03
  5.05537997E-03  8.78833820E-03 -2.53680421E-04  1.90958123E-04  2.05436074E-04
  6.05828959E-05  9.53841030E-05 -6.81515648E-04  1.02174133E-03  1.66221819E-03
  8.39258457E-05 -3.05990610E-04  8.13898326E-03  1.36142843E-02 -3.37182813E-02
  2.44008877E-01 -1.77292691E-02 -4.72200212E-02 -4.68893164E-02  3.53306843E-01
 -1.29332816E-02 -2.04516689E-02 -2.02034844E-02 -2.58626510E-02  7.15103060E-03
  5.94505237E-02 -2.95248437E-02 -3.58314095E-02  1.51334419E-02  6.81685910E-02
  3.31723128E-02  3.36171552E-02 -3.57800144E-02 -1.70221845E-01 -2.70991867E-02
 -2.40220503E-02  3.80669975E-02 -1.10196867E-02 -3.81929869E-03 -7.55807683E-03
 -3.11701565E-03  7.71754287E-03 -4.59292168E-02 -8.07340280E-03 -2.72163129E-02
 -6.47346681E-03  2.99875123E-02 -3.55045361E-03 -5.58935630E-03 -1.19275792E-02
  4.03930797E-03  2.99445819E-03  1.00404300E-02 -1.44922769E-02  5.72109628E-03
 -6.35321444E-03 -3.16575969E-02  1.32621458E-02  2.37886100E-02 -4.49850303E-02
  1.74744907E-01 -2.56881916E-02 -1.49940114E-02  2.21527078E-02  1.26164736E-03
 -5.13149949E-04  2.20458791E-04  5.14688062E-04 -1.43556067E-03 -1.65124539E-02
  8.92522136E-03  3.31449123E-03 -3.49158098E-03  9.80405420E-03  6.37423546E-03
  1.05783545E-02  8.63637469E-03  2.53200825E-02  2.94081206E-02 -3.53728677E-02
  1.23695113E-02  3.66788745E-02  4.26875575E-02 -8.83068017E-03  1.52216498E-02
  3.15584237E-02  2.55636076E-02  3.01377229E-02  2.58583880E-04 -1.23220770E-03
 -6.83120219E-03 -3.41014874E-04  4.23402872E-04  3.58922067E-04 -2.35340788E-04
  2.96260703E-04 -1.40642502E-03  1.70252575E-05 -1.11725689E-03 -6.19685378E-05
  4.81630412E-04  3.00967940E-03  5.04635718E-03 -1.24159862E-02 -1.71865864E-02
  2.83864255E-01 -1.73075596E-02 -1.74601737E-02 -2.44127591E-02  4.07873263E-01
 -8.98619042E-04  2.50973131E-03 -1.14495326E-02 -1.29631024E-02  1.70734204E-03
 -2.59985547E-02 -6.55142941E-03 -6.56894002E-03  3.28982796E-03 -1.22555870E-01
  2.76115560E-02  4.63609564E-02  3.70151136E-02  1.51939968E-01  1.67475145E-02
  7.24066401E-03 -3.44116965E-02 -3.14714972E-03  3.62169434E-03  4.81845376E-03
 -2.55490800E-03  6.44778443E-03 -4.80222846E-03  3.78437782E-03 -3.33711173E-04
  1.84665437E-04 -4.11658893E-03  1.22143645E-03  3.20993234E-03  1.13933743E-02
  1.23093123E-02 -3.30184518E-03 -1.18603114E-02  1.33557742E-02  1.52425870E-02
 -1.65581889E-03  8.47351713E-03 -1.53672946E-02 -2.77977319E-02 -2.60349266E-02
 -1.41514673E-01  2.23916388E-02  2.21310409E-02 -1.21052543E-02  4.88567954E-04
  9.83697900E-04  1.39057703E-03 -3.49501827E-04 -3.36663824E-04  3.20687046E-03
  6.79814484E-04  2.71014898E-03 -4.73413341E-04 -7.52044837E-04 -3.26957706E-03
 -4.21244560E-03  2.39553181E-03  4.66693693E-03  4.96700887E-03  9.06860556E-03
  3.73464890E-03  6.79917404E-03  6.44544121E-03  1.72300615E-02  1.34054894E-03
  1.32369880E-03 -7.29364405E-04 -5.18688538E-03 -3.45789524E-03 -3.31283432E-03
  2.15453118E-03 -2.56491274E-04 -4.36292442E-06 -1.77967104E-04  3.23970615E-05
  5.47935743E-06 -3.21345271E-04 -1.49776394E-04 -2.03743068E-04 -2.42944756E-05
  4.92948686E-04 -1.47307251E-01 -2.28936374E-01 -3.27687448E-02 -4.95357458E-02
 -2.89828338E-02  6.50616025E-01 -4.27354726E-02 -6.50186945E-02 -3.89319551E-02
  5.54630405E-01 -1.27530184E-02 -1.89003248E-02 -2.67090679E-02 -4.27533918E-02
 -1.63150298E-02  5.07674614E-02 -3.75196360E-02 -5.99585327E-02 -2.48414348E-02
 -1.66107994E-02 -2.65389272E-02  6.76589375E-03  2.39248301E-02  5.93704441E-02
  2.36057179E-02  1.02011621E-02 -6.82391220E-03 -8.11416261E-04  1.88630830E-03
  5.85118233E-03 -1.22116193E-02  9.28658835E-04  6.31197334E-03  4.42932618E-03
  1.04161691E-02 -2.24810928E-02 -9.22276176E-03  5.03294266E-03  8.77391042E-03
 -1.45826036E-02  3.01502256E-02 -1.79823510E-02 -2.46542492E-02 -2.67598670E-02
  4.10242039E-02 -2.01045538E-02 -7.61283781E-03 -4.94466963E-02  9.58768338E-03
 -2.24203009E-02 -6.37578501E-02 -5.65225008E-03  8.98155922E-03 -1.39480044E-02
 -2.12325106E-03  8.65588067E-04  2.11683303E-03  2.05901869E-04  1.41059173E-03
 -1.18939562E-03 -1.10465803E-03 -1.47592824E-03  1.60202130E-03  4.84744450E-04
 -1.37283941E-03 -2.01468565E-03 -1.63341852E-03  6.36167401E-03 -1.54425935E-03
  6.05985220E-03 -2.63014481E-03  9.12276766E-03 -2.82166560E-03  1.08747025E-03
 -1.68941449E-03  5.46492275E-03  7.14026448E-04 -2.37312535E-02  8.01591873E-04
  4.22542297E-03  7.26029563E-03 -4.43061783E-05  1.09993620E-04 -6.73584696E-05
 -1.48700992E-04 -2.82083096E-05  3.28721906E-04  1.56518307E-03  7.39733248E-04
 -8.59464135E-04 -1.55883403E-04  6.59284568E-04  3.03712524E-03  2.22000869E-01
 -3.94584195E-02 -1.66733157E-02 -1.87058690E-02  3.20307917E-01 -5.52556855E-02
 -2.31181146E-02 -2.45026781E-02  2.68963774E-01 -1.93265351E-02 -2.87863247E-02
 -4.21748357E-02 -5.26020963E-02 -1.85542144E-02  7.78232230E-02 -5.88516046E-02
 -7.43079636E-02 -2.66187264E-02  1.23899329E-03  7.84677187E-03 -6.24157776E-03
  2.52843731E-02  1.79142891E-02  4.18160139E-03  1.74345201E-02 -1.16375822E-03
 -2.80636089E-03  6.74349015E-03  6.22121295E-03  5.47306850E-03  7.81258200E-03
 -4.96143706E-03  1.16653095E-02  9.49291053E-03  1.34781838E-02  6.18988390E-03
  4.99487602E-03  8.63713212E-03  3.19560986E-02 -8.88178731E-03 -3.43001570E-03
 -2.53085772E-02  4.23942068E-02 -1.74885296E-02 -7.05431925E-04 -1.82097053E-02
  2.15710937E-02 -4.47926769E-02 -1.61632726E-02 -2.16047838E-02  6.21669125E-03
 -1.12985901E-02 -3.11114780E-03 -1.04931311E-03  2.15918669E-03  7.96307839E-04
 -1.53138333E-03  1.35310740E-03 -5.73914036E-03  1.40243254E-03 -1.41669551E-03
 -1.52270195E-03  3.00886163E-03 -4.76970058E-04 -2.43107561E-04  9.95238650E-03
  7.98171351E-03  9.91685895E-03 -1.10963629E-03  1.44899318E-02  1.10830598E-02
  1.38231828E-02  6.59021821E-04  1.04030397E-02  1.02517326E-02  1.08349611E-02
 -1.81041319E-02  1.75728192E-03  3.95517586E-03  6.49012507E-03 -2.27087969E-04
  1.57867690E-04  1.94717259E-04  5.48883072E-05  6.04622045E-05 -6.19537151E-04
  8.20303290E-04  1.59885765E-03  4.41676454E-05 -2.09884885E-04  1.22046157E-03
  4.59953883E-03 -3.85295478E-02  1.95403623E-01 -2.43882767E-02 -2.65674833E-02
 -5.41346955E-02  2.82901470E-01 -3.42033444E-02 -3.97975175E-02 -5.73534187E-02
  2.28602774E-01 -1.14125210E-02 -1.73054542E-02 -1.47384879E-02 -1.66833301E-02
  6.47227370E-03  4.78486178E-02 -2.18249288E-02 -2.30389131E-02  1.31187192E-02
  5.70713455E-02  2.68620734E-02  2.87715643E-02 -3.33065234E-02 -1.43034224E-01
 -2.32040419E-02 -2.06082638E-02  3.17726619E-02 -8.93107898E-03 -3.49317767E-03
 -6.69605524E-03 -2.59932473E-03  6.17626429E-03 -3.77743861E-02 -7.17801554E-03
 -2.32459817E-02 -5.50435228E-03  2.46302627E-02 -2.66502645E-03 -4.83769398E-03
 -1.30613490E-02  2.40892167E-03  3.23559096E-03  1.07634871E-02 -1.63683168E-02
  3.72650172E-03 -4.47979649E-03 -2.49716998E-02  1.02227888E-02  2.25791255E-02
 -3.60001004E-02  1.47171250E-01 -2.14668923E-02 -1.20405135E-02  1.90657758E-02
  1.40539795E-03 -6.91378163E-04  1.42638787E-04  6.31875042E-04 -1.45670141E-03
 -1.25092741E-02  7.14415373E-03  3.21613180E-03 -2.57826626E-03  7.36369014E-03
  3.13910728E-03  5.85106965E-03  8.23586890E-03  2.15248342E-02  2.45315890E-02
 -2.26128526E-02  1.17968973E-02  3.11738609E-02  3.55827344E-02 -1.72375484E-03
  1.41652364E-02  2.68013041E-02  2.11315542E-02  2.73985762E-02  5.36060167E-04
 -1.49000898E-03 -6.30426297E-03 -2.57332646E-04  3.34850087E-04  2.77845860E-04
 -1.90562452E-04  2.42250627E-04 -1.00684723E-03 -1.75982394E-04 -1.12628383E-03
 -1.54233882E-06  4.54415427E-04  1.19225705E-03  2.70869601E-03 -1.41439162E-02
 -2.13859172E-02  2.37561231E-01 -1.18893347E-02 -2.00654693E-02 -3.05796958E-02
  3.41285424E-01 -2.91777307E-02 -2.33655956E-02 -3.64513388E-02  2.86307855E-01
  7.91467747E-03  9.39125069E-03 -6.08568431E-03 -9.65451747E-03 -6.62409774E-03
 -1.62160424E-02 -7.13062868E-03 -1.20118308E-02 -9.66712333E-03  3.54889463E-03
  1.53424015E-02  2.10841908E-02  7.83202709E-03 -4.71090658E-02 -7.37158831E-03
 -5.37186093E-03  9.19677397E-03 -2.11315940E-03 -9.52949122E-05 -1.13986797E-03
  4.46502006E-05  1.04266079E-03 -3.75707329E-03 -2.65028578E-03 -4.74553725E-03
  8.38550964E-04  2.57338774E-03  1.73919556E-03  2.77107812E-03  4.78216687E-03
  1.12181595E-02  1.50983634E-02 -9.00275457E-03  6.94394543E-03  1.56807729E-02
  2.02662212E-02 -1.71399969E-02  4.70779771E-03 -3.41403086E-03 -2.45121931E-02
  4.77737266E-02 -8.24775304E-03 -8.00569002E-03  4.85698711E-03 -3.11635944E-03
  2.63809323E-03  1.73694089E-03 -1.01365013E-03  1.66539126E-03 -4.10689391E-03
  6.01771297E-03  5.29133479E-03 -2.24704564E-03  2.00209967E-03  2.90092146E-03
  4.02723885E-03 -2.09210991E-02 -1.77576948E-02  1.92645868E-02 -9.14851663E-03
 -3.00927507E-02 -2.53900707E-02  2.81253411E-02 -5.26732353E-03 -2.58570460E-02
 -2.29149309E-02  2.11737109E-02 -4.46631393E-03 -3.16954952E-03 -2.51474656E-03
  3.39697458E-03 -4.76283153E-04  3.18038421E-04  7.38856021E-05 -6.84597776E-05
  3.31755622E-05 -1.91192997E-03  1.72325823E-03  9.19716881E-04 -4.93623530E-04
  3.38538184E-04 -7.42984379E-03 -1.11878962E-02  7.06443301E-05  3.17893574E-03
  8.41477896E-03  2.98557995E-02  2.23252511E-04  4.73607058E-03  1.21559225E-02
  2.71779357E-02  1.88150119E-03  5.61533664E-03  9.19327243E-03  2.04068071E-02
  2.42655173E-03  2.58326484E-03 -1.53636832E-02  3.16863259E-03 -4.79088812E-03
 -3.19176276E-03 -2.25302097E-02  5.81728556E-03 -7.32554846E-03 -3.04092202E-03
 -1.39920672E-02  1.45463149E-02  7.00459180E-04 -4.54287726E-04 -2.04189046E-04
  1.37128053E-03  7.73930743E-05 -2.35560685E-04  4.39039180E-04  1.35083150E-04
 -2.06006569E-03 -2.09959078E-05  3.88856657E-04  5.03271505E-04 -3.02079922E-04
 -3.90836801E-03 -6.07890247E-04  2.95126554E-03  4.18512793E-03 -8.98466874E-03
  1.36072474E-02 -2.82100338E-03 -1.02221601E-02 -1.44513682E-02  1.98017566E-02
 -3.89545026E-03 -5.22266988E-03 -1.56557583E-02  1.03690510E-02 -9.94657225E-03
  8.59282245E-06 -1.95501461E-03  2.26029185E-04 -9.57848713E-04 -1.20760576E-03
  1.89152186E-04  1.16677921E-03  7.76226049E-04  2.70064306E-04 -1.79029952E-03
 -1.15507415E-04  2.01664062E-03  1.88107496E-03  5.08602594E-04  1.18817643E-03
  1.58316712E-03 -3.59912933E-03 -1.40151925E-03  2.16713661E-03 -3.31865954E-03
 -5.25186183E-03 -1.95163592E-03  3.12910225E-03 -2.83639827E-03 -3.68817472E-03
 -2.71641648E-03  2.87147286E-03 -3.31993104E-03  2.00864666E-03 -1.70637333E-03
  1.87475364E-03 -2.60725770E-05  1.57228472E-04 -8.07600756E-05 -3.31830301E-05
  3.31562684E-05  6.29388427E-05  1.11309565E-03 -3.52772899E-04 -1.82838222E-04
  2.38310704E-04 -9.82251654E-04 -1.21084993E-03  2.55257488E-02 -7.50522424E-03
 -1.06575808E-04  2.01552440E-03  3.67682196E-02 -1.06245773E-02 -8.03518391E-05
  1.34580587E-03  3.20989732E-02 -1.03428923E-02 -4.23091196E-04  3.57921874E-03
  6.90506265E-03  2.66265575E-03  2.51417812E-03  3.30183002E-03 -1.53798061E-02
  5.88934024E-04 -1.53779963E-03  6.08456115E-03 -2.20863345E-02  1.05936939E-03
 -6.43175285E-04  1.49153851E-02 -5.27657465E-03  8.31284074E-03 -8.70788590E-03
 -1.97926766E-04 -7.12372689E-04  2.33688452E-03 -8.66399854E-04  5.87134669E-04
  6.53834404E-04  1.30281133E-03  8.54119265E-04 -1.77261778E-03  2.61240278E-04
  4.58619227E-04  2.99489672E-03  1.41160090E-03  2.58390623E-03  3.70851082E-03
  1.29307690E-02 -4.10789696E-03  5.08611520E-03 -9.44417177E-03  1.88968675E-02
 -7.13624412E-03  7.56192224E-03 -7.00005254E-03  1.33810615E-02 -1.32140775E-02
 -4.42918094E-03  8.47326759E-03 -7.34017608E-04 -3.03490922E-03  7.57287785E-04
 -7.18489160E-04  1.32190185E-03 -8.58530746E-05 -1.17112584E-03  4.88513907E-04
 -1.34815410E-03  2.39757535E-03 -2.40336073E-04 -2.47543423E-03  1.12169391E-03
  1.07944347E-03  1.47291908E-03 -3.54700223E-03 -3.88747730E-03  5.64126456E-03
 -3.25167381E-03 -5.04448061E-03 -5.62162150E-03  8.18856022E-03 -1.90711182E-03
 -5.17875221E-03 -4.44914285E-03  6.01843963E-03 -2.85585399E-03 -2.39584481E-03
  1.46431168E-03  7.67773667E-04 -1.88593177E-04  1.22319185E-05  1.06539414E-04
 -4.38081272E-06 -1.11323217E-05 -8.88859741E-04 -3.31472197E-05  8.47753400E-04
 -9.73299300E-05 -1.40363277E-04 -1.62201797E-03 -1.99180320E-03 -8.25712517E-03
  2.14979944E-02 -1.41905937E-03  3.33111837E-03 -1.17256493E-02  3.10660544E-02
 -1.95095032E-03  1.78149750E-03 -1.12037672E-02  2.63252308E-02 -2.89609095E-03
  5.54771303E-03 -2.65578601E-03  6.08795963E-03 -5.92374250E-04 -1.50362239E-03
 -4.42743020E-03  1.02090952E-03 -2.42265962E-03  6.13110431E-03 -6.59660602E-03
  1.92540041E-03 -3.12931240E-03  8.08312739E-03  1.70518048E-03  9.50565048E-03
 -5.65386565E-03 -2.22378989E-02 -4.19438591E-03 -2.73360904E-03  4.77713948E-03
 -1.13490314E-03 -6.40336075E-04 -1.28616634E-03 -4.18587267E-04  8.36379314E-04
 -4.53753814E-03 -1.50292153E-03 -4.00476350E-03 -7.83799955E-04  3.00254359E-03
 -2.50226747E-03 -3.42765881E-03 -4.66205185E-03  2.90072099E-03  1.64794264E-03
  7.31993120E-03 -6.35779134E-03  4.63892576E-03  8.45244656E-04 -2.18176564E-03
 -1.74083329E-03  5.31000194E-03 -7.37944694E-03  2.30410690E-02 -3.57155445E-03
 -2.34530132E-03  2.71552615E-03 -2.75711836E-04 -4.12936063E-05  3.44441319E-04
  2.42360132E-04  1.77927224E-04 -2.17539774E-03  1.27101540E-03  1.48359745E-03
  5.72928191E-05  1.11403441E-03 -9.00931772E-04 -1.10606305E-03 -3.67663848E-03
 -1.29512571E-03  6.61052646E-03  1.87128636E-03 -5.29509511E-03 -1.81072009E-03
  9.54676189E-03  3.97413052E-03 -3.83500882E-03 -1.94186660E-03  6.59764330E-03
  2.95302723E-03 -3.60765187E-06 -1.46165282E-03  5.70592314E-05 -8.40217428E-05
  1.18614055E-04  2.08528309E-05 -3.50313922E-05  4.23744977E-05 -2.50380390E-04
  4.65769034E-04 -1.09016708E-04 -9.12953816E-05  1.66253077E-04 -1.24196342E-03
 -1.50985486E-03 -2.15106270E-03 -3.84522060E-03  2.82998649E-02  2.55487300E-03
 -3.07436272E-03 -5.50388834E-03  4.06470388E-02  4.99801295E-04 -2.76367869E-03
 -5.67377827E-03  3.41667611E-02  3.53720328E-03  9.66324237E-04 -5.50279571E-04
  4.82001452E-03  1.63936077E-04  3.27042598E-04  3.45812654E-04  4.58638340E-04
  5.30479265E-04 -1.14068810E-03  4.99194172E-04  6.43862718E-04  7.38457695E-04
  8.48603830E-05  1.67668766E-04 -5.24687442E-05 -3.66362184E-04 -1.04039226E-03
 -2.28096272E-04 -2.61503011E-04  1.46659527E-04  3.98860266E-05 -6.36868253E-05
 -7.76290620E-05  2.81351848E-05 -7.69937532E-05  8.35476625E-06 -1.59576970E-04
 -1.80780977E-04  3.71838591E-05  9.81836126E-06 -9.22680241E-05 -7.95931283E-05
  5.35107696E-05  5.33171939E-05  3.41224060E-05 -1.52331084E-05  1.26030027E-04
  1.10048418E-04 -2.50144744E-06 -1.60984302E-04  3.04832968E-04  4.04060745E-04
  1.65392587E-04  1.07480078E-03 -1.16241028E-04 -4.13242106E-05  1.78790932E-04
  2.09323290E-05  5.11630697E-06  6.68783824E-06 -3.08459711E-06 -2.17991883E-05
  6.56173237E-05  2.35308548E-05  4.16796061E-05 -1.73581755E-05 -3.84210881E-05
  6.73818386E-06 -8.21008677E-06 -1.63299340E-04 -3.61311006E-04 -2.34193637E-04
  7.93579880E-05 -2.34249065E-04 -5.18392499E-04 -3.35705429E-04  5.45183757E-05
 -1.78976099E-04 -4.10628498E-04 -2.76501560E-04  3.33519107E-04 -3.38141566E-05
 -7.47932596E-05 -1.37115437E-04  5.69554149E-06 -6.78335377E-07  4.85722328E-06
 -9.03308186E-07 -6.41281537E-07  1.54501179E-05 -1.14744622E-05  1.17585404E-05
 -1.79907270E-06  1.55465896E-06 -1.63017919E-06  6.69977612E-05 -9.13058335E-04
 -1.23855861E-03  5.12005000E-04 -3.95021203E-04 -1.33156620E-03 -1.80846461E-03
  7.22868132E-04 -1.13975746E-04 -1.02722630E-03 -1.38868237E-03  6.75403991E-04
 -3.01726031E-07 -9.35602872E-05 -1.05940579E-04  8.53822899E-05  1.88677000E-05
 -9.34014804E-05 -2.23554327E-04 -2.24912005E-04 -7.09543986E-04  1.04253016E-04
  8.86500520E-04 -2.89288223E-04 -1.00294637E-03  1.72515229E-04  2.08381985E-04
  3.47094334E-04  2.71000301E-05  8.41097009E-05 -5.48705158E-04  2.71631019E-06
 -7.05370739E-05  1.45602370E-04 -5.61613380E-05  7.26480042E-06  1.79324220E-05
 -4.12493280E-05  7.27573480E-05 -2.05402737E-04 -6.12000258E-06 -7.19863956E-05
 -5.52669108E-05  1.19033419E-04  6.72554644E-05  1.00483007E-04  1.71735431E-04
  3.01253433E-05 -6.46512184E-05 -2.81239586E-04  2.32184023E-04  2.72375623E-06
 -9.23379857E-05 -3.50723630E-04  1.43697244E-04 -1.05516194E-04 -3.36426037E-04
  5.48804561E-04 -1.36307787E-04 -6.80579167E-05  5.13423655E-05 -2.52891776E-06
  2.01377366E-05  5.81032244E-06 -2.04399709E-05  2.01157199E-06 -9.49231761E-05
  6.04501496E-05 -2.04387686E-05 -5.63734477E-05  6.09144244E-05  4.64613032E-05
  7.32385111E-05  4.26303559E-05 -6.75675726E-05 -5.56254149E-07 -2.29218522E-04
  6.22422929E-05 -9.83057560E-05 -7.29115318E-06 -1.26894478E-04  5.52369849E-05
 -7.31874862E-05 -2.35946847E-05 -3.58972740E-08 -3.80600654E-05  2.57011436E-05
 -1.39712809E-05  5.13949134E-07  1.27086284E-06  7.59566365E-06 -2.29082421E-06
  6.75358218E-07 -1.44044061E-06 -7.32278242E-07  3.36283752E-05 -8.14250507E-06
 -4.63662872E-06 -9.09767580E-06 -6.30026128E-05  7.38293992E-04  3.53724027E-04
  1.26799654E-03  3.16023204E-04  1.07744072E-03  5.28705332E-04  1.83152660E-03
  5.30165519E-05  8.22070117E-04  3.21425109E-04  1.48127644E-03  1.25368991E-04
  6.56240230E-05  7.44987651E-05  1.63201321E-04 -4.59892215E-06  1.55667153E-05
 -1.16325409E-04 -3.03206559E-04 -6.32253033E-04 -7.38883426E-04  1.58428463E-04
  1.25494798E-03 -8.81437744E-04 -1.02639801E-03  2.50622811E-04  3.52805485E-04
  2.87809864E-04  2.63334525E-04 -8.35142909E-06 -9.78285349E-04 -1.28214416E-04
 -6.57567454E-05  2.11869998E-04 -7.04288154E-05  9.53120815E-06  1.68887979E-05
 -1.88469806E-05  1.06836672E-04 -2.84259248E-04 -3.05322791E-05 -1.34613652E-04
  7.52292276E-06  1.84388916E-04  5.17510032E-05  1.11377032E-04  2.10563099E-04
  1.14790723E-04 -1.04664193E-04 -4.36201474E-04  2.76010922E-04  1.23111663E-04
 -1.60738902E-04 -5.47286381E-04  2.07881841E-04 -5.36249480E-05 -5.04774405E-04
  9.84881369E-04 -1.54800213E-04 -1.61068547E-04  1.21446124E-04 -8.97531366E-06
  2.29387663E-05  1.91878442E-05 -8.86992260E-06  8.22247651E-07 -1.38302993E-04
  5.82534553E-05  2.31371792E-06 -2.53814814E-05  7.82476209E-05  8.58307953E-05
  1.18800886E-04 -1.94566353E-04 -1.27173704E-04 -1.29975565E-04 -3.15002931E-04
 -2.77902315E-04 -1.84833837E-04 -1.97767927E-04 -1.91434799E-04 -2.23868871E-04
 -1.38727959E-04 -1.75340316E-04  3.98132156E-05 -3.43575397E-05 -1.81150404E-05
 -3.12779188E-05  4.95322847E-06  6.13966558E-06  1.08049429E-05 -3.19060489E-06
  2.18811884E-06  1.87094457E-05  2.75769738E-05  3.96087058E-05 -1.12756736E-05
  2.45780637E-06  8.76708535E-06 -5.85593604E-05  2.58020413E-04  9.95882835E-04
  1.73356430E-03  3.71744494E-04  3.91569891E-04  1.45973895E-03  2.50292982E-03
  3.14367265E-05  2.11714181E-04  1.06459686E-03  2.02275235E-03  1.95011053E-04
  3.34969223E-05  1.46365926E-04  2.39525030E-04 -5.68871423E-06  1.87033814E-05
  2.79590557E-05  8.53352486E-05  2.00276900E-04  9.83303459E-04 -1.57079380E-04
  2.74965482E-04 -7.80605568E-04  1.45158135E-03 -2.81281402E-04  3.95379489E-04
 -1.15308816E-04  5.61377227E-04 -6.40325832E-04  1.02054750E-04  9.38771152E-05
  1.26886587E-04 -1.58489087E-04  1.69719915E-06  1.68157746E-05 -5.80842011E-05
 -6.80768015E-06 -2.76520805E-05 -7.73875533E-05  6.96985011E-05 -9.64436980E-05
  3.90057934E-05 -7.39440109E-05 -9.57276782E-05 -3.42044998E-05 -5.49104073E-05
  2.78858504E-04 -3.21370005E-04  1.52499367E-04  1.60229102E-04  4.61934410E-04
 -4.71353951E-04  2.21637795E-04  1.60135652E-04  3.80104320E-04 -1.95024079E-04
  3.48234208E-04 -8.77838671E-05 -2.54982142E-05  9.24886041E-05 -1.44921054E-05
  2.23088210E-05  9.32247189E-06 -3.18383344E-05 -4.20638683E-05 -6.12136015E-06
  1.01070191E-04  3.52330216E-05 -6.02213285E-05 -1.03260796E-04 -3.44437248E-05
 -3.36928218E-05 -4.85052897E-05 -6.87927240E-05  7.86040250E-05 -3.74192719E-05
  1.32657419E-04 -9.93187850E-05  1.13950710E-04 -4.91288248E-05  8.70251878E-05
 -1.11149005E-04  1.20028610E-04 -4.91195831E-05  7.35271060E-05 -1.42684946E-04
  1.16448713E-04 -6.94753536E-05 -3.02833636E-06 -6.87511458E-06  1.84530385E-07
  2.88824422E-07 -2.46425386E-06 -1.89522315E-05 -4.13061995E-05  7.88337352E-06
  1.19446473E-06 -9.85546195E-06 -9.20341247E-06  3.25303422E-05  7.55698224E-04
 -1.61371627E-03 -1.66962810E-04 -2.28415064E-04  1.07685310E-03 -2.34026870E-03
 -2.46462954E-04 -3.33417281E-05  9.63787536E-04 -1.86560137E-03 -1.61852284E-04
 -7.38745960E-05  6.55125120E-06 -1.19418141E-04 -5.26818660E-05  9.19359200E-06
 -1.46093106E-06 -1.18493210E-05  2.48818316E-05 -2.87694038E-04 -6.39116103E-04
 -5.93249986E-04 -1.23634061E-03 -5.47500265E-04  2.39944996E-03 -8.34373815E-04
 -1.76068700E-03 -7.39826028E-04  1.06156900E-04  1.15121912E-04  4.83071498E-05
  5.76291310E-04  9.91636806E-04  3.22982567E-04  2.74343571E-04 -8.03865089E-05
 -8.34635750E-05  7.76815084E-05  1.15149833E-04 -7.40143955E-05  1.54739155E-04
 -1.12639396E-04  1.63898012E-04  1.65199868E-04 -9.07894804E-05  4.11349626E-05
  8.30438917E-05  1.09872409E-04  9.53539485E-05 -4.71725248E-05 -6.82808903E-05
 -2.12809720E-04  6.95649481E-05 -1.39090214E-04 -2.57890910E-05 -3.12831093E-05
 -2.72340975E-04 -6.41624804E-04 -4.74779312E-04 -1.03414966E-03  4.93750388E-05
  2.12916895E-05 -2.11090479E-04 -3.46149122E-05  6.62050977E-06 -1.53219767E-05
 -1.47562268E-05  3.21902038E-05 -1.20794399E-04 -1.40088070E-05 -1.04617461E-04
 -1.93717328E-05  7.87283787E-05  6.24147608E-05  8.92353185E-05  7.95077285E-05
  1.51866875E-04  2.05087346E-04 -2.28667370E-04  1.14719788E-04  2.15367368E-04
  2.85441648E-04 -1.87338904E-04  6.69464871E-05  1.63282207E-04  2.55982425E-04
 -4.69525583E-04 -2.23144428E-05  9.65948391E-05  1.64261864E-04 -4.44880037E-06
  2.46477802E-06  3.51149754E-06 -1.51674901E-06  9.13643656E-07 -1.43351092E-05
  1.98290922E-05  3.28561823E-05 -9.51219703E-06 -6.94175734E-06  5.23146870E-05
 -6.98585845E-05  1.98920153E-03  1.82851334E-03  2.45514216E-04  6.46291982E-04
  2.89856463E-03  2.68226083E-03  3.77261134E-04  1.12500949E-04  2.25184094E-03
  1.98588280E-03  1.78991886E-04  1.08339401E-04  1.92633482E-04  1.96397117E-04
  4.63923089E-06 -2.85000788E-05  1.91086875E-05  2.25152971E-05 -1.14510974E-05
  5.44602877E-05  1.39866619E-03  1.88592008E-03  1.57519090E-03  1.57868079E-03
  2.25427682E-03 -4.30283172E-03  2.27722268E-03  2.18711801E-03  3.17642432E-03
  1.07569803E-03  1.00712792E-03 -4.38907628E-04 -1.97736914E-03 -5.98888700E-03
 -1.13175346E-03 -1.27919882E-03  9.87556387E-04  5.66124259E-05 -2.85307092E-04
 -3.61180872E-04  8.48056994E-05 -2.64143668E-04 -4.53569180E-04 -6.34611347E-04
 -8.56294910E-04  5.32865339E-05  3.51699316E-04  4.87252113E-04  3.79831691E-04
  1.70366330E-04 -1.08122328E-04  6.33676820E-05 -3.66990737E-05  4.69714280E-04
 -4.83891321E-05 -1.96150867E-04 -1.06480837E-03  1.60250989E-03  1.83418407E-03
  5.88868674E-04  6.12833475E-03 -7.42716855E-04 -3.40503517E-04  9.81020531E-04
  1.55675007E-04  1.46584676E-05  3.09377709E-05 -1.38430058E-05 -1.29064101E-04
  1.35993126E-04  2.35760176E-04  2.18769339E-04 -1.39337081E-04 -8.07358521E-05
 -1.65243111E-04 -1.86491744E-04  2.73545965E-05 -4.26378625E-04 -6.44547758E-04
  2.10230579E-04  3.96662357E-05 -6.07414686E-04 -9.15521540E-04  3.92867611E-04
  1.64460715E-04 -3.78074734E-04 -8.94189977E-04  1.80522969E-03 -7.59664998E-05
 -1.65807088E-04 -6.88035719E-04  1.82781197E-05 -6.57996447E-06  1.61444455E-05
 -3.37077764E-06 -5.85474688E-07  4.36189658E-05 -9.88913922E-05 -6.45126204E-06
  8.56480068E-06  4.58972991E-06  1.04285635E-03  1.45060306E-03 -3.64335579E-03
 -5.27654632E-03  4.86915070E-03 -3.33530792E-03 -5.32439674E-03 -7.71677845E-03
  6.93669646E-03 -2.25316091E-03 -4.23885980E-03 -6.12453647E-03  6.10662528E-03
 -1.53211341E-04 -4.43916740E-04 -4.95956159E-04  6.90722732E-04  8.32785749E-05
 -1.99612554E-06 -3.35808149E-06  4.06073566E-05 -1.14061033E-04  4.20328899E-04
 -1.27239969E-03 -1.66160874E-03 -1.34381763E-04 -3.16140811E-03  1.30636204E-03
  3.64702028E-03 -2.13196477E-05 -4.54372822E-03  1.96610193E-03  4.86939678E-04
  1.93941741E-03 -5.01761714E-04  4.38296585E-04 -1.45207963E-03  2.41448924E-04
 -4.02559637E-04  5.01247348E-04 -2.59137749E-04 -2.08472384E-05  9.62560997E-05
 -2.60064095E-04  2.85935344E-04 -9.84467582E-04 -1.05823824E-04 -3.02218333E-04
 -3.97591712E-04  4.82728719E-04  2.52746580E-04  4.31068631E-04  1.12707019E-03
  1.73346933E-05 -1.56664987E-04 -1.38591053E-03  1.58349660E-03 -2.00087726E-04
 -2.29465189E-04 -1.31652367E-03  8.18264948E-04 -6.21407788E-04 -1.06952307E-03
  1.50790296E-03 -4.48672142E-04  1.60491160E-05  1.81406349E-04  8.13172453E-05
  4.30296878E-05 -3.33480586E-05 -9.16948136E-05 -5.07163010E-05 -1.25864826E-04
  1.12042501E-04 -2.72605107E-04 -2.46986972E-04  1.31492632E-04  8.84646628E-05
  1.79692635E-04  7.89704479E-04  4.79160521E-04 -6.72862030E-04 -7.76535439E-04
  1.13749350E-03  6.79498212E-04 -1.00667860E-03 -4.32822839E-04  9.94468957E-04
  6.97972115E-04 -8.85591198E-04  2.65258869E-04 -2.18009033E-04  2.79525535E-04
 -2.72579505E-04  1.63523803E-05 -7.67016166E-06  3.51146513E-05 -9.50957500E-06
  5.80356109E-07  4.95810019E-05 -1.05187039E-04  1.18566074E-04 -2.06659276E-05
 -2.41217333E-05 -8.03368466E-04 -1.15262541E-03  3.95398896E-03 -6.53467672E-04
  6.92477027E-03  2.81751468E-03  5.76661924E-03 -8.43935699E-04  9.99344901E-03
  1.55905276E-03  4.51594925E-03 -1.19116620E-03  8.25355682E-03  2.01204795E-04
  2.64052883E-04  3.13085101E-05  8.29233215E-04 -4.31851023E-06  7.54352429E-05
  8.13055867E-05  2.05913677E-05  7.07353188E-05  7.84754103E-05  4.37006262E-04
 -1.87314421E-03 -2.41382487E-03 -2.56052330E-03 -2.67499879E-03  1.35309033E-03
  5.20061492E-03 -3.54346141E-03 -3.66995541E-03  2.01978291E-03  1.01848173E-03
  1.26191812E-03  1.05840957E-03 -4.58073017E-04 -3.87583416E-03 -5.57344994E-04
 -3.33943231E-04  8.06489701E-04 -3.41305229E-04  5.44388124E-05  6.86569722E-05
 -8.65112881E-05  5.03309591E-04 -1.54347145E-03 -3.88979449E-05 -6.43635911E-04
  5.39143490E-06  9.65979727E-04  5.47904866E-04  7.38435726E-04  8.44508160E-04
  4.79028477E-04 -5.91505755E-04 -1.83165567E-03  1.06752739E-03  4.66715320E-04
 -9.28434783E-04 -2.37356085E-03  9.48546449E-04  8.02232504E-06 -1.93020290E-03
  3.98464597E-03 -5.64369468E-04 -4.99483691E-04  6.66725355E-04  1.06772614E-04
  3.55147456E-05  8.49994868E-05 -2.37516611E-05 -8.94171341E-05 -4.03314488E-04
  1.62782882E-04  1.74955842E-05 -9.62138706E-05  2.12778074E-04 -3.25983810E-05
  7.57188433E-05  5.71800916E-04  8.47298308E-04 -1.02253867E-03 -8.49233508E-04
  8.29390265E-04  1.20389153E-03 -1.53001241E-03 -2.37045799E-04  8.22430155E-04
  1.14457069E-03 -1.41912299E-03  7.65179307E-04  2.92535331E-05  2.06825238E-05
 -3.78618694E-04  3.48410458E-05  1.30668904E-05  4.00373339E-05 -1.04596103E-05
  9.40682349E-06  1.52063526E-04 -1.54721308E-06  7.95395922E-05 -1.48090782E-05
  1.73471096E-05 -1.25053042E-03 -1.79413183E-03 -3.79791116E-04  3.47160743E-03
  9.49921678E-03  4.39291573E-03 -4.40660554E-04  5.13311119E-03  1.37064723E-02
  2.48463077E-03 -8.76418216E-04  3.66609465E-03  1.13055751E-02  4.50690713E-04
 -1.10459220E-04  4.32840845E-04  1.26368223E-03 -8.75804909E-06  8.43368912E-05
  1.27717452E-04 -5.06589518E-05  7.52156875E-05  8.10703744E-05  4.19602011E-04
  6.68089485E-04  1.09449080E-03  1.42690556E-03  5.78150026E-03 -2.25116590E-03
  1.48487512E-03 -3.12006011E-03  8.56124587E-03 -3.59327717E-03  2.18501515E-03
 -1.30972697E-04  3.75259830E-03 -3.92917835E-03  9.50217876E-04  8.88946906E-05
  9.32499399E-04 -1.02098630E-03  2.36620967E-04  1.77453929E-05 -3.74049139E-04
 -3.16545743E-06 -3.25218046E-04 -4.01236827E-04  2.55630301E-04 -6.43697541E-04
  2.15148190E-04 -7.20513259E-04 -5.29760098E-04 -1.00615925E-04 -1.83736521E-04
  1.79199561E-03 -1.87582473E-03  8.95876191E-04  6.05475839E-04  2.93752375E-03
 -2.79584613E-03  1.31760345E-03  6.61993040E-04  2.15894469E-03 -1.35439348E-03
  1.57574155E-03 -9.42587255E-05 -3.92232411E-04  5.12797204E-04 -1.64984739E-04
  6.83333559E-05  5.99246558E-05 -1.90758981E-04 -2.94647581E-04 -1.41797461E-05
  4.23857761E-04  2.34269757E-04 -4.32741082E-04 -7.19596497E-04 -1.10716878E-04
  4.01034644E-06 -3.52632142E-05 -8.30133075E-04  1.84883452E-04 -4.87148489E-05
  2.98198097E-04 -1.19791360E-03  2.73458637E-04 -4.46440712E-05  1.01991245E-04
 -1.18876661E-03  3.66610310E-04 -5.55831737E-05  1.57747896E-04 -9.99747996E-04
  7.82178726E-04 -3.41712009E-04 -2.30132511E-05 -3.66569897E-05  1.11410111E-05
 -3.22410726E-06 -1.42359656E-05 -1.43845967E-04 -2.14869042E-04  1.08242453E-04
 -1.77336373E-05 -6.96314902E-05  7.79673104E-04  1.10518709E-03  7.87178700E-03
 -1.00376416E-02  3.83102406E-04 -2.64414549E-03  1.12754078E-02 -1.45369298E-02
  5.21155503E-04 -1.61589685E-03  9.71519052E-03 -1.18734184E-02  5.91179834E-04
 -2.48200681E-04  4.50360304E-04 -7.50736992E-04 -1.40120791E-04  4.22757086E-05
  1.77776464E-05 -4.92727629E-05  1.64262179E-04 -2.59747365E-05  2.13932038E-04
  2.56173365E-04 -2.38702447E-04  1.15978334E-03 -3.21674119E-03 -4.22128697E-03
 -1.94524388E-03 -5.48479309E-03 -2.33680656E-03  9.30030614E-03 -2.54680570E-03
 -7.68585180E-03 -3.19133218E-03 -7.64091394E-04  1.10930546E-03  2.42050662E-04
  2.61691869E-03  4.92728614E-03  1.57467518E-03  1.07765318E-03 -6.40082744E-04
 -3.04890375E-04  3.13419568E-04  5.53905570E-04 -3.77015553E-04  6.22955199E-04
 -3.22834346E-04  6.68709108E-04  7.95201636E-04 -4.73602855E-04 -5.11313691E-05
 -2.26893483E-04 -1.07485679E-04  5.39201694E-04 -4.67635631E-04 -4.53140732E-04
 -3.18531190E-04  4.69454196E-04 -1.00881107E-03 -2.40601824E-04 -1.30145357E-04
 -9.57668613E-04 -2.81458852E-03 -2.00920061E-03 -5.06220811E-03  1.70231334E-04
  1.63777847E-04 -8.79759281E-04 -1.23486000E-04  9.39068895E-05  1.67259855E-05
 -1.17138294E-04  1.59714800E-04 -4.87011359E-04  1.78141687E-04 -2.27125930E-04
 -2.21046534E-04  3.23567330E-04 -6.78651038E-05 -3.71659568E-05  6.57843100E-05
  4.88187255E-04  9.14625989E-04 -1.29274266E-04  9.97030675E-05  6.90247559E-04
  1.26330564E-03  4.88139021E-05 -9.30268514E-05  4.28081908E-04  1.01465003E-03
 -1.97076354E-03 -2.50957405E-04  4.26459116E-04  7.08565805E-04 -2.62011360E-05
  7.03729170E-06  1.13608549E-05 -5.87890101E-06  1.21826963E-06 -6.78476091E-05
  7.73220906E-05  1.67501840E-04 -4.86956822E-05 -3.25320603E-05 -2.47360174E-03
 -3.47095192E-03  9.44854168E-03  6.05194888E-03 -5.34374272E-04  8.14322485E-03
  1.37760853E-02  8.96475611E-03 -6.41059324E-04  5.33667741E-03  1.10205766E-02
  6.66561673E-03 -1.07186522E-03  7.79014276E-04  9.64535825E-04  7.52863862E-04
 -1.33721345E-04 -1.20673534E-04  7.54398461E-05  7.69672996E-05 -2.65578410E-05
  2.26117230E-04 -5.14698254E-04  2.86019433E-04  2.35708096E-04  2.16542675E-05
  1.04362429E-03 -8.81181557E-04 -1.36907381E-03  1.29145165E-03  7.37928806E-04
 -2.16474282E-03  3.77260338E-03  1.09289279E-03  5.03887776E-04 -2.16025531E-03
 -5.17744775E-03  2.45368881E-03  8.14010281E-03  1.42389095E-02  5.08919064E-02
  6.59205464E-03  4.54229754E-03 -8.93705708E-03  4.19812375E-05 -1.43954517E-04
 -1.24069900E-04  3.56840550E-05  5.43580514E-05 -1.34841604E-03  1.24726280E-04
 -7.87015862E-04  1.33226067E-04 -4.63929229E-05  1.45155584E-03  1.65966824E-03
 -1.35396061E-03  9.71163048E-04  7.02147691E-03 -2.29981447E-03 -5.36379010E-04
  1.06689015E-03  4.63960619E-03  3.79554622E-02 -1.43750464E-03 -9.67956532E-03
 -2.17160154E-02 -5.42932019E-02  9.27186281E-03  9.50244051E-03 -4.09001213E-03
 -2.58072458E-03  4.43305609E-04 -1.15829339E-03  1.16319175E-04  1.61270612E-04
 -3.91945742E-04 -2.23594263E-04  9.69419028E-04 -7.92890582E-04  3.77354944E-03
 -1.17648152E-05 -4.79746093E-05 -6.74050167E-04 -4.34427081E-04  9.95727129E-04
  5.05276247E-04 -9.06848152E-04 -6.74338932E-04  1.09479717E-03 -1.41381444E-03
 -1.03528858E-03 -5.30347015E-04  1.90214739E-03 -9.50902057E-03 -5.15460856E-04
  4.75551611E-04  2.96198582E-03 -1.39649607E-05  4.49195862E-06 -8.11001969E-06
  2.53347335E-06 -1.01039172E-05 -8.33183043E-05  2.92939549E-05 -5.84976548E-06
 -1.01304236E-05  3.87644090E-05  4.84747609E-05  1.07892401E-04  2.09934332E-04
 -1.58507646E-05 -7.21739980E-04 -7.05505258E-04  3.56016187E-04 -1.05386825E-05
 -1.17943947E-03  3.31275987E-03  9.73385179E-04  7.24529346E-04 -1.17309857E-03
  6.08137856E-03  1.59323526E-03  2.09621498E-03  5.58944276E-04  2.65774471E-05
 -1.75540343E-05  7.93379585E-06 -3.51534161E-06  2.77329412E-05 -2.84577344E-04
 -1.50757729E-05 -2.05297972E-04  3.69909820E-05  1.76246382E-05  6.33077397E-01
 -1.46324466E-03 -2.26898164E-03  2.13615771E-03  1.22809276E-03 -3.56020583E-03
  6.02914029E-03  1.80073996E-03  8.03935609E-04 -3.63108701E-03 -6.29543573E-03
  3.00723281E-03  1.09553462E-02  2.01172652E-02  7.14536017E-02  9.17439995E-03
  6.21412682E-03 -1.27309300E-02  3.48249318E-05 -2.26850408E-04 -2.20462421E-04
  6.23555453E-05  7.67008153E-05 -1.59695110E-03  2.12689561E-04 -8.30361495E-04
  1.19152913E-04  2.64292967E-06  2.10907434E-03  2.51949690E-03 -2.15032689E-03
  1.54711667E-03  1.11642532E-02 -3.01199676E-03 -1.25141667E-03  1.64760708E-03
  8.53252460E-03  5.39785983E-02 -2.49516772E-03 -1.39093992E-02 -2.98173525E-02
 -7.63019982E-02  1.30072072E-02  1.34501818E-02 -5.41227461E-03 -4.27377150E-03
  7.20438897E-04 -1.88944600E-03  1.69947977E-04  3.80498128E-04 -1.35669713E-03
 -3.19863875E-04  7.57850728E-04 -9.81694283E-04  5.18265562E-03 -4.79932946E-05
 -9.96639084E-05 -1.10698181E-03 -7.27299835E-04  1.59754133E-03  7.69928697E-04
 -1.52949881E-03 -1.11805528E-03  1.89903859E-03 -2.19504531E-03 -1.67178225E-03
 -8.71986387E-04  3.02918497E-03 -1.37106113E-02 -7.58878595E-04  6.99556309E-04
  4.35914368E-03 -2.53765780E-05  7.14047170E-06 -1.35856922E-05  3.51877227E-06
 -1.23684389E-05 -1.39408750E-04  5.67129369E-05 -7.76955213E-06 -1.53551782E-05
  4.65290985E-05  1.07898823E-04  1.94866942E-04  3.66061149E-04 -2.63524998E-05
 -1.25498639E-03 -1.03271997E-03  5.87634015E-04 -3.02256617E-05 -1.98170810E-03
  4.05988923E-03  1.25196171E-03  7.75650508E-04 -1.93431067E-03  8.01047197E-03
  2.18326606E-03  2.85440704E-03  7.16603068E-04  2.30133446E-05 -2.70916984E-05
  1.92839900E-06 -4.37713913E-06  4.77130126E-05 -3.79242703E-04 -2.38289259E-05
 -2.87847212E-04  5.66840350E-05 -8.58992250E-07  5.70568600E-01  5.32293782E-01
 -3.76470199E-03 -5.99732210E-03 -1.22573161E-02  2.04399806E-02 -1.01160242E-02
  1.39458964E-02 -2.30471563E-02  2.48908524E-02 -1.34502312E-02 -8.63162484E-03
 -3.86529505E-02  1.30113613E-02  9.04851267E-03  8.95938902E-02  3.83442665E-03
  1.73887919E-02 -1.01488681E-02 -1.47806478E-03  5.79918983E-04 -5.83714208E-04
 -9.50598573E-04  5.53656359E-04  6.29591805E-03 -3.02558802E-04  1.62764027E-03
  4.55796232E-04 -3.76104613E-03  1.18699474E-03  1.80874594E-03  7.52182027E-03
  4.00933325E-03  1.35118751E-02 -4.89507184E-03  1.19488550E-02  7.52322019E-03
  1.96271291E-02  2.92423898E-02 -2.96743632E-02 -1.34680553E-02  1.30716312E-02
 -8.60772502E-02  2.36176318E-02  9.17353015E-03 -1.57058538E-02 -3.07845722E-03
 -1.00507344E-02 -7.78584865E-04  2.52150587E-03 -2.54493230E-03  4.65559317E-03
 -2.86990663E-02 -6.60057331E-03  9.33704098E-03 -8.57619054E-03  6.75133524E-04
  1.10869787E-03  4.04275543E-03 -7.49744622E-03  7.39559372E-03 -3.35310783E-03
  5.60787299E-03 -1.07212944E-02  1.09333050E-02 -1.12709594E-02  6.66795032E-03
 -8.82615804E-03  1.44669821E-02 -1.13824471E-02  5.03065681E-03 -4.23892037E-03
  4.02051633E-03  4.93808092E-05  1.19969547E-04 -1.06062966E-04  1.43084795E-05
  3.94489070E-05 -2.81946642E-05  4.28262053E-04 -1.34231332E-03 -9.14854544E-05
  2.56133512E-04 -4.73199691E-04 -8.23361751E-04  8.25212112E-03 -3.12846713E-03
 -2.56676793E-03  3.39863223E-03  1.22558305E-02 -3.85454579E-03 -3.72214416E-03
  3.69862761E-03  1.01153169E-02 -6.70322818E-03 -1.36000951E-03 -1.27986575E-02
  4.93544988E-03 -9.31145765E-03 -4.42155056E-04 -9.03411667E-05 -1.33317879E-04
 -6.30343451E-05 -1.94868725E-04  1.25385371E-04 -6.64433385E-04  4.24151250E-04
  4.19248532E-04 -8.64679817E-04 -7.54445226E-04 -1.26606199E-03 -1.99982111E-03
  2.01074095E-01 -2.20495312E-03 -3.52364311E-03  1.84559999E-02 -9.77165896E-03
  2.54342557E-03  6.81940282E-03  2.30729809E-02 -1.94953476E-02  3.54765993E-03
 -1.70238840E-02  3.35877683E-03 -3.66852982E-02  1.67427197E-02  9.96820828E-02
  1.95918920E-02  5.75346568E-03 -9.64440886E-03 -1.15618262E-03  4.23526630E-04
  3.01157236E-04  5.47676462E-04  3.88621361E-04  9.50104349E-03 -2.67244225E-03
  1.36996788E-03  1.20629338E-03 -6.36220597E-03 -6.31467755E-03 -1.00459606E-02
  3.67803519E-03  7.35495939E-03 -1.45265085E-02  2.94340782E-02  6.95875844E-03
  1.26182050E-02 -1.99414999E-02  3.83962405E-02 -1.42367697E-02 -2.30165122E-02
  2.22302646E-02 -9.69906774E-02  1.42267140E-02  2.18655665E-02 -1.64756564E-02
  6.59872783E-03 -9.16979899E-04 -8.89309046E-03  1.47123694E-03 -1.27441518E-04
  2.29897880E-02 -1.18611903E-02 -2.52512276E-02  5.73086725E-03 -6.52153802E-03
  4.36408416E-04  7.30447114E-04 -7.50242105E-03  4.06883302E-03  8.85374993E-04
 -2.36783197E-03 -1.08813875E-02  5.71789670E-03  1.65738954E-03 -9.32549610E-03
 -9.52447671E-03  9.18705476E-03  5.20519911E-03 -5.22217031E-03 -4.78730625E-03
  3.61734746E-03 -1.49046062E-03 -4.39329615E-05 -7.70057481E-05  1.15550811E-04
 -1.99747428E-05 -3.67610144E-05 -7.19586054E-04 -1.06214563E-03 -1.92066935E-04
  4.13985891E-04 -1.32104970E-04 -5.81299264E-04 -1.01083861E-03 -2.27340213E-03
  5.19289239E-03 -6.00097853E-03  4.15283084E-03 -2.56195678E-03  8.18887825E-03
 -8.50629875E-03  5.78888837E-03 -5.78864033E-03  6.31152562E-03 -5.88608501E-03
 -2.26282187E-02 -1.00400640E-02 -1.16490634E-03 -5.15791506E-03 -4.43134989E-05
 -2.52783597E-05 -7.32750664E-05  1.55900160E-04  2.00962093E-04 -3.48725545E-04
  1.26024994E-03  5.54082541E-04  4.98483144E-04 -4.48793225E-04  2.00887652E-03
  3.16112502E-03  1.59712391E-03  1.99965033E-01  6.16295996E-03  9.78773162E-03
 -1.55212232E-02 -3.87090785E-03  7.01891895E-03 -2.65029706E-02 -1.84046777E-02
 -2.33105024E-03  4.96111269E-03 -1.84585806E-02 -1.72435609E-02 -1.44569989E-02
 -3.04553957E-02 -1.81214199E-02 -4.15082895E-03 -2.52562928E-03 -7.41880120E-03
  2.34785956E-03 -1.78478747E-04  7.79202214E-04 -1.91161992E-04 -1.12863021E-03
  6.54614642E-03 -4.45058858E-03 -2.98631600E-03  2.03558132E-03 -4.53346077E-03
 -2.10345198E-02 -3.32062007E-02  1.26096766E-02 -1.55969615E-02 -7.49151574E-02
  9.59845471E-02  1.80898298E-02 -2.17652615E-02 -1.06071127E-01  1.00511211E-02
  1.09758560E-02  1.97412656E-02  4.00505892E-03  1.40859540E-02 -1.94421984E-03
 -1.41377068E-04  1.69291099E-02  9.18008026E-03 -2.70904618E-03  6.49814173E-03
 -2.36507505E-04 -2.42879388E-03  1.07367060E-02 -2.58454771E-03  9.40763021E-03
  8.97130584E-04 -8.95170330E-03 -9.93619346E-04 -1.59418373E-03  7.38209371E-03
  8.69653106E-04 -8.84662705E-03  4.38927218E-03  1.04972872E-02  1.14033145E-03
 -1.28035577E-02  1.10320762E-02  1.25643021E-02  2.94764119E-03 -1.40064273E-02
  2.25622014E-02  2.52651853E-03 -3.26216381E-03 -7.20671382E-03  1.06723703E-04
  9.93774550E-05  1.04354815E-04 -3.01128079E-05  1.06425764E-05  6.56670934E-04
 -1.60502861E-05 -1.57699056E-04 -4.56871996E-05  3.89836822E-05 -5.35094724E-05
 -9.14346258E-05 -2.37181990E-04 -3.23648879E-03  2.04621448E-03  3.23949294E-04
 -2.00579393E-04 -4.32730124E-03  3.21518178E-03  3.81051014E-03  1.13205085E-03
 -2.92882298E-03  3.70652847E-03 -2.02516221E-02 -2.42360095E-03 -7.50997764E-03
  2.55962822E-05  4.72217378E-05 -2.72005008E-05 -1.40601688E-05 -3.63795884E-05
 -1.18494376E-04  4.20958767E-04 -1.50933616E-05  4.67637620E-04 -3.44849106E-04
 -1.32291921E-05  9.56349488E-03  1.50733813E-02  7.27612826E-03 -1.06488733E-02
  1.49458938E-01  4.96592099E-03  7.57651037E-03 -6.85267326E-03 -4.01513952E-03
  1.12152867E-02 -1.90831380E-02 -5.98272447E-03 -2.72330120E-03  1.19213099E-02
  1.17700937E-02 -5.09998384E-03 -2.41118693E-02 -4.91860763E-02 -1.77134847E-01
 -2.25004863E-02 -1.47647280E-02  3.25182381E-02 -1.36970943E-04  7.25561240E-04
  7.23322066E-04 -2.18132883E-04 -1.56155137E-04  2.46003596E-03 -5.84932332E-04
  9.43149858E-04 -7.16299999E-05 -6.49879555E-05 -3.35221586E-03 -4.09358748E-03
  6.12636862E-03 -3.88048678E-03 -3.03713615E-02 -5.92428664E-05  4.77333869E-03
 -3.79467056E-03 -2.57646310E-02 -1.37296732E-01  8.30787070E-03  3.53771333E-02
  6.94966106E-02  1.89369909E-01 -3.21079831E-02 -3.37296522E-02  1.19214665E-02
  1.28040848E-02 -2.01477432E-03  5.63392643E-03 -4.39931807E-04 -1.64266912E-03
  6.44259548E-03  9.50117454E-04  6.52993115E-04  1.84053574E-03 -1.22436911E-02
  5.06262907E-04  7.71253816E-04  3.34803038E-03  2.35878874E-03 -4.39821915E-03
 -3.21860747E-03  4.75916540E-03  3.58637259E-03 -5.61616558E-03  5.18190524E-03
  4.92984754E-03  2.74799721E-03 -8.45152655E-03  3.49550094E-02  2.05840664E-03
 -1.77851267E-03 -1.14995210E-02  7.66648822E-05 -1.67864859E-05  4.14034938E-05
 -9.08857523E-06  2.37276597E-05  3.86818175E-04 -1.97881893E-04 -1.31389960E-06
  4.17529644E-05 -6.33600715E-05 -7.05686496E-04 -1.03293586E-03 -1.53786201E-03
  6.74729699E-05  5.15457503E-03  3.60900650E-03 -2.30003025E-03  1.16807826E-04
  7.75246308E-03 -6.89752034E-03 -3.03664699E-03 -9.42903538E-04  7.24742323E-03
 -1.66253790E-02 -4.96235136E-03 -6.38364916E-03 -1.34505984E-03  6.30765525E-06
  8.33977471E-05  4.33986772E-05  5.83021204E-06 -1.55085530E-04  8.88944886E-04
  1.17097177E-04  7.74200296E-04 -1.71500744E-04  6.52819860E-05 -1.46022484E-01
 -2.47252679E-01  6.51695925E-03 -9.86687473E-03 -4.79372533E-02  7.74379222E-01
 -5.37867805E-03 -8.61758949E-03 -1.74906724E-02  2.92088004E-02 -1.44822722E-02
  2.01885206E-02 -3.29350791E-02  3.55155651E-02 -1.92393247E-02 -1.24690460E-02
 -5.53393905E-02  1.86037436E-02  1.32009489E-02  1.29199591E-01  5.58412490E-03
  2.50381194E-02 -1.46548898E-02 -2.11671836E-03  8.29855811E-04 -8.15373557E-04
 -1.35323787E-03  7.94961354E-04  9.08919013E-03 -4.44516405E-04  2.38666495E-03
  6.93290658E-04 -5.44448223E-03  1.74590631E-03  2.71139647E-03  1.09583990E-02
  5.62663147E-03  1.96544021E-02 -7.48961074E-03  1.74018186E-02  1.06056612E-02
  2.85469767E-02  4.21697056E-02 -4.24302663E-02 -1.95815868E-02  1.87454362E-02
 -1.24168439E-01  3.40298470E-02  1.32109264E-02 -2.26391071E-02 -4.46600183E-03
 -1.44393107E-02 -1.13383296E-03  3.60288926E-03 -3.66550144E-03  6.68892700E-03
 -4.12583376E-02 -9.48644247E-03  1.33723076E-02 -1.23201397E-02  9.08196453E-04
  1.53165860E-03  5.60701862E-03 -1.08755674E-02  1.05162218E-02 -4.76569002E-03
  7.76897503E-03 -1.55537745E-02  1.55472323E-02 -1.62120223E-02  9.30951732E-03
 -1.28015893E-02  2.06814399E-02 -1.64652446E-02  7.16576040E-03 -6.06084026E-03
  5.78603160E-03  7.25382393E-05  1.72134053E-04 -1.50141033E-04  2.05283878E-05
  5.61253650E-05 -3.54453590E-05  6.19485980E-04 -1.91213873E-03 -1.34873854E-04
  3.66884564E-04 -7.80143581E-04 -1.30540742E-03  1.19275940E-02 -4.36233247E-03
 -4.04356394E-03  5.10596594E-03  1.77149349E-02 -5.34372690E-03 -5.85764679E-03
  5.52980522E-03  1.46198510E-02 -9.44659176E-03 -2.39310534E-03 -1.83096414E-02
  7.08939766E-03 -1.33127558E-02 -6.89357774E-04 -1.31663133E-04 -1.92153663E-04
 -9.15013198E-05 -2.79269085E-04  1.83038360E-04 -9.69519621E-04  6.04538506E-04
  5.91717535E-04 -1.23602230E-03 -1.06857012E-03 -1.42818419E-03 -2.38089650E-03
  2.89109381E-01  2.06751975E-03  1.02528544E-02  8.38703475E-03  4.15693195E-01
 -3.19767943E-03 -5.05092934E-03  2.61479714E-02 -1.41681006E-02  3.76162005E-03
  9.60407940E-03  3.26689341E-02 -2.81328082E-02  5.19607563E-03 -2.45896574E-02
  4.63915300E-03 -5.26998294E-02  2.37714020E-02  1.42352548E-01  2.80537040E-02
  8.19273835E-03 -1.37666901E-02 -1.65081495E-03  6.27336294E-04  4.46236566E-04
  7.66560937E-04  5.65659576E-04  1.36850651E-02 -3.85439977E-03  1.92858299E-03
  1.71267063E-03 -9.15590176E-03 -9.30339140E-03 -1.47164650E-02  5.35069925E-03
  1.07553789E-02 -2.14954113E-02  4.28249545E-02  1.00524769E-02  1.84074295E-02
 -2.94669313E-02  5.46151945E-02 -2.04912126E-02 -3.26966643E-02  3.20135892E-02
 -1.38482130E-01  2.02383955E-02  3.12771542E-02 -2.35272217E-02  9.57663584E-03
 -1.30233716E-03 -1.27071863E-02  2.11885971E-03 -1.82903445E-04  3.31012525E-02
 -1.69875399E-02 -3.62143697E-02  8.26412327E-03 -9.43492861E-03  6.76443335E-04
  1.12159273E-03 -1.07279195E-02  5.71817798E-03  1.16173968E-03 -3.59719855E-03
 -1.55613710E-02  8.03152008E-03  2.22326893E-03 -1.34824593E-02 -1.35932825E-02
  1.30482102E-02  7.32037219E-03 -7.30542957E-03 -6.83656237E-03  5.14010944E-03
 -2.20301266E-03 -6.15007371E-05 -1.08494630E-04  1.68459158E-04 -2.97510741E-05
 -5.24643414E-05 -1.02601117E-03 -1.51655580E-03 -2.65766536E-04  5.91261113E-04
 -1.88847273E-04 -9.50967996E-04 -1.59714123E-03 -3.06958196E-03  7.57348294E-03
 -8.54165148E-03  6.24617910E-03 -3.39322735E-03  1.19364319E-02 -1.20995534E-02
  8.52660426E-03 -8.06359124E-03  9.19739403E-03 -8.36635254E-03 -3.25964915E-02
 -1.44027105E-02 -1.71639984E-03 -7.39900709E-03 -6.51538603E-05 -3.38746382E-05
 -1.02030053E-04  2.21692696E-04  2.91815049E-04 -5.04340076E-04  1.81814153E-03
  8.11804407E-04  7.03309480E-04 -6.24017847E-04  2.05265855E-03  3.44328261E-03
  1.89947294E-03  2.87395643E-01 -1.47016636E-02 -1.17852804E-02  2.39707252E-03
  4.13068116E-01  8.67590610E-03  1.40973231E-02 -2.28210841E-02 -6.13408196E-03
  1.04785151E-02 -3.90962120E-02 -2.69971456E-02 -4.00913242E-03  7.53368320E-03
 -2.66577050E-02 -2.48362974E-02 -2.13658677E-02 -4.48442059E-02 -2.99309781E-02
 -6.44500473E-03 -4.02275253E-03 -1.01703523E-02  3.34833532E-03 -2.35176874E-04
  1.14289473E-03 -2.80480188E-04 -1.60259051E-03  9.29480921E-03 -6.48256530E-03
 -4.42203099E-03  2.95876510E-03 -6.42276836E-03 -3.09807551E-02 -4.88437928E-02
  1.89030246E-02 -2.23867407E-02 -1.09775974E-01  1.40840276E-01  2.70403861E-02
 -3.12539259E-02 -1.55230724E-01  1.24381086E-02  1.62649383E-02  2.90672445E-02
  6.45878241E-03  2.42117570E-02 -3.50081800E-03 -8.11094899E-04  2.50023027E-02
  1.35706537E-02 -3.90820123E-03  9.58056220E-03 -3.89073439E-04 -3.49284123E-03
  1.55883471E-02 -3.57747761E-03  1.37028099E-02  1.26109445E-03 -1.31045785E-02
 -1.09321319E-03 -1.89602831E-03  1.09183977E-02  1.63945768E-03 -1.28052583E-02
  5.60696640E-03  1.55265201E-02  2.19924867E-03 -1.85164950E-02  1.56811627E-02
  1.85240764E-02  4.76079302E-03 -2.04197059E-02  3.33146681E-02  3.67267288E-03
 -4.70915962E-03 -1.06367627E-02  1.50444318E-04  1.45763471E-04  1.52787235E-04
 -4.44728895E-05  1.70373999E-05  9.37731409E-04 -2.97007179E-05 -2.35905501E-04
 -6.29083050E-05  5.61208518E-05 -6.80819967E-05 -1.29975114E-04 -5.21715012E-04
 -4.36218917E-03  4.15811885E-03  5.06091860E-04 -5.43926437E-04 -5.79364114E-03
  6.38435424E-03  5.34750670E-03  1.37503521E-03 -3.89463641E-03  6.78676398E-03
 -2.95838902E-02 -3.65366899E-03 -1.09177494E-02  1.69775560E-04  6.98521661E-05
 -2.96326939E-05 -7.43651982E-06 -5.57712617E-05 -1.70314686E-04  6.44359751E-04
  2.02981766E-05  7.54649810E-04 -5.17443467E-04 -6.10953740E-06  1.02067856E-02
  1.70736243E-02  9.79522618E-03 -1.52448448E-02  2.17359526E-01 -5.92067751E-02
  1.37612959E-02 -2.09918665E-02  3.16279854E-01  1.21963006E-03  3.21062883E-03
 -7.39299445E-03 -3.23772258E-03  1.50795252E-02 -1.18724178E-02 -7.53473624E-03
 -2.04522488E-03  1.87854831E-02  8.48894111E-03 -5.58704109E-03 -1.97045508E-02
 -3.56078989E-02 -1.41506829E-01 -1.73865511E-02 -1.07937987E-02  2.68022109E-02
  2.51379708E-04  1.07823252E-03  1.40231499E-03 -3.91638473E-04 -1.89055802E-04
 -8.71896656E-04  2.28586182E-03  2.88598061E-03 -1.18951384E-03  1.77813187E-03
 -9.07068929E-04  2.50433716E-03  6.60612623E-03  1.97786893E-03 -1.59654070E-02
 -2.60174270E-02  4.96106233E-03  2.96139975E-03 -7.96909756E-03 -1.22629372E-01
  5.10461144E-03  2.77515532E-02  5.90835017E-02  1.51930881E-01 -2.59522248E-02
 -2.80998554E-02  7.35746709E-03  8.59271309E-03 -9.98801563E-04  4.31239651E-03
 -4.91996978E-04 -8.43444806E-04 -1.24198812E-04  1.94309493E-03 -5.36327100E-04
  1.00683851E-03 -7.02343538E-03 -1.43031546E-03 -2.21882387E-03  1.13137036E-02
  9.36014239E-03 -1.10795840E-02  5.24511972E-03  1.62737697E-02  1.35328640E-02
 -1.57486700E-02  9.87313935E-03  1.40267990E-02  1.09880457E-02 -1.54163081E-02
  2.51643479E-02  3.00186529E-03  2.66622714E-04 -8.97863468E-03  2.64751755E-04
 -1.35868618E-04  2.06091187E-05  1.51895203E-05  1.18537259E-05  1.21563152E-03
 -6.54357935E-04 -3.88688630E-05  1.40593772E-04 -1.87323187E-04  3.31533591E-03
  4.06274361E-03  9.69854209E-05  2.80610156E-03  7.32745434E-03 -6.90199778E-03
 -3.34813110E-05  3.91916916E-03  1.07799676E-02 -1.61405711E-02 -1.54276527E-03
  1.50582586E-03  9.08616519E-03 -1.19373430E-02 -3.25010470E-03 -4.23011173E-03
 -1.01465217E-03  2.36267525E-06  1.08481970E-04  8.90389851E-05 -1.41586560E-05
 -1.10202964E-04  8.05997420E-04  2.06094635E-04  8.06943373E-04 -1.83297483E-04
  1.88733280E-05 -1.47311308E-01 -2.28940520E-01  1.59753567E-03 -2.11074287E-02
 -6.26503429E-02  6.50617945E-01  1.50363343E-03 -2.84243091E-02 -8.22746584E-02
  5.54659712E-01 -3.88231424E-03 -6.86567107E-03 -1.71528721E-02  2.80078189E-02
 -1.55739500E-02  1.78520532E-02 -3.15798998E-02  3.49774564E-02 -2.10942599E-02
 -8.93208519E-03 -5.01684127E-02  2.04763195E-02  9.50357416E-03  1.06965042E-01
  4.02433816E-03  2.11941282E-02 -1.19556998E-02 -2.03089618E-03  7.66140949E-04
 -1.13672705E-03 -1.45018030E-03  8.61842494E-04  7.43165044E-03 -2.24643301E-04
  1.22138937E-03 -7.28610871E-05 -4.27839111E-03  5.52429923E-04  6.17782848E-04
  5.02486609E-03  6.89962967E-03  1.63611398E-02 -9.57586296E-04  8.55089039E-03
  1.24023983E-02  2.33207207E-02  3.74478823E-02 -4.04705503E-02 -1.36734796E-02
  1.31999588E-02 -1.02656490E-01  2.81542018E-02  1.12432355E-02 -1.87107873E-02
 -3.78860432E-03 -1.24586981E-02 -7.25475715E-04  3.34756197E-03 -3.06168760E-03
  5.74106079E-03 -3.51172737E-02 -7.24199588E-03  1.19148593E-02 -1.06590465E-02
  1.03686310E-03  1.67459708E-03  6.66701060E-03 -9.52328080E-03  1.25815546E-02
 -4.93906551E-03  9.30923710E-03 -1.35920750E-02  1.85436076E-02 -1.39804553E-02
  1.05740057E-02 -1.15218505E-02  2.16602121E-02 -1.37089585E-02  7.02321812E-03
 -5.98634369E-03  5.48539549E-03  1.03583186E-06  1.71631312E-04 -1.72601796E-04
  1.63005013E-05  5.61395643E-05 -2.42805656E-04  5.90180678E-04 -1.88007790E-03
 -1.03594302E-04  3.75779207E-04 -1.08544941E-03 -1.61304028E-03  1.10603106E-02
 -5.24340270E-03 -4.30237060E-04  5.21519068E-03  1.63706756E-02 -6.74097059E-03
 -6.72352835E-04  5.41710283E-03  1.37846042E-02 -1.01358418E-02  1.79823677E-03
 -1.51523720E-02  6.87745824E-03 -1.21574703E-02  1.94515112E-04 -1.13554692E-04
 -1.62368114E-04 -7.45639319E-05 -2.61344187E-04  1.53262551E-04 -7.95530781E-04
  5.28208028E-04  5.66125739E-04 -1.19007659E-03 -9.39407841E-04  2.80161501E-04
 -1.34910580E-04  2.47655538E-01  1.15993093E-03  1.10043440E-02  3.28427969E-03
  3.56068564E-01  1.18161385E-03  1.49851566E-02 -2.64173758E-03  3.05501118E-01
 -2.38519129E-03 -4.30856670E-03  2.62022012E-02 -1.36889205E-02  2.13540899E-03
  9.87829787E-03  3.36101375E-02 -2.65122167E-02  3.20493246E-03 -1.92954255E-02
  8.50163164E-03 -4.61352893E-02  2.24939407E-02  1.19679567E-01  2.39571865E-02
  6.86784739E-03 -1.09813356E-02 -1.83276042E-03  4.84573903E-04  4.73244021E-04
  8.93651093E-04  6.82104979E-04  1.03660495E-02 -2.92332537E-03  2.26196128E-03
  1.78130314E-03 -7.09843854E-03 -8.31798893E-03 -1.26362843E-02  6.32310789E-03
  6.90457258E-03 -1.32696171E-02  3.50217837E-02  1.12993156E-02  1.20851053E-02
 -1.80831474E-02  4.59615734E-02 -1.47392147E-02 -3.23517318E-02  2.72543938E-02
 -1.16171855E-01  1.72596889E-02  2.59941200E-02 -2.01097008E-02  7.79742294E-03
 -9.14445158E-04 -1.10922741E-02  1.53087357E-03  3.65690213E-05  2.74303726E-02
 -1.37534631E-02 -3.10110394E-02  6.32134629E-03 -7.53618030E-03  5.29771699E-04
  8.71918593E-04 -8.82895026E-03  9.19101314E-03  2.95900091E-03 -2.75041669E-03
 -1.28039788E-02  1.30534712E-02  4.77125542E-03 -1.09422868E-02 -1.15201064E-02
  1.63331762E-02  8.23470759E-03 -7.11387332E-03 -6.47257146E-03  5.51335736E-03
 -1.55035267E-03 -1.07820985E-04 -1.19275056E-04  1.03849288E-04 -1.02856426E-05
 -4.57249247E-05 -1.07038199E-03 -1.47561730E-03 -4.08914604E-04  5.77878586E-04
 -1.62418573E-04 -9.79384527E-04 -1.59551238E-03 -4.32882862E-03  8.08488979E-03
 -5.78312330E-03  5.88623557E-03 -5.35819081E-03  1.24822871E-02 -8.17610662E-03
  7.26830256E-03 -9.31976580E-03  9.84469744E-03 -5.38193991E-03 -2.65340487E-02
 -1.29516595E-02 -4.63126004E-04 -6.19237182E-03 -6.50634008E-05 -1.94154161E-05
 -8.00384677E-05  2.03351790E-04  2.61492183E-04 -4.26074751E-04  1.59972163E-03
  7.42009759E-04  6.82914078E-04 -4.87789950E-04  9.07259094E-04  1.97545167E-03
  2.30969152E-04  2.43514796E-01 -1.86346425E-02 -8.37189580E-03  6.05596260E-05
  3.49960283E-01 -2.67468394E-02 -2.17184967E-02 -8.22949726E-04  2.97126027E-01
  6.05210252E-03  1.04565517E-02 -2.04942967E-02 -3.70333654E-03  1.05897902E-02
 -3.07975191E-02 -2.48231614E-02 -1.21899164E-03  9.34067105E-03 -2.36717321E-02
 -2.31142805E-02 -1.62121972E-02 -3.39243686E-02 -1.98081799E-02 -4.43295842E-03
 -2.05295347E-03 -8.79530715E-03  3.01317649E-03  2.25222404E-04  1.45323672E-03
 -4.92114605E-04 -1.39505627E-03  6.66628115E-03 -3.42116811E-03 -2.04526305E-03
  1.51803842E-03 -4.67803853E-03 -2.44393699E-02 -3.64112371E-02  1.47910432E-02
 -1.51329944E-02 -8.47529612E-02  9.84747524E-02  2.03163856E-02 -2.16483074E-02
 -1.19315611E-01  4.13253664E-03  1.02946659E-02  2.38040496E-02  6.68902421E-03
  1.54368863E-02 -2.32575121E-03 -6.61706557E-04  1.86087347E-02  9.98870861E-03
 -2.97887935E-03  7.75925043E-03 -2.69024492E-04 -2.66945924E-03  9.91130824E-03
 -2.65097937E-03  1.08560903E-02  1.04664522E-03 -9.31247831E-03 -1.90857075E-03
 -3.03802620E-03  1.44720882E-02  5.20347998E-03 -1.40266940E-02  8.47347212E-03
  2.06891844E-02  7.31875180E-03 -2.04479169E-02  1.53863847E-02  2.16634973E-02
  8.23973827E-03 -2.06042751E-02  2.49283729E-02  4.16062824E-03 -3.12092851E-03
 -8.18628014E-03  2.21467126E-04  5.12471512E-05  9.14971802E-05 -1.96997374E-05
  8.25562582E-06  1.21947330E-03 -2.66727766E-04 -2.98431833E-04  9.14414096E-06
 -2.13766452E-05  8.41307187E-04  8.68714412E-04  2.06207487E-03 -2.82550251E-03
  9.84315252E-04 -8.26871284E-04  3.09578829E-03 -3.70446458E-03  1.74632257E-03
  2.28500546E-03  4.02289246E-03 -2.74210958E-03  2.40894506E-03 -2.32797699E-02
 -1.96468078E-03 -8.75547748E-03 -3.12803252E-04  3.50672438E-05 -2.80806232E-05
 -1.69632987E-05 -5.58355033E-05 -1.24312291E-04  4.23847255E-04 -5.80999477E-05
  5.07086875E-04 -4.56707703E-04  6.84668258E-05  1.56512104E-03  5.81589675E-03
  8.47409052E-03 -2.16374957E-02  1.63762280E-01 -3.34158626E-02  1.19315807E-02
 -3.03706576E-02  2.38428247E-01 -5.06114373E-02  1.24589736E-02 -3.25369957E-02
  1.81163620E-01  1.74478561E-03  2.77870906E-03  5.31410000E-03  1.16582999E-02
  1.45740799E-02 -9.02026875E-03  6.87219683E-03  1.56221588E-02  2.03331657E-02
 -1.71593522E-02 -1.48765417E-02 -1.96235520E-02 -5.36022210E-03  4.77763145E-02
  6.60748747E-03  4.28891015E-03 -9.67729775E-03  3.80163265E-03 -8.58511389E-05
  1.43673074E-03  2.02601906E-04 -2.63218096E-03  6.49966468E-03  1.84200177E-03
  4.83204038E-03 -3.82580082E-04 -4.58675898E-03  7.91560868E-03  9.39089410E-03
 -3.34378412E-04 -4.89946788E-03 -1.22637310E-02 -1.62080135E-02 -1.36562612E-03
 -7.24660579E-03 -1.53231593E-02  3.53439700E-03 -3.68399385E-03  5.34422093E-03
  2.64624073E-02 -4.71106496E-02  8.38639736E-03  7.67024940E-03 -6.21756437E-03
  1.27628943E-03 -1.43032799E-03 -1.28708304E-03  6.40388745E-04 -1.06180088E-03
  1.27045270E-03 -4.63348173E-03 -4.96862232E-03  1.72408311E-03 -5.51581417E-04
 -9.51314846E-03 -1.37170764E-02  1.12946732E-02  5.12052542E-03 -2.25704461E-02
  3.49747016E-02  1.63386192E-02  7.15828751E-03 -3.33279985E-02  2.52077009E-02
  1.36011960E-02  6.98347181E-03 -2.49532414E-02  2.81070439E-03  2.06082421E-03
  1.26303275E-03 -3.22266059E-03  5.71356896E-04 -2.81126312E-04  2.56730230E-05
  4.87763902E-05 -5.81372060E-05  2.36124312E-03 -1.11252339E-03  1.06032714E-04
  2.19714689E-04 -3.89856678E-04  6.08101641E-03  8.01010609E-03 -3.93588522E-03
 -1.52996272E-02 -2.89402744E-02 -1.66246284E-02 -5.94343396E-03 -2.23711054E-02
 -4.17076663E-02 -1.19414778E-02 -4.30660098E-03 -1.75676961E-02 -3.39175523E-02
 -1.45827911E-02 -2.17368981E-03 -4.62705685E-03 -5.57436096E-03  1.26518395E-04
 -2.76267211E-04 -4.00001974E-04  1.81466923E-04 -3.79227843E-04  2.82500040E-04
 -1.08951606E-03 -1.72593144E-03  7.43280537E-04 -1.49761671E-03 -7.44960073E-03
 -1.12146569E-02  4.25233374E-03  6.63549264E-03  4.32248425E-03  2.99167384E-02
  6.08210335E-03  9.57923910E-03  6.42345068E-03  2.72331139E-02  3.73963562E-03
  7.14775513E-03  7.37388457E-03  2.04275952E-02 -2.75640697E-03 -3.84723468E-03
 -1.03354386E-02  1.08546519E-02 -5.98366537E-03  8.86048472E-03 -1.65939799E-02
  1.56020415E-02 -8.45518531E-03  1.50487459E-03 -1.62908172E-02  1.24106444E-02
 -2.36357696E-03  1.17515731E-02  1.81220268E-04  2.57105686E-03 -1.47517623E-03
 -1.57979282E-05  3.05188937E-04 -7.75223507E-04 -1.20383426E-03  3.11600812E-04
  1.26531405E-03  7.80485888E-04 -1.19741458E-03 -2.30281484E-03 -3.75767961E-04
 -1.51769763E-03 -2.06146742E-03 -1.16698990E-02  9.02627892E-03 -7.99787779E-04
  4.72913661E-03 -1.74280595E-02  1.39944070E-02 -1.58580989E-03  5.64961401E-03
 -1.83254571E-02  8.22766947E-03 -2.54007163E-03 -1.11181028E-02  1.59052757E-03
  2.58273031E-03 -2.43113565E-03 -6.93075254E-04 -1.89508525E-03  2.46070199E-04
  9.55530446E-04 -2.13791341E-04 -1.21110569E-04 -4.70394884E-03 -9.27114384E-05
  2.57224181E-03 -1.14184584E-03  5.16769968E-04  7.60740454E-04  5.03053591E-03
 -4.78655914E-03  2.53441751E-03 -2.06322036E-03  7.16560671E-03 -6.83548817E-03
  3.68377254E-03 -2.99839200E-03  7.02418270E-03 -6.47185447E-03  4.16649571E-03
 -2.06773762E-03  3.17941253E-03 -2.83828539E-03  1.67377695E-03  3.55726338E-05
  5.58216750E-05 -5.64133556E-05 -1.29389334E-05  1.87797333E-05  1.64155021E-04
  3.16760432E-04 -4.25494227E-04 -6.60721320E-05  1.16799227E-04 -5.10678816E-04
 -7.25051817E-04  8.15633884E-03 -4.33223896E-03  2.71439119E-03  1.79280933E-03
  1.17744926E-02 -6.06962474E-03  3.90219467E-03  1.10718403E-03  1.04928551E-02
 -6.56748570E-03  3.73726528E-03 -1.75713516E-03  3.56855618E-03 -3.73207788E-03
  1.08073719E-03 -3.62209260E-05 -8.14698058E-06  1.28512407E-06 -8.69112955E-05
  5.58483621E-05 -1.88875642E-04  7.17950835E-05  1.08394315E-04 -4.02795949E-04
  4.96524829E-05 -1.41117307E-04 -1.62806079E-04  2.98952928E-02 -1.48916446E-03
  2.13271314E-03  2.90058007E-04  4.29418513E-02 -2.16412077E-03  2.97742816E-03
 -4.22691172E-04  3.76419332E-02 -2.62049355E-03  2.67095508E-03  1.37260563E-05
  7.10823764E-03 -2.13916628E-03 -2.93843720E-03  1.15300196E-02 -6.63622593E-03
  2.75745364E-03  6.34815358E-03  1.65059802E-02 -1.11469962E-02  4.41072981E-03
 -1.43341896E-03  9.39922590E-03 -1.44004619E-02  5.23974597E-03  1.81870893E-02
  3.53033355E-03  9.72456351E-04 -2.11313533E-03 -8.05098679E-05 -3.33442545E-04
  6.03476262E-04  9.89296277E-04  4.53819792E-06  1.26501816E-03 -8.04837353E-04
  1.82067874E-03  2.07243492E-03 -1.18407796E-03 -6.01553125E-04 -1.33022592E-03
  8.89272160E-03 -8.44708805E-03  1.42136306E-03  5.02071583E-03  1.37266265E-02
 -1.25093618E-02  2.47895717E-03  6.54629785E-03  7.85948484E-03 -1.33964140E-02
  9.04162756E-03 -1.75283663E-02  4.15103599E-03  2.65685222E-03 -2.53837159E-03
  1.05898836E-03 -9.33882720E-05 -1.96203754E-03 -2.08345035E-04  1.03433983E-04
  3.29713252E-03 -1.61966284E-03 -5.15458602E-03 -6.45785331E-05 -6.55944438E-04
 -4.73375315E-04 -6.96497884E-04 -4.25478394E-03  3.60493174E-03 -3.24955552E-03
  1.77101070E-03 -6.08357054E-03  5.12218901E-03 -4.69129602E-03 -2.61522950E-04
 -6.00464734E-03  5.49734598E-03 -3.11147862E-03 -1.27011255E-03 -2.83990708E-03
  2.41289942E-03 -8.31766406E-04  3.57243255E-05 -7.50289997E-05  5.65210484E-05
  1.43960846E-05 -2.05478709E-05  1.87704654E-05 -4.50633974E-04  2.30415308E-04
  1.13029721E-04 -1.29956527E-04  3.55060699E-04  4.47545816E-04 -5.06013697E-03
  4.87396041E-03 -4.81264603E-03 -7.93253850E-04 -7.15858014E-03  7.06787549E-03
 -6.89669472E-03 -6.24527587E-04 -7.36125986E-03  6.31489588E-03 -5.80504246E-03
 -4.28110964E-03 -4.01395488E-03  1.59048460E-03 -1.88806159E-03 -1.70769205E-05
 -1.43965691E-05 -2.50792119E-05  6.61775194E-05  3.86104498E-05 -1.11626108E-04
  1.36687816E-04 -2.28212403E-05  2.90189344E-04 -6.22748155E-06 -9.27911528E-04
 -1.12717645E-03 -7.38593603E-04  2.96935589E-02 -3.37621172E-03  1.90936393E-03
 -1.06491233E-03  4.26448500E-02 -4.84144660E-03  3.22887628E-04 -1.76158188E-03
  3.67206848E-02 -5.07893119E-03  2.59827206E-03 -2.34404826E-03  6.46745457E-03
  3.08352512E-03  4.43256398E-03 -4.14572186E-03  4.93985941E-03  5.52028219E-03
 -1.13505599E-02 -5.99560432E-03  7.33145520E-03  6.98929295E-03 -8.76436247E-03
 -1.05675669E-02 -4.49488794E-03 -5.56499813E-03  1.15510246E-02  1.13785812E-03
  9.87887777E-04 -3.42929148E-03  1.56123379E-03  1.18509727E-04  3.54712394E-04
 -2.68782299E-04 -1.16163101E-03  3.24831004E-03  9.58619903E-05  6.19067960E-04
 -5.34595391E-04 -2.07442840E-03  3.26744171E-03  3.04054059E-03 -1.16340267E-03
  9.90270855E-04 -1.30665613E-02 -1.61251588E-03 -2.31497074E-03  1.61426642E-03
 -1.78329023E-02 -4.30866166E-04 -3.54327160E-03  7.85134694E-03  6.79113150E-03
 -1.18032309E-02  1.84032810E-03  2.53118376E-03 -3.92537817E-04  1.07073176E-03
 -7.13448017E-04  5.39543253E-04  3.41799955E-04 -7.14041261E-04  1.30997389E-03
 -2.05467069E-03 -1.64715486E-04  1.05516444E-03 -1.17546107E-03 -2.95940433E-03
 -4.35560927E-03  3.98235076E-03 -1.53003294E-03 -7.19542675E-03  1.14918051E-02
  5.73106194E-03 -2.25993913E-03 -1.06204147E-02  8.97873933E-03  5.43865723E-03
 -1.60044695E-03 -8.17650403E-03  3.22261999E-03  1.66942875E-03 -8.36688785E-04
 -1.58663887E-03  1.84089565E-04 -3.87000695E-05  2.54467485E-05 -8.46978493E-08
 -1.24072217E-05  7.74343435E-04 -1.04130165E-04  6.73273790E-05 -4.43467784E-06
 -8.74023516E-05  2.61783765E-03  3.56270567E-03  7.33094194E-04 -7.16554998E-03
 -9.23582387E-03 -7.95590059E-03  9.38038367E-04 -1.04167080E-02 -1.33020515E-02
 -5.27989983E-03  1.57702529E-03 -8.37082749E-03 -1.07092411E-02 -5.97964778E-03
  3.13861893E-04 -2.79859180E-03 -1.58813743E-03  5.98705847E-05 -9.67885435E-05
 -1.33735171E-04  4.17838429E-05 -1.53858931E-04  1.69768887E-04 -4.02346033E-04
 -5.67578252E-04  1.55820506E-04 -5.91040119E-04 -2.07101802E-03 -2.54361535E-03
  4.17658028E-03 -9.49551725E-04  1.57209914E-02  4.26263576E-03  5.97066539E-03
 -1.28762820E-03  2.28765872E-02  2.24526906E-03  5.00984075E-03 -2.30202297E-03
  1.82100431E-02  7.03151502E-03  1.16443591E-03 -5.28767204E-04  4.23942082E-03
  1.34784079E-04  1.77113138E-04  1.94049942E-05 -2.26405958E-04  9.71742597E-05
 -3.64615844E-04  1.25346162E-04 -2.78932749E-04  4.45058544E-05 -2.22319570E-04
 -5.66694594E-05 -6.54690921E-04 -7.56185957E-04 -7.58179925E-04 -1.23558464E-04
 -1.15679990E-04 -7.59486830E-05  3.94072451E-05 -3.00975077E-05  8.07740763E-06
  2.56108354E-05 -2.01535153E-05  1.27450759E-04 -1.46289098E-04 -6.79602442E-05
  1.02977809E-04 -9.36999282E-05 -3.43981720E-04 -7.66972333E-04  4.74785684E-04
 -6.53894679E-04 -1.67836478E-03  2.89235262E-03  7.20279500E-04 -9.14057474E-04
 -2.34950735E-03  2.08760225E-04  5.18928293E-04  2.16520570E-04  4.40380389E-04
  7.14309121E-04 -8.14038709E-05 -8.71331862E-05  3.91001943E-04  2.54301468E-04
 -6.92148134E-05  1.20448488E-04 -1.82258739E-05 -3.67613977E-05  2.60613720E-04
 -4.16046631E-05  1.32455499E-04 -4.69261095E-06 -2.03112518E-04 -1.38403437E-05
 -2.52213928E-05 -4.95412116E-05  4.37852799E-05 -1.06976250E-04  7.64093315E-05
 -7.27495807E-05  6.13237961E-05 -1.50767358E-04  2.63546443E-04 -1.25954227E-06
  1.07845107E-04 -2.21233289E-04  5.71330807E-04 -3.57189670E-05 -3.59966521E-05
 -1.84432679E-04 -4.93893567E-07  1.63195366E-06  3.06300433E-06 -4.74824099E-07
  2.23384863E-07  2.52127120E-07 -2.93540077E-06  3.34076348E-06 -3.01697102E-08
 -2.50926364E-06  7.11389630E-06  1.89368925E-05 -1.92659239E-04 -2.33524688E-05
  9.59141284E-05 -8.12736434E-05 -2.74726385E-04 -2.95329655E-05  1.44038456E-04
 -2.52795003E-05 -2.33195651E-04 -1.42496984E-07  1.38705741E-04 -5.34579298E-04
 -1.67752401E-04 -1.39461978E-04 -5.56212321E-06  1.36051288E-06 -2.55190920E-07
 -3.46473718E-07  1.25638955E-06 -3.07672147E-06  1.40565566E-05  6.30359584E-07
  1.00117211E-05  3.40837506E-06 -7.51170631E-07  3.95064639E-05 -1.15709378E-04
 -4.97787622E-05  9.15920993E-05  3.29101609E-03  8.48098843E-04 -7.88800657E-05
  1.50950068E-04  4.81500681E-03  1.55248250E-04 -3.95226897E-05  6.11510480E-06
  3.61717461E-03  1.76000641E-04 -3.37993153E-05  3.54146447E-05  3.40490327E-04
  8.12218113E-05 -2.19465223E-05 -3.56246217E-07  1.73653087E-04 -2.10811950E-04
  1.85160956E-04 -1.44056039E-04  2.37049889E-04 -3.68058936E-04  2.91559242E-04
 -3.26867140E-04  7.88999381E-05 -2.39396511E-04  5.21211455E-04  1.27072848E-03
  1.25737300E-04  2.12006600E-04 -1.29807446E-04 -2.33343373E-05  9.99909609E-06
  4.09441792E-05  2.45763929E-05 -1.76152461E-06  9.36794291E-06  3.84282786E-06
  1.07206795E-04  7.54471311E-05 -2.49144010E-05  1.06461462E-04  2.06969887E-04
  7.09393083E-04 -4.81641149E-05  4.66104220E-04 -7.00640277E-04  1.04197168E-03
 -1.09612467E-04  6.89360382E-04  1.59239306E-04  1.93657279E-04 -6.69421715E-04
  2.27051324E-04 -1.23983201E-03  3.39918108E-04  7.12608221E-05 -2.47192902E-04
 -7.62231140E-05 -5.41637035E-05 -3.69611163E-05 -5.79804463E-06 -4.05175132E-06
 -1.97802450E-05 -2.40107380E-04 -1.53928159E-04  3.29618705E-05 -1.47211110E-05
  4.59731005E-06  7.26634040E-06 -1.20230363E-04  7.69368646E-05 -9.90709709E-05
 -1.70020915E-05 -1.72506431E-04  1.08381150E-04 -1.45370383E-04 -1.35624110E-04
 -1.72031780E-04  1.19046075E-04 -5.10991341E-05 -2.82795842E-04 -5.57837012E-05
  7.52717950E-05  3.93861821E-05  1.62716188E-06 -1.35600868E-06  1.43036467E-06
  6.86759807E-07 -3.48602495E-07  1.44331241E-06 -5.63877613E-06  4.97326731E-06
 -1.93105633E-08 -2.93888460E-06 -9.90379143E-06 -2.55047298E-05 -4.18502210E-05
  1.70883908E-04 -2.21469565E-04  1.17920766E-04 -5.42825352E-05  2.51476849E-04
 -3.17509297E-04  1.19497320E-04 -7.24395324E-05  2.10244484E-04 -2.80275475E-04
 -1.60689843E-05 -2.54401823E-05  5.17590805E-05 -6.14488750E-05 -7.89988713E-07
 -6.35466192E-07  9.33608049E-08  6.92629752E-07  2.14945452E-06 -9.62603756E-06
  7.93972577E-06  2.05638947E-06  7.41364301E-06 -3.40117851E-06 -2.53376204E-05
  8.83575684E-06  1.84138004E-03  9.40409129E-05 -5.19338992E-04 -1.73064674E-04
  2.65070878E-03  1.27306210E-04 -7.66072016E-04 -5.30116241E-05  2.22096369E-03
  1.35778455E-04 -5.64182254E-04  5.60993221E-05  1.63607678E-04  8.92236716E-05
 -3.27065753E-05 -1.28086512E-05  2.50618682E-05  4.21445935E-05  1.00544082E-04
 -3.45993478E-04  7.75032272E-05  1.20601929E-04 -4.21556002E-04 -5.17967557E-04
  1.20082949E-04  1.22714066E-04 -5.44921897E-04 -5.63970574E-04 -2.01723606E-04
 -4.78640986E-05  1.06488516E-03  1.90581625E-04  8.39651900E-05 -1.71266794E-04
  2.29413024E-05  2.49074540E-05  2.07710738E-06 -3.00322990E-05 -1.42648875E-05
  1.45941081E-04 -1.74921940E-05 -4.42805399E-05 -5.07172548E-05 -8.68083643E-05
 -9.45184205E-05 -2.56193535E-04 -1.31508447E-05  5.40523551E-04 -9.08662878E-04
  1.08161626E-03 -5.07972932E-05  8.15161649E-04 -1.27045372E-03  3.46679181E-04
 -5.50034856E-04  2.69035786E-04  2.23633926E-04 -1.05491795E-03  9.57714596E-05
  2.57935141E-04 -1.32411091E-04  1.13732875E-04 -2.91834436E-05 -2.03946760E-05
  2.83649648E-05  6.91463666E-06  2.14061130E-04 -1.65675929E-04 -2.10380465E-04
  1.14650018E-04 -8.17381854E-05 -7.90549123E-06 -1.33352203E-05  1.05944619E-04
 -1.15777560E-04 -1.03987801E-04  4.09750122E-05  1.49984893E-04 -1.68777628E-04
 -1.52287806E-04  2.01711176E-05  1.72391112E-04 -1.04236548E-04 -9.09951984E-05
  2.37338340E-05  5.63702969E-05 -5.63904491E-05 -2.48579515E-05  3.05402186E-06
  1.43422875E-06  1.64786550E-06 -1.11212263E-06  2.44269803E-07  9.67269909E-06
  4.42263179E-06 -1.93248228E-06  3.90067467E-07 -1.23547917E-06  8.75807339E-06
  2.07802836E-06  1.47471687E-04 -9.93841966E-05 -6.69115163E-05  4.72578321E-05
  2.18391235E-04 -1.32331382E-04 -9.18783939E-05  9.03960465E-05  1.90217394E-04
 -1.33457354E-04 -7.07987384E-05 -3.71541908E-04 -1.94793805E-05 -1.32488251E-04
 -3.50904035E-05  4.98467045E-07 -6.78527772E-07 -7.53869473E-07 -8.33277206E-07
  7.06852986E-08 -7.03413731E-07  7.99328555E-06  5.87535000E-06 -9.27352217E-06
 -9.74459356E-06  6.87558385E-06 -5.08654103E-05  9.27408877E-05  1.95671763E-03
  8.73761635E-04  3.18656745E-04  1.27086585E-04  2.82070846E-03  1.28582907E-03
  1.97562529E-05  1.25929153E-04  2.31731858E-03  8.99676547E-04  1.87662452E-04
  7.79661899E-05  2.15870720E-04  1.54417384E-04  2.32107407E-05 -3.80929784E-06
  3.21422027E-05  5.64355303E-06 -9.87126186E-06 -3.28656024E-05  7.37784335E-05
 -7.49567518E-05  9.89708126E-05 -4.43045859E-05  1.18932478E-04 -1.05701773E-04
  1.49431388E-04  8.80638172E-06  1.38568721E-04 -1.09574395E-04 -4.10175411E-04
 -7.51559759E-05 -3.46872326E-05  4.51367790E-05  3.67053061E-07 -5.62967472E-06
 -7.21131099E-06 -6.61347193E-07  2.76930555E-06 -2.26557477E-05  1.10770037E-06
 -8.89655656E-06 -4.58927494E-06  1.58283407E-05 -3.87810068E-06  8.10715915E-06
 -1.32147048E-04 -8.66415831E-05  6.92655695E-05 -7.21858634E-05 -1.90475492E-04
 -1.22040340E-04  9.10776566E-05 -9.31686130E-05  3.23500318E-05  9.83097985E-05
 -8.83229363E-05  4.02518908E-04 -6.34341978E-05 -6.89613147E-05  7.27569979E-05
 -6.99989077E-06  1.12873172E-05  1.64020696E-05  6.51661622E-06 -1.65665160E-06
 -3.25504439E-05  6.29582825E-05  7.86604085E-05 -2.32073713E-06  1.23956956E-05
  2.47857353E-06  3.45156990E-06 -1.40726786E-05  1.98000243E-05  3.00182088E-05
 -8.97235662E-06 -2.01937389E-05  2.95021495E-05  4.43482334E-05  1.52146066E-05
 -1.59582607E-05  1.01112732E-05  1.96329345E-05  4.93912807E-05  1.30475161E-05
 -1.45592180E-05 -1.11034303E-07 -4.70568268E-07  6.87778864E-07 -1.11177712E-06
  1.06873165E-07  2.27383551E-07  4.16032456E-07  4.62025536E-06 -4.39295643E-06
  2.96816708E-08  2.36282909E-06 -6.93037009E-06 -5.08405014E-06 -1.48257637E-05
 -7.51571256E-06  3.36400865E-05 -9.59084228E-06 -2.34170771E-05 -1.31182491E-05
  4.75312133E-05 -1.90678881E-05 -1.13733036E-05 -9.84329675E-06  4.33481792E-05
  6.53049365E-05  2.27065117E-05  9.91301545E-07  1.88127732E-05 -1.70561916E-07
 -1.32075260E-07  1.66321613E-08 -7.20444195E-07 -4.61918915E-07  5.93243814E-07
 -4.75031459E-06 -1.85789795E-06 -4.62430732E-06  1.84547175E-06 -1.92980755E-06
  4.97138468E-07 -2.39340068E-04 -4.29487893E-04 -2.19157601E-05 -1.01792988E-05
 -3.43760962E-04 -6.17167097E-04 -3.31058008E-05  1.40114861E-05 -2.85615033E-04
 -5.18986814E-04 -1.05678781E-05 -4.29773781E-05 -2.44807152E-05 -6.69149897E-05
 -1.51260093E-05 -1.23390458E-06 -3.12261803E-06 -5.35584919E-06  1.69042080E-06
 -5.80146515E-05 -4.95708680E-05  7.26407151E-05 -4.27250276E-05  3.79637526E-05
  4.10279051E-06  1.05033553E-04 -7.39147139E-05  6.90579125E-05  6.81021066E-06
  7.26447775E-05 -3.19893692E-05  9.34184932E-05  1.05278496E-04 -8.43786435E-06
  2.99820972E-05 -2.75826012E-06 -6.66201765E-06 -5.12680309E-06  3.85700430E-06
  1.08566250E-05 -3.97974634E-07 -3.92355270E-05 -1.61080652E-06  1.44966627E-05
  2.37325562E-05  2.09053864E-05  2.76706126E-05  4.01539066E-05  1.85838710E-04
 -6.48903627E-05  1.60747024E-04 -1.04601476E-04  2.77953879E-04 -1.07014218E-04
  2.22977122E-04  2.84007831E-05  1.14408343E-04 -1.63621425E-04  3.64618161E-05
 -9.91893236E-05  5.97170102E-05 -2.17523090E-05 -2.87685374E-05 -3.06539721E-05
 -9.67453521E-06 -2.49332145E-06 -4.72662026E-06  5.05799116E-06 -6.26249557E-05
 -2.62141694E-05 -9.81988909E-06 -7.38236236E-06  2.68166904E-05 -1.01018950E-05
 -1.23617528E-05 -3.92464357E-05  3.71114797E-05 -1.03447893E-05  2.37032582E-05
 -5.58357103E-05  5.29684961E-05 -1.66046116E-05  1.19738857E-05 -5.59431031E-05
  4.60598616E-05 -8.00669598E-06 -5.81333344E-05 -1.87434675E-05  2.05910179E-05
  1.25098766E-05  2.16334232E-07 -3.49822367E-07  2.37402696E-07  2.28357797E-07
  7.01670317E-08  5.31866821E-07 -5.48563687E-07  1.82788481E-06 -1.67715613E-07
 -1.16734076E-06  3.98172337E-05  5.02346373E-05 -7.59448215E-05  3.18253287E-05
  6.18360129E-05 -1.00645641E-04 -1.10237481E-04  4.37209071E-05  8.79625782E-05
 -9.30190451E-05 -1.00708564E-04  3.50302453E-05  6.65709536E-05  3.13184060E-05
 -9.20952258E-06  2.24152317E-05  7.81192154E-06  5.37414701E-07  2.69532047E-07
  7.54647319E-07  1.19956198E-07 -4.39172259E-07  2.56825546E-06  1.59431923E-06
  2.50923511E-06  2.12209557E-06 -4.07068204E-06  2.66364389E-05  4.34036021E-05
  3.47086614E-04 -2.74764252E-04 -1.18179615E-04 -1.25145819E-04  5.00019420E-04
 -3.97193832E-04 -1.74975400E-04 -5.47781004E-05  4.16377525E-04 -3.26020937E-04
 -1.16700919E-04 -8.78289095E-07  2.15589519E-05 -1.39429764E-05 -1.35449790E-05
 -3.00136985E-06  5.34066946E-06 -4.02412985E-06 -5.43424058E-08  1.82502837E-06
 -1.32462471E-04  1.09136990E-04  2.46099393E-04 -1.30925363E-03  5.28019802E-04
 -1.16977361E-03  8.71831515E-04 -1.64626617E-03  3.44576670E-04 -7.49689033E-04
  1.15841136E-04 -2.84543878E-03 -3.09714464E-03 -4.65373274E-03 -7.31657057E-04
 -4.40634019E-04 -8.27874950E-05  1.42000995E-04 -1.08345475E-04  1.21829416E-04
  1.17142064E-04 -6.00078963E-05  3.88679916E-04 -5.13258307E-04 -7.10952357E-05
  4.75749093E-04 -3.21171228E-04 -3.90486322E-03 -5.12851478E-03  2.77629814E-03
 -3.14980558E-03 -6.36863875E-03  1.13174474E-02  4.11507623E-03 -4.51117866E-03
 -8.73528549E-03 -5.71026363E-04  2.78220827E-03  4.69960169E-04  2.31834755E-03
  4.54451238E-03 -4.93782090E-04 -8.97908656E-04  1.74569665E-03  1.00628037E-03
 -3.17020346E-04  6.29661517E-04 -1.31465898E-04 -1.45181970E-04  8.06836914E-04
 -1.39132938E-04  7.63471978E-04 -1.11633882E-04 -8.70231455E-04 -8.46766132E-05
 -1.41233763E-04  3.07583711E-05  7.21502715E-04 -6.59311175E-04  3.91151856E-04
  3.92049113E-05  1.02886505E-03 -9.41444509E-04  1.21403106E-03  2.45565105E-04
  1.07367412E-03 -1.21993508E-03  2.35912462E-03 -1.64438076E-04 -1.91287642E-05
 -7.75527531E-04  3.01304957E-07  1.41767651E-06  9.71248566E-06  4.06337854E-07
  5.42695750E-07  2.43168199E-05 -3.72002325E-05  7.76756207E-06  3.00971480E-06
 -1.46458336E-05  6.39592247E-05  6.16644227E-05 -4.05940367E-04  2.87219242E-04
  1.13674571E-04 -4.96867157E-05 -5.71535941E-04  4.33675398E-04  1.96068046E-04
 -1.48788496E-05 -5.16020525E-04  4.50288641E-04  2.01274030E-04 -2.06364144E-03
 -6.54187147E-04 -5.08251034E-04 -6.81109941E-05 -6.46683962E-07  1.24906485E-06
  6.66149107E-08  6.02721282E-06 -5.05962313E-06  3.37026697E-05  4.36449648E-06
  4.16320309E-05  3.08450666E-05  5.22083520E-05 -2.88030631E-03 -4.05546840E-03
  1.14688791E-03 -2.32725272E-03  1.29153669E-02  9.57425765E-03  1.61751650E-03
 -3.25136400E-03  1.89798740E-02  6.09832840E-03  1.42658639E-03 -3.18044095E-03
  1.45240548E-02  8.39142147E-04 -5.03819845E-05 -1.08292184E-04  1.35420963E-03
  3.29347502E-04 -3.44454701E-05  6.44714029E-05 -1.42539513E-06 -5.27330701E-06
  1.45888540E-03  4.96512814E-04  5.37647455E-04  1.24987757E-03 -1.28550195E-03
  9.77837683E-04 -9.40642192E-04  1.76782807E-03 -2.24623227E-03  1.50392478E-03
 -1.44196609E-03  8.40111543E-04 -1.27785166E-03  2.49988236E-03  5.75218365E-03
  3.86289849E-04  1.11127224E-03 -4.98616797E-04 -2.50236634E-04  1.49154302E-05
  1.79281214E-04  1.57257978E-04  4.41779743E-05 -1.99999129E-04 -1.18224721E-04
  4.48508253E-04  5.19692281E-04  5.76998663E-06  8.14859134E-04  1.09903264E-03
  4.57082363E-03 -9.03552513E-04  2.63325859E-03 -2.50058739E-03  6.79528778E-03
 -1.53115328E-03  3.80012827E-03  1.13384640E-03  1.80528823E-03 -4.00405314E-03
  9.78298585E-04 -5.59857175E-03  1.88124756E-03  1.60819177E-04 -9.90931258E-04
 -3.48701822E-04 -4.21985147E-04 -9.53372032E-05 -5.39193208E-05 -1.01116148E-04
  7.76053796E-05 -1.50141096E-03 -5.76927198E-04  1.51087242E-04 -3.16852763E-04
  2.90475910E-05  5.64840792E-05 -4.27832094E-04  1.06139067E-03  1.58454915E-05
 -1.97669317E-04 -6.18830270E-04  1.51538210E-03  2.90943835E-05 -6.53634992E-04
 -5.90233097E-04  1.47445822E-03  2.66292017E-04 -1.12412162E-03 -3.17081817E-04
  4.51985765E-04  1.08316888E-04 -2.93778642E-06 -5.69247143E-06  4.40570248E-06
  4.62237072E-06 -5.60384163E-07 -3.70041815E-05 -6.84300573E-05 -3.20304887E-05
  9.63385039E-06 -1.38826803E-06 -1.52359260E-04 -1.97511148E-04 -7.36625043E-04
  7.08700152E-04  6.99261413E-04  4.86841750E-04 -1.02305195E-03  1.05185539E-03
  1.00459161E-03  5.30105159E-04 -1.04842482E-03  8.56217246E-04  8.37192485E-04
 -1.65462068E-04 -2.38969044E-04  2.00168202E-04 -6.90837025E-05  2.84160637E-06
  4.10026025E-06  1.19341710E-05  4.84598272E-06  7.32729891E-06  8.81958893E-06
  1.11042831E-04  1.05129912E-04  5.55227364E-05 -6.04158339E-05  7.40799668E-04
  1.01454484E-03  1.28558058E-02 -2.92374158E-04 -1.08368022E-03 -2.26349564E-03
  1.84999570E-02 -4.68067343E-04 -1.65035820E-03 -1.72896368E-03  1.56360652E-02
 -2.43149218E-04 -1.22436123E-03 -1.89607841E-04  1.21128658E-03  3.70591506E-04
 -1.86217282E-04 -3.53056858E-05  1.57621835E-04 -2.71782326E-05 -1.78432773E-05
  3.50069930E-05 -2.97336209E-05  1.08114422E-03  5.74411464E-04  7.50038817E-04
 -1.91337606E-03  5.49449498E-04  3.11655771E-04 -1.78304516E-03 -2.89922015E-03
  8.42367745E-04  1.55757923E-04 -2.38807550E-03 -2.69310823E-03 -4.00618206E-04
 -3.83236246E-05  4.45324599E-03  9.95699234E-04  3.60701362E-04 -4.77120087E-04
 -2.25645575E-05  2.03597131E-04 -2.47981184E-05 -1.98054574E-04  3.86907416E-05
  5.06762495E-04  7.30844220E-05 -2.84915236E-04 -3.94669169E-04 -2.50617160E-04
 -1.64500396E-03 -2.11185920E-03 -8.29246138E-04  3.70250614E-03 -3.64055831E-03
  4.52755089E-03 -1.41682841E-03  5.52943418E-03 -5.08497894E-03  1.08693235E-03
 -3.46896984E-03  1.53034516E-03  5.45007175E-04 -4.33370661E-03  1.31182564E-04
  1.27065727E-03 -7.20287304E-04  6.04803641E-04 -4.65563607E-05 -1.77687877E-04
  1.69276081E-04  5.25886885E-05  1.32911798E-03 -6.75225995E-04 -1.15345110E-03
  6.24014903E-04 -4.88593568E-04 -7.01847967E-06 -9.23317074E-06  1.34313765E-03
  1.92150393E-04  1.55191630E-04  1.78394772E-06  1.91340216E-03  2.65875638E-04
  2.31957033E-04 -3.82013047E-05  1.88087316E-03  4.08719625E-04  2.96714034E-04
  9.23318099E-05  4.25465698E-04 -2.29596903E-04 -6.34073935E-05  3.40572074E-06
  4.95404320E-06 -1.95567577E-06 -4.38224270E-06  1.84185911E-06  8.04172695E-06
 -3.21017059E-05 -8.83923950E-05  2.45429749E-05  1.15110240E-05 -2.20449896E-04
 -3.07037846E-04  5.51317081E-04 -4.97054633E-05  8.77070262E-04  8.15065827E-04
  8.37254347E-04 -2.14845362E-06  1.28177029E-03  8.43449202E-04  6.78117715E-04
 -1.77858260E-04  1.15552702E-03 -1.62388708E-03 -1.16166535E-04 -5.90310192E-04
 -2.31327761E-05  1.56020740E-07  3.21083765E-06  5.78050786E-06 -1.13836052E-05
  7.31215307E-06  4.80455188E-06  9.09010457E-05  1.07022111E-04 -1.00496047E-04
 -4.95663456E-05 -1.08118058E-03 -1.55647322E-03 -3.75206254E-04  1.24660393E-02
  2.05014616E-03  3.83579919E-03 -5.77684594E-04  1.79605427E-02  3.09728581E-03
  2.12241243E-03 -3.46343166E-04  1.49821942E-02  1.85782943E-03  4.08033765E-04
  3.66523550E-04  1.33314367E-03  3.60027585E-04  6.69754051E-05 -2.62626844E-05
  1.71980598E-04 -2.88665945E-05 -2.66162120E-05  1.06385031E-04 -1.96314103E-04
  1.04806684E-03 -2.09461829E-04 -2.31281501E-04 -3.76573484E-05  2.75553283E-04
 -2.16842732E-04  4.06342575E-04 -2.64874097E-05  4.59796966E-04 -2.81340164E-04
  7.17406309E-04  1.29264806E-04  5.14621642E-04 -5.45975095E-04 -1.99005964E-03
 -3.59561811E-04 -2.16855084E-04  1.86235748E-04  4.94160172E-05 -2.95785218E-05
 -4.50972952E-05  1.65473880E-05 -8.90097504E-06 -7.80738449E-05  1.57342674E-05
 -6.71208191E-05  8.63980033E-06  7.73874770E-05  1.62829322E-04  1.94560990E-04
 -5.40324704E-04 -5.45540487E-04  2.36471700E-04 -3.75389144E-04 -7.69977276E-04
 -7.80916195E-04  3.00048446E-04 -4.19022428E-04  3.13044214E-04  5.06667266E-04
 -3.14900988E-04  1.94099110E-03 -3.08108686E-04 -3.33633061E-04  3.52036808E-04
 -6.33712430E-05  5.74016826E-05  8.48381049E-05  1.18814891E-05  3.13669163E-07
 -2.88214497E-04  3.34801396E-04  3.89362131E-04 -6.79312226E-05  1.32508704E-04
 -9.89025697E-06 -1.50683485E-05  9.27691848E-05 -4.14484970E-04  4.65365735E-05
  4.12125952E-05  1.36679790E-04 -5.91953302E-04  6.42413507E-05  1.40046183E-04
  1.05437476E-04 -5.78466931E-04 -8.08433455E-06  2.23471023E-04  6.67546757E-05
 -1.13857167E-04  3.36870245E-06 -3.79444434E-08 -1.89799735E-09  3.83618550E-07
  1.62650824E-08 -1.67512410E-07  2.94614602E-06  9.68066898E-06  2.44554312E-05
 -7.09185111E-06 -2.87517126E-06  9.82727883E-05  1.34214684E-04 -2.09968210E-04
 -6.17306320E-05 -8.81584372E-05 -3.36557573E-04 -3.18711597E-04 -1.07916328E-04
 -1.32124200E-04 -3.27887643E-04 -2.16370875E-04 -6.49108874E-05 -1.15296113E-04
  3.30573887E-04  8.17544652E-05  4.22283544E-05  5.86592429E-05  9.32468026E-07
 -1.77876751E-06 -1.76247509E-06 -2.30991006E-06 -5.39916666E-06  5.79485271E-06
 -3.80284762E-05 -2.79723898E-05 -1.50838241E-05  2.72346330E-06  9.02165838E-05
  1.37550381E-04 -1.43019689E-03 -2.78814139E-03  5.76686059E-05 -3.75428315E-04
 -2.05274818E-03 -4.00724391E-03  7.25266445E-05 -1.47540496E-04 -1.73702689E-03
 -3.39332266E-03  1.65943111E-04 -7.37629583E-05 -1.73464612E-04 -3.95939863E-04
 -8.78721995E-06 -2.48319726E-06 -1.65230182E-05 -3.08509667E-05  9.06548739E-06
  9.36415649E-07  1.10581636E-05 -1.01327536E-04 -1.89095772E-04  5.64754841E-05
  1.58039370E-04  6.05208245E-05  4.75881185E-04 -4.75214742E-04 -1.55641033E-04
  3.86361407E-04  7.15418425E-04 -7.57395088E-04 -1.74520645E-04 -3.24907182E-04
  2.43756732E-04 -4.68116313E-04  6.18908855E-04  1.64224238E-03  1.30440377E-04
  3.39257067E-04 -2.94905597E-04 -9.03430928E-06  4.39136779E-06  9.81700904E-05
  4.74468438E-05  4.66735645E-07  1.21192829E-04  2.66442130E-05  2.95731085E-04
  1.57717002E-04 -1.27103623E-04  7.62365950E-05  1.34451292E-04  1.07499002E-03
 -9.44289171E-04  5.01218652E-04 -4.00920184E-04  1.59683905E-03 -1.43325587E-03
  7.97038987E-04  2.56000043E-04  5.82934044E-04 -1.25048804E-03  4.69220006E-04
 -1.62271198E-03  5.20985020E-04 -3.46821890E-05 -2.12652609E-04 -1.00203167E-04
 -1.20580800E-04  1.46156708E-05 -2.74673834E-05 -1.72227387E-05 -9.61536509E-05
 -3.16847525E-04 -2.45322748E-05 -6.19555698E-06 -6.09112485E-05  3.88513627E-05
  4.66397293E-05 -2.57991598E-04  1.29340181E-04 -3.90292987E-05 -6.37020938E-05
 -3.69527005E-04  1.84891852E-04 -5.62197254E-05 -1.85466579E-04 -3.78095190E-04
  1.58701049E-04  2.01600316E-05 -3.86557246E-04 -1.16877212E-04  1.29601714E-04
  8.67708683E-05 -2.50165339E-06 -2.93419689E-06 -1.20971876E-06  2.35275454E-06
 -1.16966911E-06 -1.45562687E-05 -1.25262371E-06  1.17219812E-05 -2.95208568E-06
 -8.88863895E-06 -1.98855866E-04 -2.74726329E-04  4.35828006E-04  4.97562217E-04
 -1.31704679E-03  6.48351496E-04  6.37848667E-04  7.28731259E-04 -1.88585195E-03
  5.28837683E-04  5.00097008E-04  6.19472000E-04 -1.61679541E-03 -3.97524276E-05
  4.07289593E-06  8.61402276E-05 -2.10598421E-04 -1.06362573E-05 -4.15648768E-06
 -6.47309487E-06  2.20354411E-06  1.22459977E-05 -6.19665542E-05 -2.14875038E-05
 -4.57769407E-05  2.48988745E-05  6.17331205E-05 -3.67107247E-05 -5.07757961E-05
  2.86688269E-03 -1.64732452E-03  2.19122890E-04  1.24086532E-04  4.12973148E-03
 -2.37573111E-03  2.99415119E-04  1.47245085E-04  3.46032532E-03 -1.98863756E-03
  3.36285665E-04  1.63726054E-04  2.36550816E-04 -5.14667202E-05  5.35238108E-05
  3.74037259E-06  3.47476512E-05 -2.13391772E-05 -4.58791886E-07  9.41545100E-06
  7.34488313E-05  2.31248435E-04 -1.64837524E-04  3.45215211E-06  8.60971205E-05
 -8.82083257E-04 -1.37018340E-03  1.75334507E-03  1.78211020E-03 -8.13864484E-04
  3.77229821E-03  1.64543127E-03  1.76076025E-03 -5.23089023E-04 -5.25468781E-03
 -6.08232552E-03 -1.11391488E-02 -1.06782791E-02  5.10117736E-02  7.87638543E-03
  7.43165835E-03 -5.21911546E-03 -5.42405215E-05 -1.05587416E-04 -1.19538774E-04
  1.87249454E-05  1.13641867E-04  3.05874838E-04 -5.23167204E-04 -8.53323061E-04
  4.21970458E-04 -1.07160436E-03  1.45012047E-03  1.65760675E-03 -4.25774865E-03
 -5.61651127E-03 -1.53449494E-03 -2.29835662E-03 -2.63703555E-03 -3.69476335E-03
 -1.53911172E-03  3.80261483E-02  1.03081308E-02  1.70206057E-02  1.30378522E-02
 -5.44157495E-02  6.75198406E-03  3.76052506E-03 -1.15833717E-02  9.55130577E-04
 -9.53128950E-04 -1.31637957E-03  7.39250506E-04 -2.03464878E-03  3.19554462E-03
 -1.64302912E-03  8.07361678E-04 -1.60791992E-04  1.55004673E-03  4.75875925E-05
  1.06212241E-04  4.79506962E-04  5.87528557E-04  5.02681501E-05 -6.97657609E-04
  7.90172017E-04  9.60262744E-04  6.12914164E-05  3.31491300E-03  1.08461235E-03
  9.78204811E-04 -8.41739254E-04  6.05866805E-03  5.13095188E-04 -3.49598520E-04
 -2.61101998E-03  7.18460943E-06 -1.04302629E-05  8.33994243E-06 -6.84501673E-06
  4.02537721E-05  6.54459070E-05 -1.50187563E-04 -2.18038641E-04  9.80143004E-05
 -2.01991144E-04 -1.18713460E-05 -4.81483957E-05 -8.44795704E-04 -8.21552488E-04
  4.93270779E-04  5.06493064E-04 -1.01198595E-03 -9.12717827E-04  7.85395439E-04
 -1.42834063E-03 -1.49277256E-03 -1.56389806E-03  5.65970052E-04 -9.51585834E-03
 -1.77157126E-03 -2.36770709E-03 -7.21678345E-04 -2.88957470E-06  3.02855581E-07
 -8.35837912E-06  4.40070358E-06 -1.69072073E-05  6.97884109E-05 -3.17864866E-05
 -1.36997478E-05  1.72364218E-05 -5.70094507E-05 -2.45503980E-04 -4.04755489E-04
  2.38940655E-03  3.49071892E-03  1.78382229E-03  1.32917045E-03  3.56624666E-03
  5.06857569E-03  2.27728888E-03 -3.27021764E-03  2.29049931E-03  2.55451182E-03
 -4.46213740E-04  2.90372473E-03 -1.05520382E-03 -7.77275001E-04  1.29380133E-03
  8.29363404E-05  1.64861851E-05  8.25781446E-05 -2.03132238E-05  1.51234886E-05
  3.26772447E-05  1.06752463E-05 -4.11031027E-05  3.87641711E-05 -1.90990624E-04
  6.33077552E-01 -1.46464053E-03 -2.27091734E-03  2.88948542E-03  2.93127160E-03
 -1.35653200E-03  6.02970639E-03  2.74993653E-03  2.96052258E-03 -8.25631269E-04
 -6.39922573E-03 -8.82231202E-03 -1.57618504E-02 -1.44119210E-02  7.16332943E-02
  1.11131837E-02  1.05755952E-02 -7.11904024E-03 -8.70081637E-05 -1.78122415E-04
 -2.14538192E-04  4.08218244E-05  1.51786931E-04  4.50798704E-04 -5.88429118E-04
 -9.11104081E-04  4.76073632E-04 -1.26574311E-03  2.10677540E-03  2.51622223E-03
 -6.76865476E-03 -8.93016521E-03 -2.44337157E-03 -3.00867788E-03 -4.98111395E-03
 -6.80824620E-03 -2.44203200E-03  5.40745942E-02  1.38914180E-02  2.33402779E-02
  1.86676859E-02 -7.64853718E-02  9.30818479E-03  5.02050012E-03 -1.64145343E-02
  1.67109128E-03 -1.62733389E-03 -2.15515444E-03  1.21726001E-03 -3.31147608E-03
  4.54506266E-03 -2.65434801E-03  4.91541386E-04  5.82149251E-05  1.52339704E-03
  1.06212102E-04  1.91959925E-04  8.34090415E-04  1.02139478E-03  8.58171760E-05
 -1.02049401E-03  1.32208087E-03  1.61273305E-03  1.19061721E-04  4.06366467E-03
  1.61431877E-03  1.59632265E-03 -8.70441519E-04  7.97639573E-03  7.28304659E-04
 -4.39718516E-04 -3.55223958E-03  1.91101586E-05 -2.62122424E-05  1.54100729E-06
 -4.96245718E-06  5.07499483E-05  6.38231471E-05 -1.94649291E-04 -3.03796825E-04
  1.33894703E-04 -2.79048499E-04 -4.81253465E-05 -9.99113255E-05 -1.36812422E-03
 -1.31947456E-03  8.28807988E-04  7.71818040E-04 -1.73343303E-03 -1.58064366E-03
  1.29832250E-03 -2.21607312E-03 -2.38835727E-03 -2.49081830E-03  9.36434160E-04
 -1.37207608E-02 -2.60724665E-03 -3.48455291E-03 -1.06205142E-03 -7.73233095E-07
 -2.34260435E-06 -1.43689505E-05  7.74397811E-06 -2.75405619E-05  1.05994984E-04
 -4.08402468E-05 -1.98945544E-05  2.83564281E-05 -1.06857208E-04 -4.04751384E-04
 -6.50132172E-04  3.99191782E-03  5.80509345E-03  2.90731567E-03  2.00108993E-03
  5.90880371E-03  8.41048099E-03  3.80726239E-03 -4.21376214E-03  3.99682575E-03
  4.73145585E-03 -3.25819441E-05  4.03144035E-03 -1.35786019E-03 -9.61159907E-04
  1.77127684E-03  1.26683030E-04  2.01838403E-05  1.13042342E-04 -2.48201973E-05
  5.49017181E-06  1.22910293E-04  5.80463362E-05  6.23972463E-05  1.90810942E-05
 -2.29605104E-04  5.70568880E-01  5.32294209E-01 -5.03184611E-03 -8.00107238E-03
 -1.06375141E-02  2.09588155E-02 -1.39330433E-02  2.05150098E-02 -1.99002863E-02
  2.79429353E-02 -1.53178745E-02  5.08974775E-03 -3.84345174E-02  3.74792910E-03
 -1.69384613E-02  5.40307474E-02 -4.15981802E-03  7.23669309E-03 -1.19618609E-02
  1.68608032E-03 -5.48147666E-04 -1.23473290E-03 -1.73038693E-05 -1.14369509E-03
  1.58626079E-03  1.10058187E-03  2.36939973E-03 -8.94406888E-04 -8.79501107E-04
  1.13160729E-02  1.78319659E-02 -2.02040862E-02 -3.92319854E-02 -1.46643225E-02
 -5.13705156E-02 -2.85175485E-02 -5.56771529E-02 -2.17216327E-02  9.47236464E-03
 -1.95766305E-02  1.38744936E-03  2.09400415E-02 -5.02173856E-02  2.02208235E-02
  8.98738689E-03 -5.24647346E-03  1.02047457E-03 -1.61947328E-03 -5.10004995E-03
  9.85991068E-03 -1.16745893E-03 -4.10031186E-03 -4.22589172E-03 -9.45702933E-03
  1.82068258E-02  6.82266609E-03 -2.14411538E-04 -3.73793293E-04  8.26717276E-03
 -2.25069718E-03 -2.61051454E-04  1.56800948E-03  1.19486854E-02 -3.03789492E-03
 -5.60112225E-04 -6.09500835E-05  1.10646300E-02 -4.32112071E-03  2.02575053E-03
  3.88206111E-03  8.17076714E-03 -5.04444846E-03  7.53042075E-04  1.93046918E-04
  4.14537389E-05 -1.47828200E-04  1.50809939E-05  7.60705564E-05  4.10935293E-04
  7.42918843E-04 -5.42470637E-04  2.12431224E-04 -4.41102621E-04  8.45253925E-04
  1.36881152E-03  1.11086320E-03 -1.20269700E-02  4.52048136E-03 -3.91746103E-03
  1.39712488E-03 -1.73795789E-02  6.38758139E-03 -1.13161618E-02  1.78336979E-04
 -1.95482419E-02  6.22170459E-03 -1.71846394E-02  2.52909416E-03 -8.65052699E-03
  8.58012920E-05 -3.20726699E-05 -1.12298083E-04 -6.99869012E-05 -1.26462212E-04
 -6.59263687E-05  9.84993015E-05 -4.71894020E-04 -5.58022714E-04 -9.13889056E-04
 -5.44894824E-04  2.89448236E-04  5.20788997E-04  4.94674744E-04  9.43997848E-03
 -1.28115250E-03 -2.29231813E-03  4.87564190E-04  1.35394883E-02 -2.32598831E-03
  1.34290136E-03  6.26803331E-04  9.85439649E-03  6.66533179E-04  2.03274503E-02
  3.54177670E-04  4.71534159E-03  6.04712173E-03  4.04936213E-05 -5.79901914E-05
  5.52488271E-05  1.14524942E-04  2.04764003E-05 -2.19854504E-04 -1.09054030E-03
 -5.56799583E-04  6.44882835E-04  2.06862103E-04 -5.50954978E-03 -8.68591552E-03
  1.84376841E-01 -5.07955487E-03 -8.06838365E-03  2.29549865E-02 -6.72681598E-03
 -3.71136099E-03  2.17178036E-02  2.97655980E-02 -1.35919574E-02 -2.00066163E-03
  1.39254855E-02  1.33195194E-02 -3.62941392E-02 -1.43494493E-02  1.93267049E-02
  5.05531984E-03 -9.20646659E-03 -3.39979790E-03  1.06897059E-03 -1.43810420E-03
 -4.13047814E-04  9.41049868E-04 -1.16118326E-03  6.24321276E-03 -6.15149801E-04
  1.91886825E-03  6.89607643E-04 -3.34360996E-03  1.66650077E-02  2.63052006E-02
 -3.89046480E-02 -4.47119135E-02 -1.86715507E-02 -7.60233756E-02 -5.51196260E-02
 -6.33809476E-02 -2.62559346E-02 -6.14170807E-03  2.12569546E-03 -4.07073445E-03
  2.09022016E-02 -1.59486175E-02  3.95005273E-03  1.55252620E-02 -5.11496542E-04
  2.69994392E-03 -5.85678727E-03 -5.20210267E-03 -4.07844943E-03 -6.96879968E-03
  5.41746445E-03 -1.07577888E-02 -8.21438070E-03 -1.00814901E-02 -6.17782280E-03
  1.31522643E-05  2.16079135E-05 -3.10638873E-03  5.20149322E-03 -3.25415573E-03
 -4.85004493E-05 -4.32951683E-03  7.58438317E-03 -4.39219451E-03 -2.76727045E-03
 -5.22376261E-03  8.08295086E-03 -2.85890537E-03  1.52647896E-02 -4.32782400E-03
  4.89131854E-03 -7.15519325E-03  2.36717515E-05 -1.71391787E-04  9.92193007E-05
  7.46445359E-06 -3.16327975E-05 -2.82501414E-04 -7.05455936E-04  5.47833305E-05
  5.77436925E-05 -5.03375503E-04  8.22871335E-04  1.32152335E-03 -1.20311313E-02
 -1.42760036E-03  5.67935993E-04 -3.65362536E-03 -1.72306861E-02 -2.17416154E-03
  7.05842938E-04 -9.36657276E-03 -1.88516587E-02 -2.97124860E-03  2.25748140E-03
 -1.84501380E-02 -8.11812086E-03 -1.08217314E-03 -3.51722328E-03  2.97462218E-06
 -1.59130828E-05 -1.12687385E-04  1.64353209E-04  2.19757066E-06  2.39748817E-04
  8.27056940E-05  3.60960387E-05  1.01594433E-03 -2.23185266E-04 -1.27251050E-03
 -2.06844272E-03  1.20697905E-02  9.75970123E-03  8.96284147E-03  6.28227497E-03
  1.74858565E-02  1.37183275E-02  1.25452631E-02  3.78977653E-03  1.34487633E-02
  1.22178330E-02  1.01504591E-02  1.63739624E-02  2.56805718E-03  3.52738706E-03
  6.06667741E-03  1.82605316E-04 -1.32268407E-04 -1.37429828E-04 -4.35286946E-05
 -6.53029032E-05  5.10510659E-04 -7.07898201E-04 -1.12493975E-03 -6.59696920E-05
  2.14367758E-04 -7.61910183E-03 -1.20089811E-02 -2.42543203E-02  1.68599820E-01
  2.42962263E-03  3.88658964E-03 -8.49781200E-03  2.73987890E-03  2.32331233E-03
 -7.15920212E-03 -1.03565447E-02  3.88875942E-03 -4.11615236E-03  2.14803988E-02
  9.12320088E-03  1.65807765E-02 -3.11657026E-02 -1.21975185E-01 -1.78969869E-02
 -1.04464556E-02  1.54431647E-02 -8.65238091E-04  3.67141487E-04 -1.36217292E-04
 -3.66646816E-04  1.00064365E-03  1.15216739E-02 -6.22580178E-03 -2.33901202E-03
  2.43922647E-03 -6.87406179E-03  8.81159485E-03  1.40061477E-02 -1.37729759E-02
 -1.76139084E-02  4.86178215E-03 -4.10108286E-02 -2.02035715E-02 -2.44546855E-02
  1.03758467E-02 -4.73566135E-02  2.29486764E-02  2.32897803E-02 -2.50162078E-02
  1.18850606E-01 -1.89616043E-02 -1.67911525E-02  2.65819596E-02  7.66597327E-03
  2.68009498E-03  5.30609264E-03  2.14875321E-03 -5.32458842E-03  3.20452406E-02
  5.57926819E-03  1.89490908E-02  4.50931742E-03 -2.08851771E-02  7.29039722E-04
  1.26736393E-03 -2.59094748E-03 -6.01957133E-03  2.06347036E-03 -5.20153201E-03
 -4.07704970E-03 -8.56651954E-03  4.18297707E-03 -7.34018310E-03 -4.31478003E-04
 -5.77572511E-03  9.96776408E-04  2.90309918E-02  2.70592258E-03 -4.83783502E-03
 -9.26988778E-03 -9.61295409E-05  2.21946123E-04  6.74322614E-05 -3.38179287E-05
 -6.14804498E-05 -1.17522236E-04 -7.07432004E-04 -8.87759575E-04  9.18180149E-05
  1.32192314E-03 -4.90937133E-04 -8.25099796E-04  4.50875599E-03  5.53802871E-04
 -4.23121754E-04  2.71132027E-03  6.79255414E-03  1.18624096E-03 -7.09144469E-04
  1.10670983E-02  8.11794513E-03  4.50776616E-03  4.60983971E-03  5.28781520E-03
  1.53338891E-03 -1.79912346E-03 -1.29069725E-05 -2.10667414E-05 -5.39326805E-05
 -4.90819491E-05 -3.25964386E-05 -1.18060386E-05  2.24732034E-04  5.74559845E-04
  8.99299991E-04 -6.19569224E-04 -2.63411003E-06 -4.40138259E-03 -7.31693051E-03
  5.88141720E-03  1.74635918E-02  2.06967632E-02  2.45195695E-02  8.42233965E-03
  2.53016385E-02  3.00465463E-02  5.98300777E-03  1.04558606E-02  2.17689510E-02
  1.80222352E-02 -2.11004980E-02  1.98702685E-04 -8.72537364E-04 -4.76594430E-03
  2.40546009E-04 -2.95592193E-04 -2.48476615E-04  1.63599159E-04 -2.05536616E-04
  9.93596076E-04 -1.40228817E-05  7.83463155E-04  4.29489740E-05 -3.36520037E-04
 -2.94254931E-03 -4.63170036E-03 -9.16390218E-03 -1.25123926E-02  1.97520611E-01
  4.96945808E-03  7.58256681E-03 -9.16433465E-03 -9.24135282E-03  4.45354274E-03
 -1.90890472E-02 -9.07434025E-03 -9.73723184E-03  2.81165477E-03  1.20028942E-02
  2.26951450E-02  3.86572088E-02  3.19269528E-02 -1.77629450E-01 -2.79249346E-02
 -2.69662109E-02  1.68204847E-02  3.61905559E-04  5.26851423E-04  6.99409431E-04
 -1.29870510E-04 -4.65061144E-04 -8.93606044E-04  7.21286502E-04  1.06661232E-03
 -6.52908330E-04  2.00823511E-03 -3.34623024E-03 -4.08485418E-03  1.85518598E-02
  2.43083645E-02  6.23971170E-03 -7.12969981E-05  1.55363167E-02  2.06100379E-02
  5.91415958E-03 -1.37518351E-01 -3.11240983E-02 -5.42576433E-02 -4.71722512E-02
  1.89872942E-01 -2.22520466E-02 -1.12656278E-02  4.12459061E-02 -5.34841325E-03
  5.15387063E-03  6.44494147E-03 -3.63775579E-03  9.63048232E-03 -1.12601210E-02
  7.95047783E-03  1.45071006E-03 -1.27881805E-03 -1.26312696E-03 -6.97642541E-04
 -1.02048071E-03 -3.43975445E-03 -4.19329474E-03 -3.02411112E-04  3.56612647E-03
 -5.16778772E-03 -6.30512267E-03 -4.68647857E-04 -6.91641699E-03 -5.23715154E-03
 -5.90725761E-03  8.39524604E-04 -1.65308771E-02 -1.80093065E-03  7.72410656E-04
  7.92610745E-03 -8.21068820E-05  1.19631219E-04  4.84309739E-05 -9.92623385E-06
 -1.01492791E-04 -5.58028536E-05  4.81206428E-04  8.08150052E-04 -3.36147038E-04
  6.58770844E-04  5.05369417E-04  7.70322055E-04  3.91667663E-03  3.64900715E-03
 -2.72216966E-03 -3.22035476E-03  5.24380289E-03  4.68697088E-03 -4.18495704E-03
  5.23872868E-03  6.79551598E-03  6.96187720E-03 -3.00518791E-03  3.49824092E-02
  6.90596516E-03  9.19560702E-03  2.72039550E-03 -6.24367504E-06  1.55309433E-05
  4.45180129E-05 -2.34856936E-05  7.49822808E-05 -2.63899462E-04  6.00939377E-05
  2.99619960E-05 -7.38728953E-05  3.43197079E-04  1.32917116E-03  2.00111961E-03
 -1.36477393E-02 -1.94796256E-02 -8.94001293E-03 -5.36840668E-03 -1.99752620E-02
 -2.81474774E-02 -1.20949048E-02  9.07496268E-03 -1.45825030E-02 -1.81909986E-02
 -2.40899400E-03 -9.15950501E-03  2.61836408E-03  1.66185269E-03 -3.93735336E-03
 -3.63647584E-04 -5.50234740E-05 -2.96096209E-04  5.48754116E-05  4.64592916E-05
 -6.59746953E-04 -4.34414799E-04 -8.11725493E-04  1.45354153E-04  4.11763602E-04
 -1.46023352E-01 -2.47253603E-01  2.77013699E-02  3.82006558E-02  1.45031210E-02
  7.74378996E-01 -7.12319795E-03 -1.15142247E-02 -1.48994570E-02  3.01521170E-02
 -2.02793767E-02  3.00725515E-02 -2.81208173E-02  4.01188701E-02 -2.22734970E-02
  7.34697786E-03 -5.53289756E-02  4.72948133E-03 -2.46920705E-02  7.98594610E-02
 -5.68505883E-03  1.06366210E-02 -1.74567992E-02  2.39937359E-03 -7.88838825E-04
 -1.76622039E-03 -1.07466723E-05 -1.63006755E-03  2.22154520E-03  1.66183387E-03
  3.51712691E-03 -1.28286025E-03 -1.25120478E-03  1.66652888E-02  2.62550205E-02
 -2.96443568E-02 -5.74886233E-02 -2.10379164E-02 -7.55337825E-02 -4.17573928E-02
 -8.15174608E-02 -3.11610018E-02  1.47099152E-02 -2.78219872E-02  2.11276905E-03
  3.06828259E-02 -7.44315744E-02  2.94776634E-02  1.32181715E-02 -7.92444581E-03
  1.52636228E-03 -2.40276874E-03 -7.48558570E-03  1.42373404E-02 -1.83742250E-03
 -5.79584999E-03 -6.17861196E-03 -1.37181352E-02  2.61944059E-02  9.84342971E-03
 -3.64289155E-04 -6.01108880E-04  1.22772258E-02 -2.52984207E-03 -2.38174900E-04
  2.34837808E-03  1.77449273E-02 -3.34848165E-03 -6.04050286E-04  8.87471381E-05
  1.63761406E-02 -5.34815681E-03  3.03987704E-03  5.86442825E-03  1.17952969E-02
 -7.13577424E-03  9.67036932E-04  2.75364073E-04  5.36801560E-05 -2.18901365E-04
  2.37890230E-05  1.10410938E-04  5.79176419E-04  1.03219647E-03 -8.24264781E-04
  3.22221456E-04 -6.45628605E-04  1.01195499E-03  1.73360484E-03  1.39885270E-03
 -1.72240871E-02  6.80544050E-03 -5.24348654E-03  1.73084279E-03 -2.48826066E-02
  9.62509883E-03 -1.61806740E-02 -7.89106693E-05 -2.80971132E-02  9.34138948E-03
 -2.52050348E-02  3.49025544E-03 -1.25129652E-02  8.59773913E-05 -4.84903710E-05
 -1.60760235E-04 -1.00718170E-04 -1.81079626E-04 -9.26657078E-05  1.44578758E-04
 -6.68767636E-04 -7.89527341E-04 -1.31233903E-03 -7.79976876E-04  6.28659298E-04
  1.02424127E-03  6.95797235E-04  1.38608934E-02 -2.12348119E-03 -3.86085744E-03
  6.83018003E-04  1.98743896E-02 -3.77897555E-03  1.43001017E-03  8.58315724E-04
  1.45136295E-02  5.90840922E-04  2.94507777E-02  4.38048421E-04  6.85217822E-03
  8.71334742E-03  5.13896256E-05 -8.43261191E-05  7.31987001E-05  1.65923196E-04
  2.88424543E-05 -3.57250071E-04 -1.57294971E-03 -8.31598950E-04  9.32971155E-04
  2.96064513E-04 -5.91840192E-03 -9.89600913E-03  2.66028453E-01 -3.38329270E-02
 -1.29299360E-02  3.43814671E-02  3.83903557E-01 -7.15557150E-03 -1.16208507E-02
  3.32301802E-02 -9.29821403E-03 -5.87597116E-03  3.20196115E-02  4.29719220E-02
 -1.91015436E-02 -3.50226703E-03  2.01091019E-02  1.85761327E-02 -5.27064060E-02
 -2.12412245E-02  3.08789473E-02  7.65319232E-03 -1.28951692E-02 -5.25730845E-03
  1.51127034E-03 -2.06075146E-03 -6.14521087E-04  1.33774363E-03 -1.65378624E-03
  8.93999800E-03 -7.54062994E-04  2.85438395E-03  9.20214167E-04 -4.79802182E-03
  2.45442590E-02  3.86957677E-02 -5.72184883E-02 -6.54933104E-02 -2.68893190E-02
 -1.11571294E-01 -8.09744664E-02 -9.26984569E-02 -3.78189786E-02 -7.23208010E-03
  2.97751887E-03 -5.28726315E-03  3.07484794E-02 -2.60889976E-02  6.21428277E-03
  2.27834410E-02 -1.30842424E-03  3.94108519E-03 -8.56598540E-03 -7.67317564E-03
 -5.76147212E-03 -1.02486227E-02  7.88509551E-03 -1.56930508E-02 -1.19389039E-02
 -1.44296054E-02 -8.84747319E-03  4.71960039E-06  2.09091598E-05 -3.82132895E-03
  8.20049443E-03 -4.35671775E-03 -8.42015530E-05 -5.29439117E-03  1.19509694E-02
 -5.84282183E-03 -3.85972960E-03 -6.71156032E-03  1.24779890E-02 -3.75696505E-03
  2.23190884E-02 -6.06296542E-03  7.09325481E-03 -1.04014531E-02  3.00949274E-05
 -2.52270244E-04  1.32094647E-04  1.30560839E-05 -4.34542958E-05 -4.26327129E-04
 -1.04717404E-03  9.81740966E-06  1.02162127E-04 -7.37399040E-04  9.13455307E-04
  1.58216650E-03 -1.73830763E-02 -2.17297969E-03  1.20180071E-03 -4.69087410E-03
 -2.48885060E-02 -3.28853898E-03  1.56956785E-03 -1.33237084E-02 -2.73058668E-02
 -4.54386116E-03  3.75641810E-03 -2.72251044E-02 -1.17601936E-02 -1.76470876E-03
 -5.08455160E-03  9.03401916E-07 -2.32537461E-05 -1.63842273E-04  2.35342854E-04
  5.13832553E-06  3.45817725E-04  1.23368210E-04  6.03782430E-05  1.45320247E-03
 -3.20101673E-04 -1.59507807E-03 -2.66977021E-03  1.78074980E-02  1.41081568E-02
  1.25673728E-02  8.41256411E-03  2.57982204E-02  1.98241752E-02  1.75363587E-02
  4.88323202E-03  1.98860035E-02  1.76210926E-02  1.41849157E-02  2.38801313E-02
  3.75675390E-03  5.05035537E-03  8.80077608E-03  2.52509453E-04 -1.91150337E-04
 -2.05774701E-04 -6.06853136E-05 -9.46698529E-05  6.77189076E-04 -1.02128390E-03
 -1.66313459E-03 -8.52562443E-05  3.08942989E-04 -8.13551918E-03 -1.36084316E-02
 -3.36645410E-02  2.44040190E-01 -1.78210124E-02  4.71983906E-02 -4.68133030E-02
  3.53356041E-01  3.53518012E-03  5.56653718E-03 -1.18981733E-02  4.07187661E-03
  2.97101290E-03 -9.99366459E-03 -1.45070725E-02  5.71684111E-03 -6.35308109E-03
  3.10280503E-02  1.30098993E-02  2.35038262E-02 -4.49948593E-02 -1.73984727E-01
 -2.55737532E-02 -1.48945842E-02  2.20539281E-02 -1.26248423E-03  5.13350442E-04
 -2.20694252E-04 -5.14216532E-04  1.43567617E-03  1.65911150E-02 -8.93898232E-03
 -3.32359154E-03  3.51319412E-03 -9.90386278E-03  1.29811326E-02  2.05270691E-02
 -2.03025635E-02 -2.60169136E-02  7.05218663E-03 -5.97255640E-02 -2.96828706E-02
 -3.60653054E-02  1.50063495E-02 -6.72608958E-02  3.30350593E-02  3.35454703E-02
 -3.55300909E-02  1.69487209E-01 -2.69936763E-02 -2.39434317E-02  3.79274707E-02
  1.10435454E-02  3.78410831E-03  7.51299100E-03  3.13447339E-03 -7.74194133E-03
  4.61156074E-02  7.90564060E-03  2.71197944E-02  6.51456112E-03 -2.99991963E-02
  1.19063555E-03  2.00039639E-03 -3.75497912E-03 -8.53083100E-03  3.23886339E-03
 -7.82178792E-03 -5.90298615E-03 -1.21321294E-02  6.41841718E-03 -1.07997071E-02
 -6.72082426E-04 -8.16308594E-03  1.76299183E-03  4.18381534E-02  3.89047050E-03
 -6.93238165E-03 -1.33511437E-02 -1.44314786E-04  3.18151438E-04  9.25969081E-05
 -4.77756559E-05 -8.74471800E-05 -2.01439691E-04 -1.01640287E-03 -1.29718463E-03
  1.37428651E-04  1.89271940E-03 -7.83057425E-04 -1.29434265E-03  6.37185177E-03
  6.86879785E-04 -7.09173284E-04  4.17237726E-03  9.60823904E-03  1.54920134E-03
 -1.16498487E-03  1.60133344E-02  1.14949994E-02  6.31203899E-03  6.51855089E-03
  7.30948802E-03  2.13263081E-03 -2.65544922E-03 -6.68275328E-05 -3.16828559E-05
 -7.96288219E-05 -7.42154385E-05 -4.54521324E-05 -1.72683215E-05  3.19125243E-04
  8.16369077E-04  1.27697098E-03 -8.84139463E-04 -5.75545036E-06 -6.37635866E-03
 -1.05820060E-02  8.62544821E-03  2.53245013E-02  2.94523015E-02  3.53914809E-02
  1.23550782E-02  3.66846171E-02  4.27450732E-02  8.68036970E-03  1.52225433E-02
  3.15505527E-02  2.55378524E-02 -3.01426299E-02  2.82545932E-04 -1.20247036E-03
 -6.82692491E-03  3.40852649E-04 -4.24251821E-04 -3.59886268E-04  2.35574803E-04
 -2.95681776E-04  1.40226440E-03 -2.23431657E-05  1.10814380E-03  6.46592589E-05
 -4.80932087E-04 -3.02755905E-03 -5.07660934E-03 -1.24712907E-02 -1.72767474E-02
  2.83792625E-01  1.74174216E-02 -1.75365988E-02 -2.45387480E-02  4.07773927E-01
  1.23404923E-03  3.23806785E-03 -1.14017074E-02 -1.23127000E-02  3.32037573E-03
 -1.19493763E-02 -1.33497472E-02 -1.52304684E-02  1.66998051E-03  8.59562312E-03
  1.54975995E-02  2.78943753E-02  2.58788543E-02 -1.41975570E-01 -2.24465130E-02
 -2.21713102E-02  1.21714055E-02  4.81755658E-04  9.83007069E-04  1.38608844E-03
 -3.48978585E-04 -3.34399793E-04  3.21109258E-03  6.59988425E-04  2.67998376E-03
 -4.60714006E-04 -7.73835777E-04 -8.94632660E-04  2.50980987E-03  1.14576463E-02
  1.29768079E-02 -1.69207523E-03 -2.59865133E-02  6.56668910E-03  6.58472420E-03
 -3.29239668E-03 -1.22735822E-01 -2.74484590E-02 -4.62442484E-02 -3.72277991E-02
  1.52404271E-01 -1.68364358E-02 -7.31790528E-03  3.44919065E-02 -3.13579759E-03
  3.63635786E-03  4.84109466E-03 -2.55980274E-03  6.44151052E-03 -4.78240530E-03
  3.80480272E-03 -3.01554233E-04  1.77912929E-04 -4.13235073E-03  3.31440241E-03
  4.06320297E-03 -3.72350864E-03 -5.80029721E-03 -3.76356382E-03 -6.91634520E-03
 -5.56753841E-03 -8.54362459E-03 -5.27545740E-03 -1.61046279E-02 -5.41988413E-03
 -7.26119067E-03 -2.25905582E-03 -1.18407789E-02 -1.10989192E-03  6.10682063E-04
  5.25132421E-03 -2.67597920E-05  1.21042909E-04  9.10583466E-05 -1.93409798E-05
 -9.35169967E-05 -2.18957187E-05  5.25195436E-04  8.36187149E-04 -3.27261447E-04
  5.37708213E-04 -1.40827285E-03 -2.18783474E-03  1.12669264E-02  9.32434534E-03
 -1.10266607E-02  5.16665570E-03  1.61101117E-02  1.32634957E-02 -1.59544396E-02
  9.86093375E-03  1.48467984E-02  1.29129494E-02 -1.28251904E-02  2.52128640E-02
  6.08869377E-03  7.25991193E-03  8.99882082E-05 -1.31927149E-04  2.00116569E-05
  3.71239763E-05 -5.42315318E-05  2.57410740E-04 -8.35269270E-04  1.52845541E-04
  4.98809858E-05 -2.19957102E-04  1.08695862E-03 -3.27302847E-03 -4.21904206E-03
 -2.45323991E-03 -4.73183312E-03 -4.95767736E-03  9.09419986E-03 -3.81757062E-03
 -6.89228461E-03 -6.43186326E-03  1.72207745E-02 -1.41776914E-03 -1.41449250E-03
  7.30295816E-04 -5.27540800E-03  3.45100315E-03  3.29616934E-03 -2.17751649E-03
 -2.56271827E-04 -4.61324557E-06 -1.78111783E-04  3.24488255E-05  5.60449538E-06
 -3.20608632E-04 -1.51845817E-04 -2.06061649E-04 -2.33531669E-05  4.91937286E-04
 -1.47316301E-01 -2.28949987E-01  3.27167091E-02  4.95022477E-02  2.90694799E-02
  6.50650523E-01  4.26632671E-02  6.49688727E-02  3.90426301E-02  5.54669950E-01
 -5.03971118E-03 -8.78594989E-03 -1.46075188E-02  3.01395850E-02 -1.80005576E-02
  2.46859425E-02 -2.67907421E-02  4.10263844E-02 -2.01282254E-02  7.62613778E-03
 -4.94814435E-02  9.62999575E-03 -2.23337197E-02  6.35759826E-02 -5.68974869E-03
  8.94561206E-03 -1.39240120E-02  2.13171908E-03 -8.64859220E-04 -2.11326136E-03
 -2.04332116E-04 -1.41597419E-03  1.13021412E-03  1.14066360E-03  1.48554704E-03
 -1.61731683E-03 -4.27525282E-04  1.27309201E-02  1.88674788E-02 -2.66596010E-02
 -4.27106697E-02 -1.63730243E-02 -5.06683490E-02 -3.74449103E-02 -5.98918771E-02
 -2.49297371E-02  1.65656845E-02 -2.66261719E-02  6.68409603E-03  2.39496891E-02
 -5.91952369E-02  2.35718720E-02  1.01873624E-02 -6.78840658E-03  7.90294944E-04
 -1.88049254E-03 -5.87425892E-03  1.22112194E-02 -9.07924296E-04 -6.43672469E-03
 -4.37831804E-03 -1.04561310E-02  2.24603253E-02  9.29015579E-03 -9.72551969E-04
 -1.25240844E-03  1.01217756E-02 -5.77986610E-03  1.09915458E-03  3.05075426E-03
  1.46283873E-02 -8.05190472E-03  1.32342470E-03  1.55529000E-03  1.37745063E-02
 -9.33272306E-03  3.98155590E-03  4.23763532E-03  1.05094979E-02 -7.34644163E-03
  1.60219182E-03  2.33830508E-04  7.20854711E-05 -1.90502239E-04  1.16626021E-05
  1.00853919E-04  5.22010987E-04  1.05696056E-03 -6.66674923E-04  2.19258327E-04
 -5.06176507E-04  1.48720667E-03  2.38040156E-03  1.90368363E-04 -1.88357234E-02
  8.11857588E-03 -6.77432305E-03 -6.34415613E-05 -2.72854097E-02  1.14950763E-02
 -1.48862686E-02 -6.13089836E-04 -2.88068594E-02  1.06989991E-02 -1.95579422E-02
  3.89767849E-03 -1.13002429E-02  1.10626192E-03  9.18949711E-06 -1.47751440E-04
 -9.27279104E-05 -1.60034598E-04 -1.58468168E-04  3.20176765E-04 -6.81240987E-04
 -7.58997907E-04 -1.15723876E-03 -9.63244190E-04  1.37670289E-03  2.02240705E-03
 -1.62388734E-03  6.35946229E-03 -1.57296909E-03 -6.09400722E-03 -2.61638298E-03
  9.12014496E-03 -2.86143175E-03 -1.03192308E-03 -1.68323557E-03  5.47209888E-03
  7.20215011E-04  2.37774793E-02  7.93771710E-04  4.21857033E-03  7.27143526E-03
  4.35789064E-05 -1.09420414E-04  6.73890334E-05  1.48628761E-04  2.86406471E-05
 -3.31632290E-04 -1.56295561E-03 -7.37560149E-04  8.59533579E-04  1.58879702E-04
 -6.55843297E-04 -3.02953560E-03  2.22059182E-01 -3.94041285E-02 -1.67160662E-02
  1.86701997E-02  3.20392964E-01 -5.51785032E-02 -2.31756557E-02  2.44571771E-02
  2.69043597E-01 -5.00607896E-03 -8.65816005E-03  3.19630867E-02 -8.90356621E-03
 -3.44838109E-03  2.53662052E-02  4.24040531E-02 -1.75236029E-02 -7.15295578E-04
  1.80278028E-02  2.15086125E-02 -4.48686472E-02 -1.60401453E-02  2.16607696E-02
  6.21350199E-03 -1.13056546E-02 -3.11881170E-03  1.05896540E-03 -2.15911901E-03
 -7.91481298E-04  1.53044043E-03 -1.35947556E-03  5.68327673E-03 -1.37663750E-03
  1.43719985E-03  1.50747949E-03 -2.97547611E-03  1.93131798E-02  2.87678997E-02
 -4.21398292E-02 -5.25946445E-02 -1.86444191E-02 -7.77829015E-02 -5.87989215E-02
 -7.42973435E-02 -2.67488983E-02 -1.01063627E-03  7.71222842E-03 -6.37394966E-03
  2.53915428E-02 -1.79733104E-02  4.19413996E-03  1.74374304E-02 -1.16633189E-03
  2.77654745E-03 -6.76766674E-03 -6.24490505E-03 -5.46805454E-03 -7.80061078E-03
  4.84747147E-03 -1.16903952E-02 -9.53541204E-03 -1.34722433E-02 -6.11928565E-03
 -7.24551062E-04 -7.76549877E-04 -6.68208799E-03  6.31403620E-03 -2.96146953E-03
  9.52750887E-04 -9.41487801E-03  9.19931700E-03 -3.94674775E-03 -1.48581240E-03
 -1.01214508E-02  9.83410713E-03 -2.78688339E-03  1.75161059E-02 -6.56552274E-03
  6.33553314E-03 -8.35696178E-03  8.35240535E-07 -2.10977719E-04  1.33406116E-04
  9.76027120E-06 -3.48520211E-05 -4.44067655E-04 -8.52483115E-04  1.84547536E-04
  5.98102977E-05 -6.26443843E-04  1.55641230E-03  2.48044119E-03 -1.95327340E-02
 -2.95508427E-03  4.50797700E-03 -6.93572686E-03 -2.80751133E-02 -4.52131829E-03
  6.31140697E-03 -1.29370634E-02 -2.88019107E-02 -4.63403761E-03  7.02998102E-03
 -2.04599052E-02 -1.08320582E-02 -3.60147011E-04 -3.44586651E-03  6.17879574E-05
 -8.43573990E-06 -1.17093066E-04  2.26395771E-04 -7.06175559E-05  5.57491880E-04
  1.04781204E-04  8.75705297E-05  1.38499877E-03 -5.58796190E-04  4.83468077E-04
  2.54819519E-04  9.96030433E-03  7.98390890E-03  9.89121273E-03  1.06572077E-03
  1.45017088E-02  1.10866241E-02  1.37862069E-02 -6.45360237E-04  1.04120088E-02
  1.02622287E-02  1.08292038E-02  1.81549945E-02  1.75372261E-03  3.95750021E-03
  6.50123411E-03  2.25900963E-04 -1.57708540E-04 -1.94778836E-04 -5.50954644E-05
 -5.98709386E-05  6.14644330E-04 -8.18977845E-04 -1.59935358E-03 -4.58680732E-05
  2.13268281E-04 -1.21762232E-03 -4.59429579E-03 -3.84773472E-02  1.95439148E-01
 -2.44752469E-02  2.65464907E-02 -5.40609041E-02  2.82955682E-01 -3.43238022E-02
  3.97638696E-02 -5.72847388E-02  2.28655789E-01  2.65499845E-03  4.81703609E-03
 -1.30365573E-02  2.44381683E-03  3.22425339E-03 -1.07037555E-02 -1.63804275E-02
  3.73428243E-03 -4.46775077E-03  2.44567366E-02  1.00087448E-02  2.23444137E-02
 -3.60030647E-02 -1.46461904E-01 -2.13574512E-02 -1.19444262E-02  1.89725493E-02
 -1.40562923E-03  6.92247365E-04 -1.41557169E-04 -6.32064019E-04  1.45785930E-03
  1.25733905E-02 -7.15186342E-03 -3.22039150E-03  2.59475593E-03 -7.44536658E-03
  1.14509275E-02  1.73665358E-02 -1.48184085E-02 -1.67996202E-02  6.40560885E-03
 -4.80731574E-02 -2.19533579E-02 -2.32169726E-02  1.30340072E-02 -5.63117903E-02
  2.67472043E-02  2.87161970E-02 -3.30968399E-02  1.42346496E-01 -2.31058451E-02
 -2.05351161E-02  3.16432423E-02  8.94964522E-03  3.46425086E-03  6.65846591E-03
  2.61385877E-03 -6.19560976E-03  3.79267157E-02  7.03650700E-03  2.31623337E-02
  5.53950223E-03 -2.46378487E-02  1.17042821E-03  1.93350675E-03 -1.35700859E-03
 -5.87727687E-03  3.71249918E-03 -7.26728334E-03 -2.38719490E-03 -8.35171258E-03
  6.79439621E-03 -9.07409371E-03  1.83540310E-03 -5.33521639E-03  2.40789012E-03
  3.40138875E-02  3.73056071E-03 -5.83148495E-03 -1.07471743E-02 -1.38529299E-04
  2.80419326E-04  7.11589080E-05 -4.34362797E-05 -6.61596409E-05 -2.03833115E-04
 -8.49321396E-04 -1.17001845E-03  1.20474567E-04  1.62241486E-03 -5.68114679E-04
 -9.38510222E-04  6.21875241E-03  2.25331073E-03  4.60652006E-03  3.00653968E-03
  9.34214276E-03  3.75648422E-03  6.51395930E-03  1.28823455E-02  1.07102649E-02
  7.04345358E-03  1.15297632E-02  7.48326837E-03  2.37842291E-03 -1.93588995E-03
  7.99694811E-04 -2.66039261E-05 -2.50962442E-05  2.14530265E-06 -6.95383554E-05
  1.59094159E-05  3.18216108E-04  8.94370063E-04  1.39226892E-03 -8.87359825E-04
  4.84961438E-05 -3.13309216E-03 -5.84292715E-03  8.23407287E-03  2.15300801E-02
  2.45553246E-02  2.25998541E-02  1.17954657E-02  3.11807647E-02  3.56112307E-02
  1.58009067E-03  1.41739266E-02  2.67962562E-02  2.10967132E-02 -2.73992051E-02
  5.58034571E-04 -1.46416413E-03 -6.30149470E-03  2.56869661E-04 -3.35309960E-04
 -2.78561947E-04  1.90711488E-04 -2.41743897E-04  1.00211622E-03  1.72451138E-04
  1.11893747E-03  3.70980209E-06 -4.53999282E-04 -1.19638611E-03 -2.72043978E-03
 -1.41919831E-02 -2.14793924E-02  2.37460402E-01  1.19535123E-02 -2.01319206E-02
 -3.07110321E-02  3.41143307E-01  2.92426396E-02 -2.34146970E-02 -3.65718864E-02
  2.86142819E-01  1.73426810E-03  2.76470445E-03 -4.78203345E-03 -1.12236708E-02
 -1.51120628E-02 -8.99699646E-03 -6.94371580E-03 -1.56884125E-02 -2.02849854E-02
 -1.70770206E-02 -4.68409578E-03  3.43774119E-03  2.45039682E-02  4.79983347E-02
  8.28694471E-03  8.03540226E-03 -4.90256116E-03 -3.11770386E-03  2.63599309E-03
  1.73379996E-03 -1.01279521E-03  1.66599238E-03 -4.14525948E-03  6.03993293E-03
  5.30214049E-03 -2.25648773E-03  2.02790468E-03  7.92886334E-03  9.40735415E-03
  6.07118333E-03  9.63609828E-03  6.62235128E-03 -1.62413352E-02  7.10927838E-03
  1.19837027E-02  9.66173274E-03  3.49807320E-03 -1.53350797E-02 -2.10910471E-02
 -7.87343210E-03 -4.73347631E-02  7.41050811E-03  5.40627017E-03 -9.22863502E-03
 -2.11583205E-03 -9.50346502E-05 -1.14118958E-03  4.47440343E-05  1.04317514E-03
 -3.80858591E-03 -2.64089214E-03 -4.75520481E-03  8.32859275E-04  2.60746624E-03
  6.05842446E-03  7.97599395E-03  1.28779627E-02  2.27101574E-02  2.02297996E-02
 -1.65301560E-02  1.84240120E-02  3.27138463E-02  2.95502323E-02 -1.18396974E-02
  1.52445846E-02  2.66258606E-02  2.32453173E-02 -1.46148612E-02  1.76865308E-03
  4.29879490E-03  5.99268519E-03 -5.33994898E-04 -1.78413838E-05 -3.73372104E-04
  6.59795306E-05  3.08815777E-05 -2.05935830E-03 -1.71576541E-04 -1.62918445E-03
  3.33012753E-04 -4.30448475E-05 -9.50490853E-03 -1.37052132E-02  1.72258404E-02
  1.84563560E-02 -5.41855962E-03  3.49423956E-02  2.52637951E-02  2.72329234E-02
 -7.49909949E-03  2.51598320E-02  1.96037724E-02  2.04599018E-02 -7.64873428E-03
  2.81002860E-03  2.68137709E-03  2.66013872E-03 -1.42320024E-03 -3.51837709E-04
  8.05730346E-05  6.35565917E-05 -1.12844298E-04  5.15234132E-04 -1.55242563E-03
  4.15719144E-04  2.61723245E-04 -4.64300039E-04  2.04403031E-03  2.89172921E-03
  4.01410684E-03  2.09393810E-02  1.77863314E-02 -1.92368696E-02 -9.11522530E-03
  3.01193211E-02  2.54320347E-02 -2.80842096E-02 -5.22116321E-03  2.58792491E-02
  2.29549266E-02 -2.11262618E-02 -4.47039215E-03  3.16972791E-03  2.51454554E-03
 -3.39685224E-03 -4.75864922E-04  3.18740536E-04  7.48658906E-05 -6.87213645E-05
  3.29806593E-05 -1.90669621E-03  1.72750830E-03  9.26574683E-04 -4.94949535E-04
  3.34780841E-04 -7.41548851E-03 -1.11660483E-02 -1.03014036E-05 -3.13647255E-03
 -8.50317426E-03  2.97961910E-02 -1.35074671E-04 -4.67304160E-03 -1.22822152E-02
  2.71159392E-02 -1.80705281E-03 -5.56052263E-03 -9.29617090E-03  2.04453937E-02
 -2.95234697E-03 -4.18741393E-03 -8.99002172E-03  1.36136389E-02 -2.82285014E-03
  1.02315257E-02 -1.44596451E-02  1.98120632E-02 -3.89747245E-03  5.21371960E-03
 -1.56702717E-02  1.03726272E-02 -9.93944409E-03 -5.64529832E-05 -1.96483990E-03
  2.18367446E-04 -9.49367553E-04  1.20866625E-03 -1.87931026E-04 -1.16628331E-03
 -7.76146145E-04 -2.70266152E-04  1.78991115E-03  1.18604602E-04 -2.01773737E-03
 -1.88096324E-03 -5.06266753E-04 -2.42853000E-03 -2.58535435E-03 -1.53659555E-02
  3.17464218E-03 -4.79436542E-03  3.19540357E-03 -2.25339424E-02  5.82684195E-03
 -7.33063824E-03  3.04749808E-03 -1.40094965E-02  1.45423136E-02  7.07931334E-04
  5.02379795E-04 -2.12724329E-04  1.36681455E-03  8.55598388E-05  2.34386305E-04
 -4.38743679E-04 -1.37506577E-04  2.06053902E-03  2.22070279E-05 -3.92610625E-04
 -4.99191062E-04  2.99583796E-04  3.90836921E-03  6.09535440E-04 -1.58993952E-03
 -2.17819749E-03  4.93207521E-03 -1.00536039E-02 -2.42213303E-03  4.94827020E-03
  7.08427511E-03 -1.44221625E-02 -3.65159327E-03  3.23586318E-03  6.87362379E-03
 -1.29697572E-02 -1.96165983E-03  2.17386419E-03  3.57200391E-03 -4.01658717E-03
  3.14451743E-04  1.67789797E-04  2.57553267E-05  1.97603925E-05 -2.27546264E-05
  9.30065103E-06  6.54215879E-04  2.40515386E-04  1.18287125E-04 -8.15635476E-05
 -4.10553285E-06  1.77038251E-03  2.60550679E-03  2.51925639E-03 -8.12072123E-03
  1.55871748E-03 -6.90101556E-03  3.47595005E-03 -1.17639842E-02  2.16915830E-03
 -6.08719207E-03  3.88411393E-03 -1.08357720E-02  2.40926111E-03 -2.67792077E-03
  2.50317118E-03 -3.88084751E-03  1.01184237E-03  4.05752117E-05 -4.46453464E-05
 -3.81989959E-05 -6.35470679E-05 -8.96765441E-05  1.70219363E-04 -2.63705612E-04
 -2.20244032E-04 -4.28836355E-04 -4.00768823E-04 -1.18680758E-03 -1.58123040E-03
 -3.59446630E-03 -1.40317845E-03  2.15625644E-03  3.31367532E-03 -5.24518861E-03
 -1.95413473E-03  3.11333350E-03  2.83859350E-03 -3.68258204E-03 -2.71776237E-03
  2.86114549E-03  3.32458924E-03  2.00950227E-03 -1.70727777E-03  1.87559352E-03
  2.57871108E-05 -1.57249383E-04  8.05905453E-05  3.33990668E-05 -3.30687000E-05
 -6.47569174E-05 -1.11332280E-03  3.52486191E-04  1.84276526E-04 -2.37437866E-04
  9.79751022E-04  1.20702346E-03  2.55285189E-02 -7.49896007E-03 -8.55426173E-05
 -2.00540481E-03  3.67723040E-02 -1.06156476E-02 -4.98359871E-05 -1.33643851E-03
  3.21038300E-02 -1.03373752E-02 -3.97395455E-04 -3.57656119E-03  6.90788715E-03
 -2.58581060E-03 -3.71101344E-03  1.29411804E-02 -4.10784055E-03  5.08660112E-03
  9.45134598E-03  1.89112093E-02 -7.13757929E-03  7.56466602E-03  6.96891729E-03
  1.33776012E-02 -1.32310229E-02 -4.41904802E-03 -8.53187110E-03 -7.45624216E-04
 -3.04520870E-03  7.69250559E-04  7.18914766E-04 -1.32245290E-03  8.65696809E-05
  1.17095027E-03 -4.89336322E-04  1.34941397E-03 -2.40203697E-03  2.39491146E-04
  2.47605442E-03 -1.12488266E-03 -2.66816554E-03 -2.52111767E-03  3.30682598E-03
 -1.53836671E-02  5.86858825E-04  1.55090619E-03  6.09284409E-03 -2.20918466E-02
  1.05668159E-03  6.81739751E-04  1.49066458E-02 -5.29209814E-03  8.33441634E-03
  8.76669446E-03 -2.06243818E-04 -7.21166391E-04  2.34605561E-03  8.64764122E-04
 -5.89733721E-04 -6.55829640E-04 -1.30248983E-03 -8.53570319E-04  1.77442682E-03
 -2.65509889E-04 -4.58890950E-04 -2.99437703E-03 -1.41320183E-03 -2.09012631E-03
 -2.84519779E-03 -9.33681134E-03 -1.18212400E-03 -7.50528883E-03  6.35811979E-03
 -1.33491199E-02 -1.74122579E-03 -1.09107127E-02  4.20742428E-03 -1.21888598E-02
 -4.82588772E-04 -8.74957313E-03  4.63445597E-03 -3.73726765E-03  1.58978405E-03
 -2.80184255E-03  1.39322443E-04 -5.13834562E-05  1.32987961E-04 -1.21156475E-06
 -2.23141721E-05  5.07663916E-04 -1.98182871E-04  5.92063137E-04 -4.35806775E-05
 -8.58232400E-05  2.36709999E-03  3.48367853E-03 -8.66909547E-03 -1.09213477E-03
 -1.75969565E-03 -9.19287819E-03 -1.25396888E-02 -1.77910313E-03 -2.59858947E-03
 -7.25575883E-03 -1.13219751E-02 -3.71938878E-04 -1.88701837E-03 -2.65876584E-03
 -3.88237777E-03  1.14637429E-03 -9.03885161E-04  7.34278215E-05 -1.91770218E-05
 -3.34445824E-05  1.04633353E-04 -1.00128966E-04  3.30767625E-04 -6.76320854E-05
 -1.20616864E-04  5.82370348E-04 -3.59009515E-04 -1.07778512E-03 -1.47059439E-03
 -3.55408480E-03 -3.89508949E-03  5.62964050E-03  3.24583034E-03 -5.05472065E-03
 -5.63271225E-03  8.17157171E-03  1.90199839E-03 -5.18692371E-03 -4.45792859E-03
  6.00328179E-03  2.85939869E-03 -2.39730897E-03  1.46501775E-03  7.67426765E-04
  1.88352876E-04 -1.24632584E-05 -1.06929577E-04  4.30835827E-06  1.12206062E-05
  8.87223487E-04  3.22924842E-05 -8.50092952E-04  9.64867687E-05  1.41343754E-04
  1.61790324E-03  1.98541244E-03 -8.26646409E-03  2.14966029E-02 -1.40067002E-03
 -3.31331552E-03 -1.17393787E-02  3.10640064E-02 -1.92428994E-03 -1.76682167E-03
 -1.12156274E-02  2.63252615E-02 -2.87673123E-03 -5.55367255E-03 -2.65783249E-03
  6.09229771E-03  2.50038794E-03  3.42795112E-03 -4.65591481E-03  2.91201022E-03
  1.64560984E-03 -7.33028657E-03 -6.35341728E-03  4.65125702E-03  8.44021597E-04
  2.13165684E-03 -1.75781983E-03  5.29192210E-03 -7.39198127E-03 -2.30472794E-02
 -3.57392823E-03 -2.34619455E-03  2.71985877E-03  2.75597403E-04  3.98675137E-05
 -3.46980258E-04 -2.41502452E-04 -1.78462837E-04  2.18794728E-03 -1.28007463E-03
 -1.49266572E-03 -5.19902653E-05 -1.12603390E-03  5.83050776E-04  1.49052961E-03
 -4.43382523E-03  1.01478598E-03 -2.42905246E-03 -6.10540893E-03 -6.60540669E-03
  1.91744235E-03 -3.13889847E-03 -7.99463002E-03  1.70071403E-03  9.51348630E-03
 -5.63136141E-03  2.22467047E-02 -4.19793418E-03 -2.73804949E-03  4.77396680E-03
  1.13759808E-03  6.38164508E-04  1.28424041E-03  4.19516296E-04 -8.37236307E-04
  4.56225672E-03  1.49032589E-03  4.00211703E-03  7.87419245E-04 -3.00884655E-03
 -5.53234141E-04 -7.08207348E-04 -4.69181555E-04 -5.18734452E-03  4.11943812E-05
  1.32171345E-03 -7.28075723E-04 -7.44079898E-03  1.92886095E-04  9.99269460E-04
  1.66363874E-04 -6.22390953E-03 -2.95397597E-04  5.59607374E-03  1.07586712E-03
 -1.89835162E-03 -1.59439489E-03  5.23259068E-06  6.18580880E-05  3.53618868E-05
 -1.89267540E-05 -7.67520903E-06  6.58590487E-05  6.93803711E-05  2.25257587E-05
 -5.85744233E-05  2.11973540E-04  7.24701088E-04  1.06644651E-03  6.39939478E-05
 -3.53459616E-03  1.10447003E-05 -2.73165635E-03  5.47249580E-05 -5.10936190E-03
 -3.23545946E-05 -8.59312084E-05  1.08387985E-03 -3.46124764E-03  8.29899046E-04
  1.41273364E-03  1.00738757E-03 -9.09354543E-04  3.53441820E-04  4.58369904E-05
 -2.56116969E-05 -2.50209198E-05 -6.10244455E-06 -8.18156026E-05  2.15780360E-04
 -5.03321862E-05  1.29070616E-05 -1.23062233E-04 -2.94369334E-04  9.00641639E-04
  1.10566055E-03 -3.70058186E-03 -1.32048012E-03  6.61909737E-03 -1.87029970E-03
 -5.32945950E-03 -1.84722433E-03  9.55874502E-03 -3.99504793E-03 -3.86219374E-03
 -1.97512613E-03  6.59599560E-03 -2.95719688E-03 -3.74725543E-06 -1.46259676E-03
  5.69827098E-05  8.42750870E-05 -1.19027562E-04 -2.11115322E-05  3.51878053E-05
 -4.22751371E-05  2.50482550E-04 -4.68181936E-04  1.06683612E-04  9.24941275E-05
 -1.65882798E-04  1.23941241E-03  1.50558149E-03 -2.17497593E-03 -3.88044316E-03
  2.82858912E-02 -2.54072841E-03 -3.10908511E-03 -5.55504833E-03  4.06268810E-02
 -4.91403940E-04 -2.78838457E-03 -5.71451398E-03  3.41446737E-02 -3.56474725E-03
  9.70230966E-04 -5.47308198E-04  4.82187734E-03 -9.18330445E-05 -7.89948408E-05
 -5.44837716E-05 -5.38683702E-05 -3.37925342E-05 -1.68130755E-05 -1.27282264E-04
 -1.10593713E-04  3.06231284E-06 -1.64173901E-04 -3.05889362E-04 -4.03741252E-04
 -1.62393301E-04  1.07573959E-03  1.16342128E-04  4.13234581E-05 -1.78893382E-04
  2.09502789E-05  5.21883405E-06  6.76715215E-06 -3.13770805E-06 -2.18463490E-05
  6.40908778E-05  2.42331759E-05  4.18199822E-05 -1.77484750E-05 -3.73692020E-05
  1.63557795E-04  3.26147007E-04 -3.43725417E-04 -4.55700724E-04 -5.31953843E-04
 -1.13713594E-03 -4.96310097E-04 -6.39733986E-04 -7.40631297E-04  8.66605888E-05
 -1.70115176E-04  5.06598176E-05  3.66899567E-04 -1.04147471E-03  2.28076309E-04
  2.61639232E-04 -1.46759025E-04  3.93927603E-05 -6.37920495E-05 -7.78254287E-05
  2.80655992E-05 -7.65555000E-05  5.86567070E-06 -1.59313425E-04 -1.81413851E-04
  3.69397279E-05  1.13138060E-05  2.65954854E-05  2.29554896E-05  9.10436112E-05
  4.49087044E-05 -4.73337795E-05  6.89728798E-06  1.32678658E-04  6.59799331E-05
 -7.01122967E-05  3.33237601E-06  1.14213585E-04  6.54312295E-05 -3.54398673E-05
  1.24719831E-04  3.64107240E-05  1.74396668E-05 -5.92763868E-05  1.35637525E-06
 -7.96128933E-07  4.87718357E-07 -1.69367486E-07  5.44525160E-07 -5.95722547E-07
  2.95965180E-06  2.71763685E-07  9.03017322E-07 -1.07406155E-05 -2.94458210E-06
 -8.46277138E-07  3.24398921E-05 -2.55594066E-06  2.14921000E-05 -6.07725448E-06
  4.90022491E-05 -3.25309795E-07  3.22728172E-05 -1.32525700E-04 -8.91727135E-06
 -6.16369369E-05  2.67589995E-05 -3.50881350E-04 -4.02892251E-05 -7.30402464E-05
 -4.53921988E-05 -1.02925866E-06  2.30153212E-07 -3.04021556E-08 -1.75905162E-07
  1.68587569E-06 -1.79384898E-06  2.21820414E-06  1.63752944E-06  2.81561322E-07
  2.18860872E-06  7.05267501E-06 -7.76616865E-06  1.63212001E-04  3.61394037E-04
  2.34881856E-04  7.81345240E-05  2.34115791E-04  5.18523765E-04  3.36751795E-04
  5.45361121E-05  1.78898997E-04  4.10880379E-04  2.77766999E-04  3.33980335E-04
  3.37681794E-05  7.46097034E-05  1.37300737E-04  5.71120775E-06 -6.78424286E-07
  4.87866534E-06 -9.07184272E-07 -6.38468185E-07  1.55218267E-05 -1.14415972E-05
  1.19021349E-05 -1.82036360E-06  1.53995673E-06 -1.57073409E-06  6.68708416E-05
  9.11801045E-04  1.23734055E-03 -5.15889060E-04 -3.94052496E-04  1.32969886E-03
  1.80666263E-03 -7.28417667E-04 -1.14229706E-04  1.02603289E-03  1.38766852E-03
 -6.79923188E-04  1.21292016E-06  9.33400966E-05  1.05431378E-04 -8.62647001E-05
  1.88447575E-05  6.77338060E-05  1.00840011E-04 -1.72108115E-04 -2.95055049E-05
  6.49248378E-05 -2.80879755E-04 -2.32440833E-04 -1.53313324E-06  9.24555028E-05
 -3.47117207E-04 -1.42164356E-04  1.08269935E-04  3.36476842E-04  5.45357609E-04
  1.36063253E-04  6.78349036E-05 -5.08249261E-05 -2.57199698E-06  2.01514439E-05
  5.76139908E-06 -2.05044291E-05  2.10886491E-06 -9.49821765E-05  6.03896320E-05
 -2.06269673E-05 -5.64928441E-05  6.11291224E-05 -9.40835636E-05 -2.24664244E-04
  2.25019694E-04  7.12249371E-04 -1.02092315E-04  8.89995550E-04  2.89415148E-04
  1.00686990E-03 -1.69567971E-04  2.03955932E-04 -3.46568973E-04 -2.56858007E-05
 -8.65589049E-05 -5.45347116E-04 -3.53720028E-06  7.00622826E-05 -1.45128782E-04
 -5.63075576E-05  7.52615272E-06  1.84207438E-05 -4.14757086E-05  7.29615311E-05
 -2.05805638E-04 -5.33378260E-06 -7.10964769E-05 -5.55792461E-05  1.18765215E-04
 -1.80731443E-05 -2.77255612E-05  1.33621924E-04  2.51883150E-05  2.70422696E-05
  8.45833381E-05  1.92578153E-04  3.37323875E-05  2.94102043E-05  1.09138644E-04
  1.62657028E-04  1.91756219E-05  2.80133210E-05 -2.77291060E-04  8.13881811E-06
  1.43553229E-05  9.71845289E-05 -2.47717406E-07 -6.36035664E-07 -6.83204106E-07
 -1.30818128E-07  2.64791620E-07  1.29477938E-06  4.10357388E-06  3.21323854E-06
 -1.80016971E-06 -4.13068607E-06  1.63724900E-07 -2.51171666E-06  1.12649312E-04
  1.59274455E-05  5.35421183E-05  1.58072541E-05  1.61245691E-04  2.32592412E-05
  7.90756628E-05  2.05545766E-05  1.48310136E-04  8.61164616E-06  2.46489661E-05
  8.20880627E-05  4.49765753E-05  1.94301789E-05  2.57303934E-05  2.23099265E-07
  1.30705279E-06  1.49993525E-06 -7.20907847E-07  8.22896496E-07 -2.47670986E-06
  1.69738841E-06  1.20160977E-06 -4.60948144E-07  2.45851772E-06  4.65037127E-05
  7.33465320E-05 -4.29037710E-05  6.66972894E-05 -2.84162899E-07 -2.29661806E-04
 -6.26425566E-05  9.70481225E-05  6.08789014E-06 -1.26771363E-04 -5.55636050E-05
  7.21545468E-05  2.28231318E-05 -8.48780938E-07  3.81685875E-05 -2.60829987E-05
  1.36510212E-05  5.01270516E-07  1.26619902E-06  7.59356940E-06 -2.28553966E-06
  6.66534084E-07 -1.46944158E-06 -7.54776781E-07  3.36627404E-05 -8.11422952E-06
 -4.69175619E-06 -9.02344329E-06 -6.31242301E-05 -7.41604114E-04 -3.54837976E-04
 -1.26846519E-03  3.17065274E-04 -1.08226348E-03 -5.30393194E-04 -1.83229481E-03
  5.33296515E-05 -8.25953180E-04 -3.22505505E-04 -1.48142408E-03  1.25678642E-04
 -6.60117251E-05 -7.47875603E-05 -1.63009244E-04 -4.58753177E-06  1.56240090E-05
  5.23935429E-05  1.11959788E-04 -2.10539835E-04 -1.14987787E-04  1.05388955E-04
 -4.36374089E-04 -2.75481245E-04 -1.22979382E-04  1.61507059E-04 -5.43210857E-04
 -2.05203528E-04  5.67567892E-05  5.06037328E-04  9.81584243E-04  1.54497879E-04
  1.61057514E-04 -1.20976944E-04 -9.09525751E-06  2.29524390E-05  1.92162798E-05
 -8.85752070E-06  9.52243702E-07 -1.38816029E-04  5.82258379E-05  2.26511974E-06
 -2.53420147E-05  7.87548968E-05 -1.17251900E-04 -3.04882641E-04  6.35001440E-04
  7.41939057E-04 -1.55302436E-04  1.26073304E-03  8.85426296E-04  1.03068044E-03
 -2.46328830E-04  3.47125827E-04 -2.85992971E-04 -2.63298066E-04  5.58839355E-06
 -9.75115443E-04  1.27694017E-04  6.50007179E-05 -2.11354085E-04 -7.06818830E-05
  1.00334611E-05  1.74432589E-05 -1.90251506E-05  1.07314917E-04 -2.85364146E-04
 -2.91990846E-05 -1.33801324E-04  7.29564770E-06  1.84565542E-04  7.49791603E-06
  1.37564540E-06  6.33127148E-05  7.37730851E-05  1.39030187E-05  4.45627984E-05
  9.18882437E-05  1.02726683E-04  7.20213455E-06  8.96898084E-05  7.46881799E-05
  8.04664784E-05  1.69012244E-05 -4.02063208E-04 -1.41056706E-06  2.52596070E-05
  1.34460198E-04 -3.44868304E-07  8.69855044E-08 -7.60346480E-07  2.09144060E-08
  7.50136107E-07  8.65311205E-08  1.19369487E-05  5.82185294E-06 -1.76385675E-06
 -6.46369533E-06 -8.59106722E-06 -1.46578625E-05  7.02640957E-05  1.13231143E-04
  4.87995991E-05  4.50184795E-05  1.01094909E-04  1.64600675E-04  7.38239568E-05
  3.78195848E-05  9.31934910E-05  1.17903948E-04 -2.58680714E-06  6.58416383E-05
  3.85336759E-05  3.40632617E-05  2.52226052E-05 -4.23475780E-08  1.50487519E-06
  2.70298573E-06 -1.61349776E-06  1.43677531E-06 -4.98013435E-06  2.16017308E-06
  2.78919445E-06 -5.50652264E-06  3.09141365E-06  8.60288603E-05  1.19130020E-04
  1.94120106E-04  1.26298972E-04  1.29207278E-04 -3.16038605E-04  2.77247031E-04
  1.83568143E-04  1.96685951E-04 -1.91418026E-04  2.23249259E-04  1.37768647E-04
  1.74791007E-04  3.88750809E-05  3.41423599E-05  1.79436253E-05  3.08175908E-05
  4.95768392E-06  6.14859130E-06  1.08018946E-05 -3.18931031E-06  2.17912711E-06
  1.87773037E-05  2.76440782E-05  3.96272841E-05 -1.12784698E-05  2.38998414E-06
  8.81389433E-06 -5.88514868E-05 -2.59007813E-04 -1.00066042E-03 -1.73567934E-03
  3.73629144E-04 -3.93075850E-04 -1.46676238E-03 -2.50610041E-03  3.18919697E-05
 -2.12641027E-04 -1.06984658E-03 -2.02465216E-03  1.95856682E-04 -3.38935890E-05
 -1.47067842E-04 -2.39589522E-04 -5.67777539E-06  1.87684577E-05  2.80902019E-05
 -3.42866538E-05 -5.49520430E-05 -2.79364155E-04  3.21603455E-04 -1.52752556E-04
  1.59993466E-04 -4.62753384E-04  4.71567759E-04 -2.21894412E-04  1.58028533E-04
 -3.81490853E-04  1.94250163E-04 -3.48066751E-04 -8.67644739E-05  2.54287277E-05
 -9.23989621E-05  1.43045505E-05  2.23695186E-05  9.35529756E-06 -3.18411838E-05
 -4.20680942E-05 -6.17211333E-06  1.00872334E-04  3.53957012E-05 -6.01485655E-05
 -1.03294145E-04 -3.43593552E-05  8.55260608E-05  2.00602172E-04 -9.83714973E-04
  1.56630299E-04 -2.76321449E-04 -7.81716856E-04 -1.45221214E-03  2.80665115E-04
 -3.97272849E-04 -1.12870612E-04 -5.62623215E-04  6.39966283E-04 -1.01036499E-04
  9.28659601E-05 -1.26610179E-04  1.58586906E-04 -1.77912255E-06  1.67392945E-05
 -5.83541364E-05 -6.94917768E-06 -2.75114864E-05 -7.74629133E-05  6.94420485E-05
 -9.69177883E-05  3.88109418E-05 -7.36165126E-05 -9.54532844E-05 -3.43375388E-06
 -4.28787813E-06  1.94988314E-04 -1.56051326E-04  3.63768922E-05  5.72253303E-06
  2.79448178E-04 -2.21913586E-04  5.57455740E-05 -1.40334192E-05  2.61564732E-04
 -2.03603337E-04  5.57368431E-05  1.81796906E-04  8.70800592E-05 -6.62302736E-05
 -4.18874049E-05  1.25835804E-06  6.98345200E-07 -8.35913965E-07 -7.18526509E-07
  1.24660653E-07  6.04780750E-06  4.88349743E-06 -1.13775140E-05 -2.32984472E-06
  2.17721174E-06  4.47172982E-06  7.83264621E-06  1.26251583E-04 -1.64321626E-04
  3.26559050E-05 -2.36355099E-05  1.80777072E-04 -2.35295152E-04  4.55252552E-05
 -5.46150457E-05  1.59648474E-04 -2.26442530E-04  6.95536222E-05 -1.13366639E-04
  6.34866658E-05 -1.04731345E-04  6.13344253E-06 -1.70071411E-07 -7.20064917E-07
 -1.61270879E-06 -1.82269899E-06 -5.01032106E-07 -9.57262532E-08 -5.23729244E-06
 -8.00628768E-07 -1.04806446E-05 -3.73222053E-06 -3.37000329E-05 -4.85306334E-05
  6.91964409E-05 -7.86115676E-05  3.78624562E-05  1.32765375E-04  9.99033237E-05
 -1.13955841E-04  4.97715197E-05  8.70548048E-05  1.11687467E-04 -1.20034776E-04
  4.96352120E-05  7.39004785E-05  1.42747316E-04 -1.16470860E-04  6.96532137E-05
 -3.02827149E-06 -6.87491599E-06  1.88083422E-07  2.96688810E-07 -2.45780381E-06
 -1.89658059E-05 -4.13017291E-05  7.90625982E-06  1.24513499E-06 -9.82010639E-06
 -9.18775501E-06  3.26210184E-05 -7.54598526E-04  1.61400461E-03  1.67648082E-04
 -2.28867506E-04 -1.07527301E-03  2.34073914E-03  2.47498570E-04 -3.35731947E-05
 -9.62416676E-04  1.86582092E-03  1.62509172E-04 -7.38232169E-05 -6.25030861E-06
  1.19347705E-04  5.26243912E-05  9.18986378E-06 -1.46782323E-06 -1.19178024E-05
  2.48910503E-05  8.24588651E-05  1.09239135E-04 -9.50291568E-05  4.78060428E-05
  6.79509615E-05 -2.11710030E-04 -6.91694783E-05  1.39908899E-04  2.52529863E-05
 -2.66849100E-05  2.73766198E-04  6.42645549E-04  4.72054518E-04 -1.03327293E-03
 -4.90720701E-05 -2.09871490E-05  2.10975056E-04 -3.47205895E-05  6.56842976E-06
 -1.54385318E-05 -1.47620719E-05  3.23034177E-05 -1.19100472E-04 -1.47812227E-05
 -1.04906760E-04 -1.90312198E-05  7.75734854E-05 -2.87324913E-04 -6.38471755E-04
  5.91214099E-04  1.23525735E-03  5.49696857E-04  2.39746503E-03  8.31476741E-04
  1.75919563E-03  7.42943735E-04  1.02434506E-04 -1.12683415E-04 -4.55493008E-05
 -5.78192624E-04  9.90956880E-04 -3.22748298E-04 -2.74121599E-04  8.00376491E-05
 -8.30404922E-05  7.78890337E-05  1.15632359E-04 -7.40779825E-05  1.54398949E-04
 -1.10350385E-04  1.63678757E-04  1.66015815E-04 -9.06276319E-05  3.95802803E-05
  2.81960569E-05  4.83615643E-05 -1.25760154E-04 -2.01320834E-04  1.19097102E-04
 -1.56782783E-04 -1.83582317E-04 -2.92289578E-04  1.71310689E-04 -1.12213520E-04
 -1.53482141E-04 -2.61535739E-04  1.25449301E-04 -3.78313656E-04 -5.60396461E-05
 -3.90000562E-05  1.53621109E-04 -3.08070258E-06  2.15907303E-06  7.42773783E-08
 -4.62904593E-07 -4.44328480E-07 -5.18284483E-06  7.20604528E-06  7.11798630E-06
 -5.37499801E-06  1.23844392E-05 -1.69759831E-05 -2.76296038E-05  6.58370076E-05
 -2.31447367E-06  1.18644572E-05  7.51215357E-05  9.25558184E-05 -5.26695020E-06
  1.73964064E-05  2.58540055E-04  1.58640561E-04  7.09343754E-05 -1.55496657E-05
  5.14787634E-04  8.95828335E-05  9.98197620E-05  8.13780708E-05  1.67772883E-06
  8.22621610E-07  1.43040108E-06 -5.00014683E-07 -1.18375932E-06 -6.04112730E-07
  5.33907432E-07  7.55292943E-07 -1.41198281E-06 -7.27323589E-07  6.22644947E-05
  8.90038484E-05 -7.92786578E-05 -1.51903834E-04 -2.05574557E-04 -2.27912934E-04
 -1.14391009E-04 -2.15441091E-04 -2.86197202E-04 -1.87758786E-04 -6.67147800E-05
 -1.63574867E-04 -2.57029137E-04 -4.70223485E-04  2.25950567E-05 -9.64693809E-05
 -1.64442625E-04 -4.44993541E-06  2.46403637E-06  3.50920665E-06 -1.51203088E-06
  9.01976510E-07 -1.43523255E-05  1.97729375E-05  3.27869218E-05 -9.46921457E-06
 -6.98968504E-06  5.20968024E-05 -7.00259429E-05 -1.98876043E-03 -1.82734188E-03
 -2.45907187E-04  6.46279045E-04 -2.89790693E-03 -2.68057568E-03 -3.77941629E-04
  1.13126298E-04 -2.25152010E-03 -1.98472042E-03 -1.79373160E-04  1.06983583E-04
 -1.92528817E-04 -1.96063967E-04 -4.05304456E-06 -2.84301181E-05  1.91730291E-05
  2.25995456E-05 -1.14578664E-05  5.44062263E-05  4.88338782E-04  3.81912202E-04
 -1.74470319E-04  1.06213136E-04 -6.04342627E-05 -4.43113038E-05 -4.74388469E-04
  4.72274500E-05  2.00244564E-04 -1.07325445E-03 -1.60604293E-03 -1.83224261E-03
 -5.76997474E-04  6.12515203E-03  7.42018833E-04  3.38703866E-04 -9.81216267E-04
  1.56471376E-04  1.50543675E-05  3.14062938E-05 -1.40772491E-05 -1.29655239E-04
  1.30469112E-04  2.38705864E-04  2.19657508E-04 -1.41192474E-04 -7.62103448E-05
  1.39329493E-03  1.87865999E-03 -1.56654078E-03 -1.56532578E-03 -2.26289034E-03
 -4.28502394E-03 -2.26535520E-03 -2.16824305E-03 -3.18889989E-03  1.07232786E-03
 -1.01762947E-03  4.32868506E-04  1.97994264E-03 -5.98626421E-03  1.13052271E-03
  1.27962605E-03 -9.86472303E-04  5.43733529E-05 -2.85543243E-04 -3.61488721E-04
  8.41486643E-05 -2.62046844E-04 -4.65797727E-04 -6.32196708E-04 -8.58287568E-04
  5.16669978E-05  3.57603141E-04 -2.86235052E-04 -3.81611420E-04  6.66481602E-04
  3.46351264E-04 -4.24849102E-04  8.95573900E-04  9.72480831E-04  5.00747474E-04
 -6.50480037E-04  8.12259769E-04  7.96653745E-04  4.21238401E-04 -4.28888880E-04
  2.73932294E-04  1.89584831E-04  1.12890108E-04 -1.67104591E-04  1.41166514E-05
 -9.66066534E-06 -6.90812882E-07  5.91395128E-07  2.57753329E-06  3.42420401E-05
  9.55165792E-06  5.90786242E-06  5.52385573E-06 -6.25786762E-05  6.96434316E-05
  1.05771391E-04 -9.66735185E-05 -2.40252208E-04 -2.28719582E-04 -2.63202049E-04
 -1.42128547E-04 -3.46760561E-04 -3.24923348E-04 -8.38170932E-04 -3.18730792E-04
 -5.59594414E-04 -3.24520090E-04 -1.54782981E-03 -1.68725399E-04 -3.29009512E-04
 -2.14539099E-04 -1.77032458E-06 -2.46567473E-06 -4.96619895E-06 -9.81090875E-08
 -6.12850675E-07 -7.61738987E-07 -2.73743385E-05 -3.31508882E-05  4.25112488E-06
 -1.64757392E-05 -1.65263991E-04 -1.86108020E-04 -3.01221565E-05  4.23464107E-04
  6.48393904E-04  2.06840771E-04 -4.36931767E-05  6.03291824E-04  9.21407627E-04
  3.96388259E-04 -1.68119301E-04  3.75004515E-04  9.01680071E-04  1.81021539E-03
  7.53729272E-05  1.64471077E-04  6.89970568E-04  1.83864826E-05 -6.60023730E-06
  1.62522397E-05 -3.38861687E-06 -5.68755831E-07  4.41227736E-05 -9.90449614E-05
 -5.94570423E-06  8.52176829E-06  4.65075734E-06  1.03885491E-03  1.44488796E-03
  3.63968177E-03  5.27762780E-03 -4.89197741E-03 -3.32164653E-03  5.31873403E-03
  7.71798285E-03 -6.96940699E-03 -2.24569292E-03  4.23533930E-03  6.12735207E-03
 -6.13329152E-03 -1.46760176E-04  4.43139611E-04  4.94416653E-04 -6.94915093E-04
  8.32830984E-05 -1.89467671E-06 -3.25083887E-06  4.06239963E-05 -1.13806881E-04
  4.20969704E-04  2.51390425E-04  4.31054141E-04 -1.12861965E-03 -1.67221338E-05
  1.55116175E-04 -1.39103712E-03 -1.58426507E-03  2.02321747E-04  2.25741443E-04
 -1.29763401E-03 -8.07058452E-04  6.36479865E-04  1.06770236E-03  1.46376084E-03
  4.43098105E-04 -2.14534725E-05 -1.73999130E-04  8.05243889E-05  4.29052959E-05
 -3.44102380E-05 -9.18747892E-05 -5.03246166E-05 -1.24764692E-04  1.09922778E-04
 -2.75452145E-04 -2.46912699E-04  1.31717994E-04 -1.27657902E-03 -1.66805828E-03
  1.33580735E-04  3.17389857E-03 -1.29774099E-03  3.66565870E-03  2.03921007E-05
  4.56234919E-03 -1.95442511E-03  4.62585841E-04 -1.93603146E-03  5.09433633E-04
 -4.53160266E-04 -1.40857701E-03 -2.49670322E-04  3.97472467E-04 -4.94953017E-04
 -2.59583136E-04 -1.97333072E-05  9.89351562E-05 -2.61458140E-04  2.86595105E-04
 -9.83935114E-04 -1.01961056E-04 -2.96261999E-04 -3.99602981E-04  4.79452177E-04
 -1.16540193E-05 -1.91671080E-05 -4.30824716E-04 -1.27056471E-03  2.35412225E-05
  1.06360919E-04 -6.14219479E-04 -1.83290495E-03 -7.64334804E-06  1.96163671E-04
 -5.36576066E-04 -1.61291338E-03  6.84997278E-05 -1.09051192E-03 -7.28472312E-05
 -1.38293660E-04  4.03607749E-04  4.22310256E-07  8.06848335E-06  8.02234523E-06
 -4.77754781E-06  1.59995916E-06  3.37253533E-06  1.11621262E-04  9.12081107E-05
 -3.83520831E-05 -2.11330715E-05 -3.09132817E-05 -3.97439504E-05  4.71057306E-04
 -8.48759606E-05 -5.72099369E-04  5.77042084E-05  6.67427526E-04 -1.26637914E-04
 -8.12844133E-04  1.53722415E-04  6.81175031E-04 -1.06007789E-04 -8.91032738E-04
  4.26492319E-04  2.65474207E-04  6.96303136E-05  5.15905426E-05  2.24731454E-06
  1.72396920E-06  2.17171716E-06 -5.22782358E-06  4.99003058E-07 -2.70873813E-05
 -4.02911668E-05 -4.22961082E-05 -1.26802131E-05  1.54525743E-05  8.83768520E-05
  1.79390808E-04 -7.90331879E-04 -4.82682240E-04  6.70401518E-04 -7.74927671E-04
 -1.13844860E-03 -6.84599550E-04  1.00324377E-03 -4.31593931E-04 -9.94692196E-04
 -7.02004891E-04  8.82456496E-04  2.58953214E-04  2.18643260E-04 -2.81751365E-04
  2.70733012E-04  1.63390970E-05 -7.75054197E-06  3.50744625E-05 -9.46878377E-06
  5.34088092E-07  4.95017678E-05 -1.05409491E-04  1.18717003E-04 -2.05095237E-05
 -2.43047679E-05 -8.07349942E-04 -1.15826127E-03 -3.97707145E-03  6.54097088E-04
 -6.91361795E-03  2.83098498E-03 -5.80021620E-03  8.44342141E-04 -9.97791310E-03
  1.56897910E-03 -4.54358454E-03  1.19271777E-03 -8.23889147E-03  2.01809211E-04
 -2.66892375E-04 -3.19374591E-05 -8.26087428E-04 -4.29985776E-06  7.56340991E-05
  8.14160740E-05  2.06540839E-05  7.10871424E-05  7.87817142E-05  4.37913239E-04
  5.47045830E-04  7.39453520E-04 -8.43583977E-04 -4.80916911E-04  5.92219470E-04
 -1.84037242E-03 -1.06348432E-03 -4.67364277E-04  9.27645619E-04 -2.34874730E-03
 -9.31704471E-04  8.86809921E-06  1.93169719E-03  3.93293225E-03  5.56299731E-04
  4.94158558E-04 -6.59019113E-04  1.05829810E-04  3.51187322E-05  8.44616793E-05
 -2.33492781E-05 -8.91621228E-05 -4.04205983E-04  1.60215160E-04  1.57522851E-05
 -9.50258787E-05  2.14378985E-04 -1.88076995E-03 -2.42490886E-03  2.57373000E-03
  2.68525666E-03 -1.34059851E-03  5.23070447E-03  3.56327350E-03  3.68471085E-03
 -2.00275038E-03  9.82597284E-04 -1.24942717E-03 -1.05790202E-03  4.42762724E-04
 -3.82485821E-03  5.50246955E-04  3.26067150E-04 -7.98066083E-04 -3.41861384E-04
  5.71131306E-05  7.16653125E-05 -8.72165821E-05  5.05335660E-04 -1.54627433E-03
 -3.10662074E-05 -6.37783083E-04  4.53095115E-06  9.64558492E-04 -2.02714165E-04
 -2.84367693E-04 -4.31627775E-04 -5.61183829E-04 -4.62086248E-04  7.66608491E-04
 -6.09641475E-04 -8.22007557E-04 -7.46240261E-04  7.99341993E-04 -5.82284015E-04
 -7.51608188E-04 -5.00143665E-04 -1.73081649E-03 -1.10459016E-04  2.22622669E-05
  5.69873176E-04  9.82992043E-06  2.20698986E-06  5.90823028E-06 -1.87730529E-06
  2.50924429E-06  4.08374561E-05  1.06133776E-04  1.07658595E-04 -2.82220442E-05
 -4.54932959E-05 -1.23329539E-05 -1.81555333E-05  5.55176415E-04 -3.79458409E-05
 -8.99285972E-04  2.61732748E-05  7.85198050E-04 -6.33349645E-05 -1.27694781E-03
  4.92519599E-05  7.56485524E-04 -8.84570377E-05 -1.39225648E-03  2.75845771E-04
  2.21954993E-04  1.24022984E-04 -1.15205031E-05  1.67158861E-06  1.20795720E-06
  2.80130264E-06 -7.79504683E-07  6.84165696E-07 -3.27633738E-05 -4.24308221E-05
 -6.77537934E-05  1.84149322E-05  2.28618177E-05 -3.28006007E-05  7.54069284E-05
 -5.76177071E-04 -8.51463404E-04  1.02059026E-03 -8.48508319E-04 -8.35788800E-04
 -1.20990804E-03  1.52747050E-03 -2.33960373E-04 -8.27886027E-04 -1.14905257E-03
  1.41762795E-03  7.59670595E-04 -3.12465108E-05 -2.16089844E-05  3.76386296E-04
  3.49385186E-05  1.30379071E-05  3.99787479E-05 -1.04306458E-05  9.37153804E-06
  1.52580376E-04 -1.49875562E-06  7.94478144E-05 -1.47550020E-05  1.72150461E-05
 -1.25670901E-03 -1.80291897E-03  3.79183983E-04 -3.49198865E-03 -9.49244671E-03
  4.41396216E-03  4.39304176E-04 -5.16327833E-03 -1.36974095E-02  2.49909303E-03
  8.76396338E-04 -3.68924852E-03 -1.12952310E-02  4.53204279E-04  1.08786707E-04
 -4.35540213E-04 -1.26132262E-03 -8.73297834E-06  8.44735956E-05  1.28133534E-04
 -5.09775873E-05  7.55613384E-05  8.14204197E-05  4.19385726E-04  6.69286063E-04
 -1.00307358E-04 -1.83791013E-04 -1.79173539E-03  1.87435587E-03 -8.95116763E-04
  6.06731042E-04 -2.93720117E-03  2.79284896E-03 -1.31578589E-03  6.51225012E-04
 -2.16235263E-03  1.34708689E-03 -1.57237971E-03 -7.94924291E-05  3.93860132E-04
 -5.11081254E-04  1.62549380E-04  6.86795051E-05  6.00158736E-05 -1.90360422E-04
 -2.94642811E-04 -1.43910315E-05  4.22546138E-04  2.35074749E-04 -4.31383690E-04
 -7.19615568E-04 -1.10415260E-04  1.09591908E-03  1.42901934E-03 -5.77987103E-03
  2.24754009E-03 -1.48955502E-03 -3.12604118E-03 -8.55899637E-03  3.58778488E-03
 -2.19130772E-03 -1.18596303E-04 -3.75532907E-03  3.92417872E-03 -9.43719001E-04
  7.42101785E-05 -9.29242649E-04  1.02221800E-03 -2.38461340E-04  1.71424195E-05
 -3.75414766E-04 -3.77317596E-06 -3.24724955E-04 -4.01515001E-04  2.53807963E-04
 -6.46259668E-04  2.13864816E-04 -7.18956987E-04 -5.28013407E-04  3.61821329E-05
  5.55733882E-05  8.66141341E-04 -4.94932460E-04  3.42045362E-04 -1.68852790E-04
  1.23820254E-03 -6.98263081E-04  5.13187722E-04 -1.80464315E-04  1.19195301E-03
 -6.78728501E-04  4.53105435E-04  7.43212070E-04  4.02805385E-04 -2.89135089E-04
 -1.56269414E-04  3.47474519E-06  7.38962927E-06 -9.29467806E-06 -4.59225070E-06
  2.14031810E-06  3.11817148E-05  5.54351960E-05 -1.00540373E-04 -1.51376402E-05
  2.47071926E-05  1.66878037E-05  2.76346864E-05  9.15114937E-04 -1.01498617E-03
  6.19051991E-04 -7.22112840E-05  1.31415014E-03 -1.45176486E-03  8.83372300E-04
 -2.20035172E-04  1.15771915E-03 -1.38407471E-03  8.86232445E-04 -4.67450149E-04
  4.27995246E-04 -5.82329809E-04  1.22756878E-04  2.82744942E-07 -4.35069075E-07
 -5.49908956E-06 -1.04324315E-05 -1.37158684E-06  4.14322082E-06 -1.26219091E-05
  1.83191983E-05 -5.04243385E-05 -2.27610355E-05  4.05385272E-06 -3.51221236E-05
  8.31046691E-04 -1.83773069E-04  4.98185674E-05  2.97459714E-04  1.19926990E-03
 -2.71848643E-04  4.62223418E-05  1.01642670E-04  1.18975591E-03 -3.65083373E-04
  5.70612431E-05  1.60072196E-04  9.99307095E-04 -7.81413203E-04  3.42363704E-04
 -2.30242567E-05 -3.66178951E-05  1.11639524E-05 -3.17935256E-06 -1.42020478E-05
 -1.43910121E-04 -2.14688865E-04  1.08347441E-04 -1.74178945E-05 -6.94648233E-05
  7.80730369E-04  1.10669379E-03 -7.86561780E-03  1.00374190E-02 -3.84738816E-04
 -2.64777598E-03 -1.12665828E-02  1.45369063E-02 -5.23275731E-04 -1.61874653E-03
 -9.70765501E-03  1.18728981E-02 -5.93697004E-04 -2.47506737E-04 -4.49458137E-04
  7.50625382E-04  1.39006154E-04  4.23124708E-05  1.78487001E-05 -4.95757622E-05
  1.64231398E-04 -2.59935764E-05  2.14341800E-04  2.57040948E-04 -2.40328556E-04
  1.15915505E-03 -2.26668087E-04 -1.08308941E-04 -5.35103292E-04  4.72430885E-04
  4.51809392E-04 -3.12051585E-04 -4.64161337E-04  1.01488175E-03  2.38612245E-04
 -1.11530998E-04  9.62618600E-04  2.81553388E-03  1.99603879E-03 -5.05050457E-03
 -1.67407531E-04 -1.61428594E-04  8.78041453E-04 -1.23968475E-04  9.37454747E-05
  1.62929421E-05 -1.17204959E-04  1.60273213E-04 -4.81389011E-04  1.75756035E-04
 -2.27997046E-04 -2.19937285E-04  3.19454966E-04 -3.21431286E-03 -4.21753315E-03
  1.93432827E-03  5.47748534E-03  2.34633823E-03  9.28977820E-03  2.53139890E-03
  7.67562489E-03  3.20442187E-03 -7.73418853E-04 -1.09885572E-03 -2.30104129E-04
 -2.62347114E-03  4.91663918E-03 -1.57275437E-03 -1.07586892E-03  6.37601258E-04
 -3.02739919E-04  3.13738222E-04  5.55535319E-04 -3.77153772E-04  6.20997014E-04
 -3.13459942E-04  6.66885075E-04  7.97931962E-04 -4.72907813E-04 -5.71157604E-05
  1.64559483E-05 -2.36534441E-06  7.57848911E-04  4.51547517E-04  1.33235900E-05
  6.78229204E-05  1.07342041E-03  6.28064741E-04  6.65692293E-06  1.95483493E-05
  9.44990653E-04  4.93086551E-04 -6.73673104E-05 -1.49271679E-03 -4.99709811E-05
  5.17922076E-06  5.89440065E-04 -7.00056527E-07 -3.40700351E-06 -9.73680698E-06
  1.85664599E-06 -4.12296204E-06  5.21142246E-05 -6.13696150E-05 -5.05737113E-05
  2.92905187E-06  6.21718580E-05 -5.59881293E-05 -1.05449584E-04  5.43204911E-04
  2.21053527E-04  3.52585106E-06  3.39784445E-04  7.77609679E-04  3.17166367E-04
  7.18037669E-06  1.08775728E-03  9.62025246E-04  5.57921089E-04 -4.60733753E-05
  2.03911237E-03  3.99390881E-04  3.56806962E-04  2.92541415E-04  2.17692664E-06
  2.43003568E-06  3.02000793E-06 -3.69680953E-06 -7.67432800E-07 -1.63844010E-05
  1.55532588E-05  2.30271034E-05 -2.28244744E-05  1.08006409E-05 -6.80825582E-05
 -3.76972017E-05 -6.44359941E-05 -4.87977771E-04 -9.16618300E-04 -1.26570400E-04
 -9.77630810E-05 -6.90040025E-04 -1.26641413E-03  4.67719320E-05  9.43652303E-05
 -4.28903036E-04 -1.01888417E-03 -1.97397050E-03  2.52237273E-04 -4.25897632E-04
 -7.09637365E-04 -2.62213592E-05  7.03502897E-06  1.13433456E-05 -5.85582353E-06
  1.17794549E-06 -6.79383850E-05  7.71032627E-05  1.67186874E-04 -4.84779984E-05
 -3.27926086E-05 -2.47031106E-03 -3.46631936E-03 -9.44718094E-03 -6.04470613E-03
  5.32355041E-04  8.13229041E-03 -1.37738490E-02 -8.95408524E-03  6.37675343E-04
  5.33022176E-03 -1.10197218E-02 -6.65777225E-03  1.06962615E-03  7.72695066E-04
 -9.63841274E-04 -7.50938920E-04  1.35505668E-04 -1.20374256E-04  7.57161658E-05
  7.72513960E-05 -2.65528095E-05  2.25835247E-04 -5.13508485E-04  2.87561344E-04
  2.36801932E-04  2.17492532E-05  1.04225283E-03
Mulliken Charges                           R   N=           6
  6.10569356E-01  6.10686835E-01 -3.05288971E-01 -3.05368130E-01 -3.05300979E-01
 -3.05298110E-01
Optimization MaxStp                        I                2
Optimization Job offset                    I                0
Optimization Num results per geometry      I                2
Optimization Num geometry variables        I               18
Opt point       1 Results for each geome   R   N=           2
 -4.75680562E+02  0.00000000E+00
Opt point       1 Geometries               R   N=          18
  9.41674888E+01  6.74872312E+01  6.16674136E+01  9.57031555E+01  6.87582690E+01
  6.01652517E+01  9.38672946E+01  6.80188126E+01  6.40858149E+01  9.27810772E+01
  6.55602833E+01  6.09008430E+01  9.60055206E+01  6.82291191E+01  5.77467526E+01
  9.70880546E+01  7.06845987E+01  6.09353024E+01
Opt point       1 Gradient at each geome   R   N=          18
  4.84086756E-05  6.89164276E-05  2.04932521E-05  5.19011535E-05  3.88480335E-05
 -6.85016474E-05  4.92868951E-05  2.59511386E-05 -7.74232476E-05 -9.46766603E-05
 -1.12736541E-04  5.85902859E-06 -8.89981356E-06  1.63465255E-05  7.10496885E-05
 -4.60202503E-05 -3.73255845E-05  4.85229259E-05
Optimization Number of geometries          I   N=           1
           1
ONIOM Charges                              I   N=          16
           0           0           0           0           0           0
           0           0           0           0           0           0
           0           0           0           0
ONIOM Multiplicities                       I   N=          16
           1           0           0           0           0           0
           0           0           0           0           0           0
           0           0           0           0
Atom Layers                                I   N=           6
           1           1           1           1           1           1
Atom Modifiers                             I   N=           6
           0           0           0           0           0           0
Force Field                                I                0
Int Atom Modified Types                    I   N=           6
           0           0           0           0           0           0
Link Atoms                                 I   N=           6
           0           0           0           0           0           0
Atom Modified MM Charges                   R   N=           6
  0.00000000E+00  0.00000000E+00  0.00000000E+00  0.00000000E+00  0.00000000E+00
  0.00000000E+00
Link Distances                             R   N=          24
  0.00000000E+00  0.00000000E+00  0.00000000E+00  0.00000000E+00  0.00000000E+00
  0.00000000E+00  0.00000000E+00  0.00000000E+00  0.00000000E+00  0.00000000E+00
  0.00000000E+00  0.00000000E+00  0.00000000E+00  0.00000000E+00  0.00000000E+00
  0.00000000E+00  0.00000000E+00  0.00000000E+00  0.00000000E+00  0.00000000E+00
  0.00000000E+00  0.00000000E+00  0.00000000E+00  0.00000000E+00
Cartesian Gradient                         R   N=          18
  4.84086756E-05  6.89164276E-05  2.04932521E-05  5.19011535E-05  3.88480335E-05
 -6.85016474E-05  4.92868951E-05  2.59511386E-05 -7.74232476E-05 -9.46766603E-05
 -1.12736541E-04  5.85902859E-06 -8.89981356E-06  1.63465255E-05  7.10496885E-05
 -4.60202503E-05 -3.73255845E-05  4.85229259E-05
Cartesian Force Constants                  R   N=         171
  4.71651338E-01  3.55216085E-01  5.03269148E-01 -2.32382601E-01 -5.11765941E-02
  7.12274198E-01 -2.49600230E-01 -1.75439512E-01  1.99637598E-01  4.71645822E-01
 -1.75452843E-01 -1.89728956E-01  1.59423992E-01  3.55222321E-01  5.03296297E-01
  1.99587300E-01  1.59369314E-01 -2.51134962E-01 -2.32409191E-01 -5.10274554E-02
  7.12710468E-01 -6.16686855E-02 -1.48777543E-02  5.59207597E-02  3.62053025E-03
  1.01644079E-02  2.12840945E-02  4.94265019E-02 -1.01417342E-02 -6.20937084E-02
 -4.96275379E-02 -1.18809411E-03  4.53637043E-03  1.17257608E-02  1.56484596E-02
  6.66190905E-02  6.88209321E-02 -3.43183957E-02 -3.47787957E-01 -9.64564333E-03
 -2.49803399E-02 -3.52189954E-02 -5.68511116E-02  8.00545302E-02  4.20476213E-01
 -1.53570376E-01 -1.52151735E-01 -2.10001291E-02 -1.03874744E-02 -2.28263534E-02
 -2.34141416E-02  7.12639643E-03 -2.86194631E-03 -1.65860314E-02  1.60154826E-01
 -1.56877127E-01 -2.34171082E-01 -4.38813302E-02 -1.14780058E-02 -2.17294268E-02
 -2.64371949E-02 -6.57656007E-03 -1.52689122E-02 -3.23296213E-02  1.86774650E-01
  2.74027366E-01 -3.38571097E-02 -5.91420570E-02 -8.35044437E-02  7.48482552E-03
  1.02369990E-02  5.28782797E-03 -2.67062191E-02 -4.43409520E-02 -3.00379268E-02
  5.14822870E-02  9.16114236E-02  1.01799681E-01  3.63193540E-03  1.02002609E-02
  2.12600766E-02 -6.17686693E-02 -1.49083154E-02  5.62002912E-02  3.12531529E-03
 -6.38413036E-03  7.11193426E-03 -1.61825586E-03  2.01009378E-03 -7.76424375E-04
  4.94560774E-02 -1.14940575E-03  4.56978276E-03  1.17625099E-02 -1.01837394E-02
 -6.20422217E-02 -4.93923573E-02 -6.39168321E-03  2.65738260E-03 -1.25799899E-03
  4.92652307E-03  3.54679014E-03  3.41137851E-03  1.55874999E-02  6.64515532E-02
 -9.65455344E-03 -2.49317266E-02 -3.50666655E-02  6.90675291E-02 -3.41175225E-02
 -3.47995339E-01  7.09139270E-03 -1.28176116E-03 -1.57134594E-02  7.16828936E-03
  1.28410406E-02  8.26217338E-03 -5.71282208E-02  7.98124052E-02  4.20666845E-01
 -1.04439828E-02 -2.29473448E-02 -2.34357038E-02 -1.53509979E-01 -1.52199217E-01
 -2.12483529E-02 -1.63005838E-03  4.92744537E-03  7.14991992E-03 -1.70511645E-03
 -1.38530509E-02  2.37264071E-03  7.17359710E-03 -2.78919461E-03 -1.65444369E-02
  1.60115540E-01 -1.15949756E-02 -2.18451839E-02 -2.65010396E-02 -1.56932969E-01
 -2.34332064E-01 -4.42380671E-02  2.03313012E-03  3.54977708E-03  1.28318257E-02
 -1.38611383E-02 -6.40473493E-03 -1.77679208E-03 -6.50540884E-03 -1.51832870E-02
 -3.23224355E-02  1.86861362E-01  2.74215492E-01  7.48603252E-03  1.01994594E-02
  5.21983046E-03 -3.41351181E-02 -5.95356730E-02 -8.36490000E-02 -7.38916205E-04
  3.46996003E-03  8.28212625E-03  2.34972566E-03 -1.80431777E-03 -1.80731175E-03
 -2.66676569E-02 -4.43359373E-02 -3.01535551E-02  5.17059330E-02  9.20065087E-02
  1.02107910E-01
Dipole Moment                              R   N=           3
  8.42953532E-05 -1.95409371E-04 -8.40686430E-04
Dipole Derivatives                         R   N=          54
  6.43308702E-01  5.53358284E-01 -1.65255661E-01  5.53347962E-01  8.67422220E-01
  2.30789135E-01 -1.65448030E-01  2.30619942E-01  1.28894102E+00  6.43377509E-01
  5.53125682E-01 -1.65633186E-01  5.53109121E-01  8.67170208E-01  2.30678217E-01
 -1.65668324E-01  2.30633081E-01  1.28966692E+00 -1.86052277E-01 -8.87596353E-02
  1.55875067E-01 -4.50967765E-02 -1.79562991E-01 -1.71547126E-01  2.74855518E-01
 -3.03831177E-02 -1.03429015E+00 -4.57353210E-01 -4.64600409E-01  9.30980195E-03
 -5.08146873E-01 -6.87875140E-01 -5.93565527E-02 -1.09198201E-01 -2.00015944E-01
 -2.54800931E-01 -1.86189770E-01 -8.88482856E-02  1.56610622E-01 -4.52584515E-02
 -1.79342718E-01 -1.70893532E-01  2.75326535E-01 -3.00014202E-02 -1.03453703E+00
 -4.57090954E-01 -4.64275637E-01  9.09335636E-03 -5.07954982E-01 -6.87811579E-01
 -5.96701420E-02 -1.09867498E-01 -2.00852540E-01 -2.54979835E-01
Polarizability                             R   N=           6
  2.60323765E+01  7.01904045E+00  2.64831325E+01 -4.78550608E+00 -1.32026138E+00
  3.05104550E+01
QEq coupling tensors                       R   N=          36
  2.29118223E-01 -2.54993373E-01  1.33842921E-02 -5.03231168E-02 -3.06032016E-01
 -2.42502515E-01  2.29188133E-01 -2.54603205E-01  1.37287560E-02 -5.01483325E-02
 -3.05944230E-01 -2.42916889E-01  1.41039785E+00  1.28206619E-01  1.31668486E+00
  5.76160378E-01 -8.60914780E-01 -2.72708272E+00  6.89477147E-02 -1.94519423E+00
 -1.19502907E+00 -7.33181910E-01 -1.00051444E+00  1.12608135E+00  1.40922779E+00
  1.28288706E-01  1.31842553E+00  5.80270699E-01 -8.56518183E-01 -2.72765332E+00
  7.19227512E-02 -1.94220055E+00 -1.19365157E+00 -7.36429120E-01 -1.00574795E+00
  1.12172882E+00
