tetrachloroethene                                                       
Freq      RB3LYP                                                      Gen                 
Number of atoms                            I                6
Info1-9                                    I   N=           9
          27          19        1002           0           0         100
           6          18        -502
Charge                                     I                0
Multiplicity                               I                1
Number of electrons                        I               72
Number of alpha electrons                  I               36
Number of beta electrons                   I               36
Number of basis functions                  I              186
Number of independent functions            I              186
Number of point charges in /Mol/           I                0
Number of translation vectors              I                0
Atomic numbers                             I   N=           6
           6           6          17          17           9          17
Nuclear charges                            R   N=           6
  6.00000000E+00  6.00000000E+00  1.70000000E+01  1.70000000E+01  9.00000000E+00
  1.70000000E+01
Current cartesian coordinates              R   N=          18
  9.41701092E+01  6.74691270E+01  6.16094112E+01  9.57154667E+01  6.87408993E+01
  6.00783114E+01  9.38075662E+01  6.81982599E+01  6.47677892E+01  9.24059600E+01
  6.49588857E+01  6.04754073E+01  9.59353710E+01  6.81117598E+01  5.76538858E+01
  9.75781162E+01  7.12593822E+01  6.09165751E+01
Force Field                                I                0
Int Atom Types                             I   N=           6
           0           0           0           0           0           0
MM charges                                 R   N=           6
  0.00000000E+00  0.00000000E+00  0.00000000E+00  0.00000000E+00  0.00000000E+00
  0.00000000E+00
Integer atomic weights                     I   N=           6
          12          12          35          35          19          35
Real atomic weights                        R   N=           6
  1.20000000E+01  1.20000000E+01  3.49688527E+01  3.49688527E+01  1.89984032E+01
  3.49688527E+01
Atom fragment info                         I   N=           6
           0           0           0           0           0           0
Atom residue num                           I   N=           6
           0           0           0           0           0           0
Nuclear spins                              I   N=           6
           0           0           3           3           1           3
Nuclear ZEff                               R   N=           6
 -3.60000000E+00 -3.60000000E+00 -1.42400000E+01 -1.42400000E+01 -6.75000000E+00
 -1.42400000E+01
Nuclear ZNuc                               R   N=           6
  6.00000000E+00  6.00000000E+00  1.70000000E+01  1.70000000E+01  9.00000000E+00
  1.70000000E+01
Nuclear QMom                               R   N=           6
  0.00000000E+00  0.00000000E+00 -8.16500000E+00 -8.16500000E+00  0.00000000E+00
 -8.16500000E+00
Nuclear GFac                               R   N=           6
  0.00000000E+00  0.00000000E+00  8.21874000E-01  8.21874000E-01  2.62886700E+00
  8.21874000E-01
MicOpt                                     I   N=           6
          -1          -1          -1          -1          -1          -1
Number of contracted shells                I               63
Number of primitive shells                 I              120
Pure/Cartesian d shells                    I                0
Pure/Cartesian f shells                    I                0
Highest angular momentum                   I                2
Largest degree of contraction              I                6
Shell types                                I   N=          63
           0          -1          -1          -1          -1          -2
          -2           0          -1          -1          -1          -1
          -2          -2           0           0           0           0
           0           0          -1           1           1           1
           1           1          -2          -2           0           0
           0           0           0           0          -1           1
           1           1           1           1          -2          -2
           0          -1          -1          -1          -1          -2
          -2           0           0           0           0           0
           0          -1           1           1           1           1
           1          -2          -2
Number of primitives per shell             I   N=          63
           6           3           1           1           1           1
           1           6           3           1           1           1
           1           1           6           3           1           1
           1           1           1           5           2           1
           1           1           1           1           6           3
           1           1           1           1           1           5
           2           1           1           1           1           1
           6           3           1           1           1           1
           1           6           3           1           1           1
           1           1           5           2           1           1
           1           1           1
Shell to atom map                          I   N=          63
           1           1           1           1           1           1
           1           2           2           2           2           2
           2           2           3           3           3           3
           3           3           3           3           3           3
           3           3           3           3           4           4
           4           4           4           4           4           4
           4           4           4           4           4           4
           5           5           5           5           5           5
           5           6           6           6           6           6
           6           6           6           6           6           6
           6           6           6
Primitive exponents                        R   N=         120
  4.56324000E+03  6.82024000E+02  1.54973000E+02  4.44553000E+01  1.30290000E+01
  1.82773000E+00  2.09642000E+01  4.80331000E+00  1.45933000E+00  4.83456000E-01
  1.45585000E-01  4.38000000E-02  1.25200000E+00  3.13000000E-01  4.56324000E+03
  6.82024000E+02  1.54973000E+02  4.44553000E+01  1.30290000E+01  1.82773000E+00
  2.09642000E+01  4.80331000E+00  1.45933000E+00  4.83456000E-01  1.45585000E-01
  4.38000000E-02  1.25200000E+00  3.13000000E-01  1.05819000E+05  1.58720000E+04
  3.61965000E+03  1.03080000E+03  3.39908000E+02  1.24538000E+02  1.24538000E+02
  4.95135000E+01  2.08056000E+01  6.58346000E+00  2.56468000E+00  5.59763000E-01
  1.83273000E-01  4.83000000E-02  5.89776000E+02  1.39849000E+02  4.51413000E+01
  1.68733000E+01  2.77152000E+00  6.74110000E+00  2.77152000E+00  1.02387000E+00
  3.81368000E-01  1.09437000E-01  1.50000000E+00  3.75000000E-01  1.05819000E+05
  1.58720000E+04  3.61965000E+03  1.03080000E+03  3.39908000E+02  1.24538000E+02
  1.24538000E+02  4.95135000E+01  2.08056000E+01  6.58346000E+00  2.56468000E+00
  5.59763000E-01  1.83273000E-01  4.83000000E-02  5.89776000E+02  1.39849000E+02
  4.51413000E+01  1.68733000E+01  2.77152000E+00  6.74110000E+00  2.77152000E+00
  1.02387000E+00  3.81368000E-01  1.09437000E-01  1.50000000E+00  3.75000000E-01
  1.14271000E+04  1.72235000E+03  3.95746000E+02  1.15139000E+02  3.36026000E+01
  4.91901000E+00  5.54441000E+01  1.26323000E+01  3.71756000E+00  1.16545000E+00
  3.21892000E-01  1.07600000E-01  3.50000000E+00  8.75000000E-01  1.05819000E+05
  1.58720000E+04  3.61965000E+03  1.03080000E+03  3.39908000E+02  1.24538000E+02
  1.24538000E+02  4.95135000E+01  2.08056000E+01  6.58346000E+00  2.56468000E+00
  5.59763000E-01  1.83273000E-01  4.83000000E-02  5.89776000E+02  1.39849000E+02
  4.51413000E+01  1.68733000E+01  2.77152000E+00  6.74110000E+00  2.77152000E+00
  1.02387000E+00  3.81368000E-01  1.09437000E-01  1.50000000E+00  3.75000000E-01
Contraction coefficients                   R   N=         120
  1.96665025E-03  1.52306019E-02  7.61269097E-02  2.60801033E-01  6.16462078E-01
  2.21006028E-01  1.14660081E-01  9.19999648E-01 -3.03068213E-03  1.00000000E+00
  1.00000000E+00  1.00000000E+00  1.00000000E+00  1.00000000E+00  1.96665025E-03
  1.52306019E-02  7.61269097E-02  2.60801033E-01  6.16462078E-01  2.21006028E-01
  1.14660081E-01  9.19999648E-01 -3.03068213E-03  1.00000000E+00  1.00000000E+00
  1.00000000E+00  1.00000000E+00  1.00000000E+00  7.38000247E-04  5.71800191E-03
  2.94950099E-02  1.17286039E-01  3.62949121E-01  5.84149195E-01  1.34176973E-01
  6.24249876E-01  2.91755942E-01  1.00000000E+00  1.00000000E+00  1.00000000E+00
  1.00000000E+00  1.00000000E+00  3.66556935E-03  2.83679194E-02  1.24756603E-01
  3.39654631E-01  7.47585963E-01 -1.57224381E+00  9.92388882E-01  1.00000000E+00
  1.00000000E+00  1.00000000E+00  1.00000000E+00  1.00000000E+00  7.38000247E-04
  5.71800191E-03  2.94950099E-02  1.17286039E-01  3.62949121E-01  5.84149195E-01
  1.34176973E-01  6.24249876E-01  2.91755942E-01  1.00000000E+00  1.00000000E+00
  1.00000000E+00  1.00000000E+00  1.00000000E+00  3.66556935E-03  2.83679194E-02
  1.24756603E-01  3.39654631E-01  7.47585963E-01 -1.57224381E+00  9.92388882E-01
  1.00000000E+00  1.00000000E+00  1.00000000E+00  1.00000000E+00  1.00000000E+00
  1.80093016E-03  1.37419012E-02  6.81334059E-02  2.33325020E-01  5.89086051E-01
  2.99505026E-01  1.14536016E-01  9.20512125E-01 -3.37804046E-03  1.00000000E+00
  1.00000000E+00  1.00000000E+00  1.00000000E+00  1.00000000E+00  7.38000247E-04
  5.71800191E-03  2.94950099E-02  1.17286039E-01  3.62949121E-01  5.84149195E-01
  1.34176973E-01  6.24249876E-01  2.91755942E-01  1.00000000E+00  1.00000000E+00
  1.00000000E+00  1.00000000E+00  1.00000000E+00  3.66556935E-03  2.83679194E-02
  1.24756603E-01  3.39654631E-01  7.47585963E-01 -1.57224381E+00  9.92388882E-01
  1.00000000E+00  1.00000000E+00  1.00000000E+00  1.00000000E+00  1.00000000E+00
P(S=P) Contraction coefficients            R   N=         120
  0.00000000E+00  0.00000000E+00  0.00000000E+00  0.00000000E+00  0.00000000E+00
  0.00000000E+00  4.02486927E-02  2.37593957E-01  8.15853851E-01  1.00000000E+00
  1.00000000E+00  1.00000000E+00  0.00000000E+00  0.00000000E+00  0.00000000E+00
  0.00000000E+00  0.00000000E+00  0.00000000E+00  0.00000000E+00  0.00000000E+00
  4.02486927E-02  2.37593957E-01  8.15853851E-01  1.00000000E+00  1.00000000E+00
  1.00000000E+00  0.00000000E+00  0.00000000E+00  0.00000000E+00  0.00000000E+00
  0.00000000E+00  0.00000000E+00  0.00000000E+00  0.00000000E+00  0.00000000E+00
  0.00000000E+00  0.00000000E+00  0.00000000E+00  0.00000000E+00  0.00000000E+00
  0.00000000E+00  1.00000000E+00  0.00000000E+00  0.00000000E+00  0.00000000E+00
  0.00000000E+00  0.00000000E+00  0.00000000E+00  0.00000000E+00  0.00000000E+00
  0.00000000E+00  0.00000000E+00  0.00000000E+00  0.00000000E+00  0.00000000E+00
  0.00000000E+00  0.00000000E+00  0.00000000E+00  0.00000000E+00  0.00000000E+00
  0.00000000E+00  0.00000000E+00  0.00000000E+00  0.00000000E+00  0.00000000E+00
  0.00000000E+00  0.00000000E+00  1.00000000E+00  0.00000000E+00  0.00000000E+00
  0.00000000E+00  0.00000000E+00  0.00000000E+00  0.00000000E+00  0.00000000E+00
  0.00000000E+00  0.00000000E+00  0.00000000E+00  0.00000000E+00  0.00000000E+00
  0.00000000E+00  0.00000000E+00  0.00000000E+00  0.00000000E+00  0.00000000E+00
  0.00000000E+00  3.54608874E-02  2.37450915E-01  8.20457708E-01  1.00000000E+00
  1.00000000E+00  1.00000000E+00  0.00000000E+00  0.00000000E+00  0.00000000E+00
  0.00000000E+00  0.00000000E+00  0.00000000E+00  0.00000000E+00  0.00000000E+00
  0.00000000E+00  0.00000000E+00  0.00000000E+00  0.00000000E+00  0.00000000E+00
  0.00000000E+00  0.00000000E+00  1.00000000E+00  0.00000000E+00  0.00000000E+00
  0.00000000E+00  0.00000000E+00  0.00000000E+00  0.00000000E+00  0.00000000E+00
  0.00000000E+00  0.00000000E+00  0.00000000E+00  0.00000000E+00  0.00000000E+00
Coordinates of each shell                  R   N=         189
  9.41701092E+01  6.74691270E+01  6.16094112E+01  9.41701092E+01  6.74691270E+01
  6.16094112E+01  9.41701092E+01  6.74691270E+01  6.16094112E+01  9.41701092E+01
  6.74691270E+01  6.16094112E+01  9.41701092E+01  6.74691270E+01  6.16094112E+01
  9.41701092E+01  6.74691270E+01  6.16094112E+01  9.41701092E+01  6.74691270E+01
  6.16094112E+01  9.57154667E+01  6.87408993E+01  6.00783114E+01  9.57154667E+01
  6.87408993E+01  6.00783114E+01  9.57154667E+01  6.87408993E+01  6.00783114E+01
  9.57154667E+01  6.87408993E+01  6.00783114E+01  9.57154667E+01  6.87408993E+01
  6.00783114E+01  9.57154667E+01  6.87408993E+01  6.00783114E+01  9.57154667E+01
  6.87408993E+01  6.00783114E+01  9.38075662E+01  6.81982599E+01  6.47677892E+01
  9.38075662E+01  6.81982599E+01  6.47677892E+01  9.38075662E+01  6.81982599E+01
  6.47677892E+01  9.38075662E+01  6.81982599E+01  6.47677892E+01  9.38075662E+01
  6.81982599E+01  6.47677892E+01  9.38075662E+01  6.81982599E+01  6.47677892E+01
  9.38075662E+01  6.81982599E+01  6.47677892E+01  9.38075662E+01  6.81982599E+01
  6.47677892E+01  9.38075662E+01  6.81982599E+01  6.47677892E+01  9.38075662E+01
  6.81982599E+01  6.47677892E+01  9.38075662E+01  6.81982599E+01  6.47677892E+01
  9.38075662E+01  6.81982599E+01  6.47677892E+01  9.38075662E+01  6.81982599E+01
  6.47677892E+01  9.38075662E+01  6.81982599E+01  6.47677892E+01  9.24059600E+01
  6.49588857E+01  6.04754073E+01  9.24059600E+01  6.49588857E+01  6.04754073E+01
  9.24059600E+01  6.49588857E+01  6.04754073E+01  9.24059600E+01  6.49588857E+01
  6.04754073E+01  9.24059600E+01  6.49588857E+01  6.04754073E+01  9.24059600E+01
  6.49588857E+01  6.04754073E+01  9.24059600E+01  6.49588857E+01  6.04754073E+01
  9.24059600E+01  6.49588857E+01  6.04754073E+01  9.24059600E+01  6.49588857E+01
  6.04754073E+01  9.24059600E+01  6.49588857E+01  6.04754073E+01  9.24059600E+01
  6.49588857E+01  6.04754073E+01  9.24059600E+01  6.49588857E+01  6.04754073E+01
  9.24059600E+01  6.49588857E+01  6.04754073E+01  9.24059600E+01  6.49588857E+01
  6.04754073E+01  9.59353710E+01  6.81117598E+01  5.76538858E+01  9.59353710E+01
  6.81117598E+01  5.76538858E+01  9.59353710E+01  6.81117598E+01  5.76538858E+01
  9.59353710E+01  6.81117598E+01  5.76538858E+01  9.59353710E+01  6.81117598E+01
  5.76538858E+01  9.59353710E+01  6.81117598E+01  5.76538858E+01  9.59353710E+01
  6.81117598E+01  5.76538858E+01  9.75781162E+01  7.12593822E+01  6.09165751E+01
  9.75781162E+01  7.12593822E+01  6.09165751E+01  9.75781162E+01  7.12593822E+01
  6.09165751E+01  9.75781162E+01  7.12593822E+01  6.09165751E+01  9.75781162E+01
  7.12593822E+01  6.09165751E+01  9.75781162E+01  7.12593822E+01  6.09165751E+01
  9.75781162E+01  7.12593822E+01  6.09165751E+01  9.75781162E+01  7.12593822E+01
  6.09165751E+01  9.75781162E+01  7.12593822E+01  6.09165751E+01  9.75781162E+01
  7.12593822E+01  6.09165751E+01  9.75781162E+01  7.12593822E+01  6.09165751E+01
  9.75781162E+01  7.12593822E+01  6.09165751E+01  9.75781162E+01  7.12593822E+01
  6.09165751E+01  9.75781162E+01  7.12593822E+01  6.09165751E+01
Constraint Structure                       R   N=          18
  9.41701092E+01  6.74691270E+01  6.16094112E+01  9.57154667E+01  6.87408993E+01
  6.00783114E+01  9.38075662E+01  6.81982599E+01  6.47677892E+01  9.24059600E+01
  6.49588857E+01  6.04754073E+01  9.59353710E+01  6.81117598E+01  5.76538858E+01
  9.75781162E+01  7.12593822E+01  6.09165751E+01
Num ILSW                                   I              100
ILSW                                       I   N=         100
           0           0           0           0           2           0
           0           0           0           0         402          -1
           5           0           0           0           2           0
           0           0           0           0           1           0
           1           1           0           0           0           0
           0           0      100000           0          -1           0
           0           0           0           0           0           0
           0           0           0           1           0           0
           0           0           1           0           0           0
           0           0         131          41           0           0
           0           0           5           0           0           0
           0           0           0           6           0           0
           0           0           0           0           0           0
           0           0           0           0           0           0
           0           0           0           0           0           0
           0           0           0           0           0           0
           0           0           0           0
Num RLSW                                   I               41
RLSW                                       R   N=          41
  8.00000000E-01  7.20000000E-01  1.00000000E+00  8.10000000E-01  2.00000000E-01
  0.00000000E+00  0.00000000E+00  1.00000000E+00  0.00000000E+00  0.00000000E+00
  0.00000000E+00  0.00000000E+00  1.00000000E+00  0.00000000E+00  0.00000000E+00
  0.00000000E+00  0.00000000E+00  1.00000000E+00  0.00000000E+00  0.00000000E+00
  0.00000000E+00  0.00000000E+00  1.00000000E+00  0.00000000E+00  0.00000000E+00
  0.00000000E+00  0.00000000E+00  1.00000000E+00  0.00000000E+00  0.00000000E+00
  0.00000000E+00  0.00000000E+00  1.00000000E+00  0.00000000E+00  0.00000000E+00
  0.00000000E+00  0.00000000E+00  0.00000000E+00  1.00000000E+00  1.00000000E+00
  0.00000000E+00
MxBond                                     I                3
NBond                                      I   N=           6
           3           3           1           1           1           1
IBond                                      I   N=          18
           2           3           4           1           5           6
           1           0           0           1           0           0
           2           0           0           2           0           0
RBond                                      R   N=          18
  1.00000000E+00  1.00000000E+00  1.00000000E+00  1.00000000E+00  1.00000000E-01
  3.00000000E+00  1.00000000E+00  0.00000000E+00  0.00000000E+00  1.00000000E+00
  0.00000000E+00  0.00000000E+00  1.00000000E-01  0.00000000E+00  0.00000000E+00
  3.00000000E+00  0.00000000E+00  0.00000000E+00
Virial Ratio                               R      2.002469156052554E+00
SCF Energy                                 R     -1.556747126623819E+03
Total Energy                               R     -1.556747126623819E+03
RMS Force                                  R      4.737014643348765E-05
RMS Density                                R      2.554324395650774E-09
External E-field                           R   N=          35
  0.00000000E+00  0.00000000E+00  0.00000000E+00  0.00000000E+00  0.00000000E+00
  0.00000000E+00  0.00000000E+00  0.00000000E+00  0.00000000E+00  0.00000000E+00
  0.00000000E+00  0.00000000E+00  0.00000000E+00  0.00000000E+00  0.00000000E+00
  0.00000000E+00  0.00000000E+00  0.00000000E+00  0.00000000E+00  0.00000000E+00
  0.00000000E+00  0.00000000E+00  0.00000000E+00  0.00000000E+00  0.00000000E+00
  0.00000000E+00  0.00000000E+00  0.00000000E+00  0.00000000E+00  0.00000000E+00
  0.00000000E+00  0.00000000E+00  0.00000000E+00  0.00000000E+00  0.00000000E+00
IOpCl                                      I                0
IROHF                                      I                0
Alpha Orbital Energies                     R   N=         186
 -1.01598637E+02 -1.01592868E+02 -1.01590900E+02 -2.47401693E+01 -1.03463184E+01
 -1.03126360E+01 -9.51268418E+00 -9.50662652E+00 -9.50461389E+00 -7.27772716E+00
 -7.27187635E+00 -7.26985844E+00 -7.26735083E+00 -7.26698150E+00 -7.26114608E+00
 -7.26092103E+00 -7.25916628E+00 -7.25889062E+00 -1.28445011E+00 -9.52564001E-01
 -9.04705620E-01 -8.63442100E-01 -7.63319620E-01 -6.29101679E-01 -5.55471858E-01
 -5.46148592E-01 -5.25166143E-01 -4.73601718E-01 -4.41858465E-01 -4.27462539E-01
 -3.79278407E-01 -3.71587667E-01 -3.63797027E-01 -3.53151678E-01 -3.33036025E-01
 -2.68233236E-01 -3.82901491E-02 -3.52908736E-02 -2.67591049E-02 -6.01311907E-03
  1.98645935E-02  3.44851233E-02  4.91123746E-02  5.04764070E-02  5.98806240E-02
  7.13690279E-02  8.10675543E-02  8.36944252E-02  8.58445765E-02  1.07432334E-01
  1.15226367E-01  1.16720466E-01  1.23644199E-01  1.28865474E-01  1.43157994E-01
  1.50622655E-01  1.65643878E-01  1.88749586E-01  2.06971255E-01  2.24347077E-01
  2.28494021E-01  2.67720645E-01  2.87032454E-01  3.08778600E-01  3.30445056E-01
  3.44131708E-01  3.60110587E-01  3.73148071E-01  3.76077702E-01  3.83753702E-01
  3.98473996E-01  4.08594637E-01  4.11662620E-01  4.17610858E-01  4.27293608E-01
  4.27711186E-01  4.28387643E-01  4.34626217E-01  4.54475890E-01  4.58343642E-01
  4.72242920E-01  4.87579823E-01  5.01879115E-01  5.04521934E-01  5.26894583E-01
  5.66937261E-01  5.86456032E-01  6.30837963E-01  6.62843695E-01  6.92490089E-01
  7.00727999E-01  7.17892019E-01  7.37410170E-01  7.54926525E-01  8.06414046E-01
  8.19379407E-01  8.43182660E-01  8.59991194E-01  8.68630307E-01  9.09986369E-01
  9.72248921E-01  1.13822328E+00  1.15018412E+00  1.16956883E+00  1.17445110E+00
  1.18050410E+00  1.20597695E+00  1.29855662E+00  1.36106201E+00  1.37423098E+00
  1.39961990E+00  1.43816986E+00  1.61857837E+00  1.70156604E+00  1.94387287E+00
  2.01563062E+00  2.07383390E+00  2.18728114E+00  2.20703534E+00  2.22673874E+00
  2.25788850E+00  2.27962403E+00  2.29294395E+00  2.29687980E+00  2.32355318E+00
  2.33209883E+00  2.34218904E+00  2.35163916E+00  2.37694517E+00  2.40744299E+00
  2.42986715E+00  2.43229291E+00  2.44918478E+00  2.46540089E+00  2.47412982E+00
  2.50119298E+00  2.52023384E+00  2.54335242E+00  2.57616430E+00  2.64147796E+00
  2.67895169E+00  2.70101444E+00  2.75795416E+00  2.80644543E+00  2.84934575E+00
  2.98959552E+00  3.01187226E+00  3.08993146E+00  3.20865523E+00  3.22992681E+00
  3.32733959E+00  3.36593885E+00  3.40017038E+00  3.44302069E+00  3.50810366E+00
  3.57251379E+00  3.70291400E+00  3.77082163E+00  4.06250067E+00  4.48587376E+00
  6.28419564E+00  6.37085895E+00  6.64959325E+00  9.02740705E+00  9.07094430E+00
  9.20184871E+00  9.35990884E+00  9.64287580E+00  9.73841413E+00  9.80191512E+00
  9.88889187E+00  2.34263255E+01  2.39844741E+01  2.57610442E+01  2.57840717E+01
  2.59212250E+01  2.59551488E+01  2.60604070E+01  2.60950751E+01  2.68716195E+01
  2.72436029E+01  2.75158212E+01  6.67898682E+01  2.15725581E+02  2.15794405E+02
  2.15876623E+02
Alpha MO coefficients                      R   N=       34596
 -3.18941846E-06  8.77373802E-06  6.15360199E-06  8.44773245E-06  3.11642461E-06
 -8.63784973E-05 -3.91786716E-05 -5.21125771E-05 -1.52928641E-05  4.19714006E-04
 -1.46474207E-05 -1.35791154E-04 -3.22442158E-04  4.65651688E-04  6.30707980E-05
  9.78460999E-05  6.26497522E-05 -1.72415097E-05  8.02675648E-06 -3.21253985E-06
 -1.44064121E-07 -2.94751962E-06  2.12063014E-04 -7.13488954E-05  3.24089457E-05
  1.61807192E-05 -6.44872287E-05  3.11353177E-06 -7.29985345E-06  1.35314831E-05
  2.04353215E-05  1.19163030E-05  3.49229616E-05 -1.26566219E-05 -2.23338179E-05
 -1.99137548E-05 -8.32930443E-05  3.27398109E-04  4.77455704E-04  2.42096230E-04
 -1.97419670E-03 -4.86099304E-04 -6.82249535E-04 -2.86846828E-04 -1.94827513E-05
  9.28291492E-06  5.84170148E-06 -5.90237699E-06  1.97264102E-05  2.18020998E-04
 -1.19844910E-04 -5.53381297E-05  5.40266416E-05 -1.47198975E-04 -2.45190008E-05
 -3.67038218E-05 -1.13845185E-05  2.14522431E-05 -2.75080659E-05 -1.01691127E-05
 -1.00328604E-04 -1.53422179E-05 -9.04654671E-06  2.49808967E-05 -3.47652520E-07
  6.68161079E-07  2.95045728E-06 -2.08208096E-07  2.28512180E-07  1.29886456E-06
  4.30040253E-07 -5.06848545E-06 -1.52152948E-05 -1.65067212E-06  2.66806990E-05
  7.80533328E-05  4.21516375E-06 -1.54196233E-06 -1.78604347E-05 -1.47890035E-06
  1.17805246E-06  8.51660623E-07 -5.24750030E-07  1.08382011E-06 -3.19345555E-05
 -2.99142139E-06 -2.65202842E-05  5.81649131E-06 -2.83196208E-06  3.30150262E-07
  3.98860727E-07  8.21805396E-07 -2.63194701E-06  1.55016012E-05 -9.31499243E-05
 -2.84445431E-04 -5.86135114E-05 -6.15671003E-05  2.17585245E-05 -5.31166445E-06
 -5.65054818E-06  1.77775848E-06 -2.63863230E-06 -2.84134304E-06  7.89510312E-07
  1.58230739E-05  1.58430901E-05 -7.99070261E-06 -2.99494470E-05 -2.43537784E-05
  3.04642514E-05 -2.96537226E-05 -3.91094926E-05 -1.06436603E-05 -3.08743487E-06
  1.02873390E-06 -3.07500128E-07 -3.41000101E-07  1.38257984E-06  1.92378033E-05
  8.88674452E-06  2.00606429E-05 -3.40720304E-06 -9.59028255E-06 -3.04617674E-07
  2.19433625E-06 -1.27177586E-06  8.38638636E-07  6.39544734E-06 -9.55111446E-06
  7.42782827E-06 -4.73538072E-07 -2.53005452E-05 -8.40994385E-05 -8.18711707E-05
 -1.02962539E-04 -1.58009759E-05  2.49757408E-04  6.93652547E-06  4.47195696E-05
  9.93919446E-05 -8.83429195E-07  6.80321747E-06  6.65709542E-06 -1.85026406E-06
 -2.46171019E-06 -1.41911306E-06 -2.73065761E-05 -3.11326366E-05  8.67961773E-06
  7.30926532E-06  4.11610450E-01  6.54073158E-01  1.50217841E-02 -4.01153425E-03
  1.60573605E-03 -1.29004201E-03  2.05919262E-03 -3.99499019E-04 -5.44674418E-04
 -1.92071811E-04 -4.18039183E-05 -5.74756461E-05 -2.14028964E-05 -3.64862549E-06
 -5.58320563E-06 -3.40988022E-06  2.91715964E-05  4.29323391E-05  2.26204175E-05
 -4.41007541E-05 -6.75660230E-05 -4.14448167E-05  2.01900189E-04  2.79936882E-04
  1.09778900E-04 -7.70663045E-06  4.75868976E-06  8.36468086E-06 -5.65556753E-06
  1.96591247E-05  3.45565743E-06  2.87103587E-06 -4.44454070E-06  4.79891167E-06
 -2.57349932E-05  2.40346387E-06 -5.29376464E-06 -5.16777998E-06  3.01858877E-06
  2.49313012E-05  3.22423524E-05  1.96579827E-05  1.25358018E-05 -2.94097945E-05
 -2.17044551E-04 -1.78609279E-04  1.97830854E-05  6.31279541E-04  6.72930964E-04
  5.17851674E-04 -3.08547501E-05 -1.75813915E-03  2.48721747E-05 -8.14641346E-06
  4.17028905E-06  1.75329734E-06 -7.31183983E-06 -1.87804888E-04  4.82914601E-05
 -3.43103122E-05 -1.63572938E-05  8.82356450E-05 -3.52960051E-06  9.75724999E-06
 -1.61548225E-06  2.74606754E-06  1.27004549E-05 -1.05995853E-04  1.35275968E-05
 -1.25707576E-05 -7.79590178E-05  7.90809815E-04 -2.00917653E-04 -2.56561631E-04
 -4.94129036E-05 -2.52363834E-03  4.77160808E-04  5.12223762E-04 -1.47016488E-04
  3.97111831E-06  1.52073618E-06 -3.04594664E-06  3.59483437E-06 -1.90188070E-05
 -9.33619025E-05  5.25043339E-05  6.15448967E-05 -4.59501982E-05  1.54203765E-04
  4.11610549E-01  6.54073618E-01  1.50190659E-02 -4.00699561E-03  1.60054059E-03
 -1.31806189E-03  2.50371884E-03  4.18932819E-05 -2.26191591E-04 -7.51661854E-04
  8.71486788E-06 -1.56466297E-05 -7.08076772E-05  6.67792434E-07 -1.63005732E-06
 -6.60292716E-06 -4.70761831E-06  1.25981580E-05  4.95570036E-05  2.66418125E-06
 -1.85827936E-05 -5.92646460E-05 -2.36458042E-05  9.13395405E-05  3.25286659E-04
  2.03031081E-05 -4.13195208E-06  8.95641944E-06 -1.05685971E-06  3.00983822E-07
 -2.92323322E-05  9.04081415E-06 -1.08268873E-05  1.38463694E-06 -4.61809590E-06
 -5.27173308E-05 -8.22440194E-05 -9.01504394E-06  1.48321185E-05 -2.22500204E-05
  2.64530040E-05 -3.22406559E-04 -1.05424266E-04 -8.35272652E-05  1.13345138E-04
  6.69553352E-06  3.19310563E-06 -1.29462753E-05  3.51347888E-06  1.80008952E-06
 -6.45447985E-06 -1.60411396E-05 -4.60518464E-06  3.93086273E-05  1.88986202E-05
 -1.16526310E-05 -9.28196563E-05  2.60554748E-05  1.86176812E-05 -3.35369236E-05
  5.27874352E-06  3.39285412E-06  5.39298622E-06 -5.14952722E-07 -5.80460771E-06
 -2.98679582E-05 -3.19761622E-05 -5.27188970E-05  1.18653875E-05  1.60196452E-05
  4.63459705E-07 -2.50278406E-06 -1.31608603E-06 -9.94713809E-07  1.54547364E-06
  2.33188156E-05  2.96371249E-06  2.89883376E-06 -1.68709582E-06 -1.02965557E-04
  3.40064221E-05  2.35092606E-05 -4.58712560E-05 -9.14785863E-05  8.92291991E-06
 -1.16325174E-06 -3.20170942E-05  2.31422952E-06 -3.18999433E-06 -2.34880341E-06
  9.51292853E-07 -1.55967457E-07 -1.16051812E-05  1.46945923E-05  9.82547313E-06
 -4.04887160E-06 -1.58837249E-07  2.39308188E-05  4.02324393E-05 -9.32472953E-06
  2.01753756E-05 -2.03575020E-05 -6.32274871E-05 -5.85045299E-05 -1.74826185E-05
 -1.13963307E-05  2.53941804E-05  4.67159196E-06  5.36553219E-06 -4.92008583E-07
  2.27522498E-06  2.57208685E-06 -3.51698049E-07 -1.69551206E-05 -2.07751926E-05
 -1.76280948E-06  6.38467707E-05  8.37009406E-05  2.15571749E-05  7.53751087E-08
 -4.58620899E-06 -1.27101418E-05  5.75421951E-07 -4.23812722E-07 -2.41298883E-07
  1.61414827E-07 -3.01447238E-07  1.49981350E-05 -1.03692590E-05 -1.60478107E-05
  1.04605594E-05 -3.43150090E-05  2.71324948E-06 -6.24004001E-06 -1.60004222E-05
 -2.09944813E-05 -5.45777617E-06  1.81753104E-05  3.01259868E-05  3.16248361E-05
 -1.12498612E-05 -1.33478732E-04 -4.13484604E-04 -5.15326347E-04 -6.69621737E-05
  6.28640172E-04  9.76730821E-04  1.17465307E-03  4.20968919E-05 -1.84382226E-05
  8.97687223E-06  5.84367448E-06 -5.70789308E-06  1.88725566E-05  1.44852024E-04
 -8.63493826E-05 -4.47985874E-05  3.83518734E-05 -9.74856033E-05 -2.44912363E-06
  6.68374750E-06 -7.50384575E-06 -6.79958799E-06  5.73278226E-06 -7.71614312E-05
  4.88720002E-05  4.46494821E-05 -3.63501255E-05  4.77863757E-04 -8.76830622E-05
  6.48571553E-05  4.60015593E-04 -2.12551932E-03  4.20920181E-04  3.44081370E-04
 -4.23373813E-04 -9.72232796E-06  7.63509200E-06 -1.02175748E-06  5.74745950E-07
 -9.10978460E-06  1.53564078E-04 -5.11821714E-05  3.65821628E-05  3.83814606E-06
 -1.53589935E-05  5.23192996E-05  8.46492929E-05 -5.08917989E-06  1.35161709E-05
 -1.75643409E-05  1.55166547E-06 -2.52445745E-04 -1.15222975E-04 -1.08384429E-04
  7.72883624E-05  9.05892225E-06  1.01006762E-05 -1.77091199E-06  4.59952593E-06
  5.04005608E-06 -1.13997442E-06 -2.53885016E-05 -3.06112302E-05 -1.31093095E-06
  5.02339414E-05  7.19440812E-05  3.35858389E-05  3.68792893E-05  4.14825865E-05
 -6.25305824E-06 -3.00131505E-06  6.98617663E-06  6.36344712E-06 -2.22356109E-06
 -1.40690604E-07 -9.68706684E-06 -4.05963030E-05 -5.60854212E-05  1.66956290E-05
 -7.26039035E-07  4.11610570E-01  6.54073592E-01  1.50193157E-02 -4.00773953E-03
  1.60625409E-03 -1.34821790E-03  2.26226918E-03  3.93484414E-04  5.64524509E-04
  2.65485762E-04  3.90703540E-05  5.46576461E-05  2.25574972E-05  3.46906835E-06
  4.65905908E-06  1.47215890E-06 -2.55519732E-05 -3.54018104E-05 -1.38039502E-05
  2.44419300E-05  3.43428395E-05  1.44975990E-05 -1.94121512E-04 -2.74682734E-04
 -1.20576408E-04 -5.99058333E-06  6.24647780E-06  1.05157887E-05 -5.92706166E-06
  1.76019267E-05  9.20910557E-06 -5.78366013E-06 -1.47155016E-05  9.62238254E-06
 -3.50181490E-05  1.07186144E-07 -5.22373970E-07  6.16443920E-07  1.98401503E-06
  3.41182378E-06  8.03483049E-06 -2.22644597E-06 -7.51052487E-06 -1.32605784E-05
 -1.22497396E-04  8.46185311E-06 -8.72668356E-06 -5.11393455E-05  3.34974415E-04
 -2.72921761E-05  1.94063559E-05  1.41086100E-04  5.83835121E-07  1.34753565E-06
  2.22063996E-06 -6.98259317E-07  4.77848134E-07 -6.07890389E-06 -4.91606642E-06
 -1.08837686E-05  3.09708122E-06 -1.96924187E-06 -2.89859950E-07 -6.17583765E-07
  9.55525100E-07 -3.02654164E-06  2.16361129E-05 -1.03963579E-04 -3.70307624E-04
  3.22494637E-05  5.74546956E-05  5.22601284E-05  6.80828317E-06  7.26168600E-06
 -2.22678173E-06  3.43509519E-06  3.67856755E-06 -1.08343237E-06 -1.95736751E-05
 -2.04292585E-05  7.62219861E-06  3.79126604E-05  3.64611537E-05 -2.32292641E-05
  4.88285617E-05  4.96411212E-05 -2.26396094E-05 -2.65055284E-06 -1.13270514E-06
 -1.68253302E-06 -1.61007330E-07  3.74920250E-06  1.55658931E-05  1.26492606E-05
  1.77051405E-05 -1.65942473E-06 -2.06229245E-05  2.31471122E-06 -2.79599332E-06
  1.88533451E-05  9.45583561E-06 -3.51524070E-05  2.78778983E-04 -1.39739162E-04
 -1.17834532E-04  1.30604035E-04 -3.18762687E-03  5.09795194E-04  1.64276935E-03
  2.82631512E-03  1.41105364E-02  2.27404742E-03  2.33746326E-03 -9.83855032E-04
  2.36330546E-05  8.38941925E-07  2.41474562E-05 -7.58543070E-06  1.75314173E-05
 -5.11121022E-04  6.00082012E-05 -3.43550511E-04  8.29472639E-05 -1.69344711E-04
  3.15132832E-05 -1.24210230E-04 -2.38208349E-05 -1.74339527E-05  2.95329666E-05
 -2.03094881E-04  1.88854663E-04 -2.72626806E-04 -1.35309045E-03  9.47709886E-03
 -2.87798341E-04 -2.27377164E-03 -5.26283739E-03 -1.47705076E-02  2.20851520E-03
  2.12493654E-03 -1.35057139E-03  1.56040689E-04 -1.52635652E-05  3.14267863E-05
  2.09248046E-05 -1.41411888E-04  9.08904383E-04 -1.75914851E-04  8.15932686E-04
 -2.98933361E-04  1.02478799E-03  2.34039695E-07 -4.50685870E-06  3.55391074E-05
 -8.16830126E-05  1.74642227E-04 -6.06141415E-04 -2.31588569E-03 -3.31530824E-04
 -1.81374012E-04  5.77743324E-04 -1.14534612E-05 -3.37943405E-06  2.78054306E-05
 -5.18470567E-06 -1.42721775E-06  1.28666398E-05  2.95317088E-05  1.30697431E-05
 -5.98145076E-05 -3.86927290E-05 -5.12120375E-05 -1.45377120E-05  3.82322963E-05
  1.37631222E-04  2.51529108E-04  1.07968961E-05  2.91679499E-07  2.31058187E-06
  1.85531982E-06 -1.35192397E-05  6.80298456E-05 -3.30653301E-05  2.57566499E-05
 -7.98495681E-06  4.86869598E-05  2.01274048E-08 -6.72587438E-07  4.61983529E-06
 -7.02558915E-06 -1.24702715E-04  1.61271241E-03  1.33370667E-03  1.08163717E-04
  3.94888221E-05 -2.42092003E-04  2.41401205E-05  3.57191726E-05  1.92466861E-05
  9.64255973E-06  1.46453060E-05  8.71607434E-06 -1.02130937E-04 -1.41818506E-04
 -5.61040628E-05  3.87605592E-04  5.01806843E-04  1.13758828E-04  4.07578310E-04
  5.93696190E-04  2.99222010E-04  2.39540945E-05 -2.75817824E-05 -1.63313034E-05
  6.94723377E-06  1.89018633E-06 -1.75169606E-04  1.17106353E-04  7.14103409E-05
 -5.23522842E-05  1.22557762E-04  5.47679350E-01  4.71856866E-01 -8.67699244E-05
  2.32311593E-04  9.13238248E-04  1.28998167E-02 -1.11140407E-05 -1.13962462E-05
  4.85521555E-06 -1.15304012E-02  4.57057900E-04 -6.56038545E-04 -3.26414137E-03
  1.37792958E-04 -1.22071650E-04 -3.87141716E-04 -6.60129741E-04  2.17155205E-04
 -4.24734929E-05  9.55128210E-05 -1.04918276E-05 -2.74596730E-06 -6.51162254E-04
  1.45987358E-04 -2.69432288E-04  2.78750424E-05 -5.76605847E-06 -1.92095444E-07
  2.95304449E-06 -2.24577181E-05  4.39471372E-05  1.31227052E-04 -7.31496107E-04
  7.68543579E-04 -1.89660851E-04 -3.21707964E-04 -2.63260680E-04  2.14532663E-05
  4.63171078E-05  5.67834898E-05  8.68221116E-06  1.92484358E-05  2.43518921E-05
 -9.67990601E-05 -1.89059753E-04 -2.01962016E-04  3.48743934E-04  5.90441044E-04
  4.80688037E-04 -7.10344889E-05  1.23225962E-04  5.65356761E-04  3.20760546E-05
  2.68327076E-05  5.67297210E-05 -1.55730974E-05  5.85631313E-06 -6.45168047E-05
 -1.91952509E-04 -3.68636620E-04  1.37033183E-04 -2.30375357E-04  6.83640257E-03
  5.99609818E-03  5.23837366E-04  4.37993785E-04 -5.00272716E-04 -1.11117191E-03
 -2.60203503E-03 -2.21748589E-03  2.37090839E-03 -5.47518996E-03 -3.09984918E-03
 -2.56917625E-03  3.02212859E-03  1.10027073E-02  7.83098824E-03  1.30668269E-02
  1.02780490E-02 -1.54491124E-04  2.59182956E-04  1.09149624E-04 -1.72666888E-05
 -2.49137386E-04  1.27884615E-03  2.05762288E-03  2.65551851E-03 -5.00259093E-04
 -1.77615230E-03  5.63047709E-01  4.63257398E-01  8.86818449E-04  6.66842471E-04
 -1.05058648E-03  1.97268785E-02 -2.45177387E-03 -2.61271118E-03  8.08544062E-04
 -7.34107476E-03 -2.40052249E-03 -1.48155508E-03  3.72446401E-03 -1.82433763E-02
 -5.05946624E-03 -8.51631260E-03 -6.84122690E-03  5.18754881E-04 -5.01508738E-04
  2.41305152E-05 -4.66092131E-05  6.95963875E-04  1.23417102E-03 -1.56947526E-03
 -1.27856513E-03  5.71660229E-04 -5.46891005E-04  5.94700204E-07  1.11986899E-05
 -8.29542082E-05  1.84547956E-04 -9.59749231E-05 -1.49436753E-03 -1.44221677E-02
 -1.39133762E-03 -5.48854011E-04  3.00342481E-03 -1.87745647E-05 -7.45282882E-06
  4.04061925E-05 -5.95916685E-06 -3.26638158E-06  1.03715155E-05  1.05967299E-04
  1.36829804E-05 -3.05354169E-04 -3.63790525E-04  4.08683536E-05  1.28752102E-03
 -8.32070400E-05  2.43608750E-04  9.32755159E-04  2.52282774E-05 -6.01583705E-06
 -9.53595281E-06  1.10410708E-05 -4.86505280E-05 -6.98892220E-04  3.12971252E-04
 -2.91149461E-06 -8.84498069E-05  2.36064129E-04  4.36076684E-07  7.29281662E-06
 -5.26210297E-05  1.13262614E-04 -2.86679900E-05 -1.08418494E-03  1.12019313E-02
  6.00454313E-04  1.13652879E-03  1.15269188E-03 -2.70932884E-05 -2.40842086E-05
  2.19797667E-05 -7.48348412E-06 -5.98890724E-06  7.87758786E-06  1.82940268E-04
  1.84339311E-04 -8.92742822E-05 -6.50253115E-04 -6.81950212E-04  2.44536887E-04
  1.19881879E-04  1.38515236E-04 -1.01006815E-05 -3.80985814E-05  1.24928772E-05
 -2.11202770E-05  6.36578305E-06 -2.56843374E-05  4.55950865E-04  1.35061397E-05
  2.12868355E-04  8.16897570E-06 -2.86604599E-04 -3.88687978E-05 -1.17753617E-04
 -1.58303191E-05  4.03209877E-05  1.61002033E-04  1.09251541E-03 -3.56353750E-06
  3.22335199E-05  9.92795428E-05 -2.94963967E-03 -1.60886271E-04 -1.11594889E-03
 -2.51935147E-03  6.58387746E-03 -6.83586875E-05  1.57412845E-03  4.50806190E-03
  2.83980211E-04 -2.19971420E-05  1.61149913E-04 -2.36653692E-05 -1.46085492E-05
 -1.22585262E-03  7.32617096E-05 -7.21375185E-04  1.10003133E-04  6.44207905E-05
 -7.14200976E-06 -2.61275573E-05  9.21508810E-05 -1.51287880E-04  3.47887556E-04
  1.76606768E-03  1.17099632E-02 -7.71494261E-04 -1.21070500E-03 -8.02565303E-04
  8.54561592E-05  1.12578633E-04  3.03853336E-05  2.87311706E-05  3.79006080E-05
  1.03537819E-05 -2.22260437E-04 -2.95014487E-04 -8.50610601E-05 -3.19450657E-04
 -4.34692390E-04 -1.51244949E-04 -9.64266060E-04 -1.22352200E-03 -2.15449297E-04
 -4.04811578E-05  4.01312119E-05  7.75565818E-05 -4.48016122E-05  1.41506809E-04
 -1.74114742E-04 -6.10504955E-06 -1.19476377E-04  1.99941908E-05  1.66599108E-05
  5.63003876E-01  4.63370864E-01 -8.94603560E-04 -7.34881962E-04  8.90596376E-04
  2.00562133E-02  3.23168705E-03  2.66420841E-03 -3.18925974E-03 -1.32528927E-02
 -3.71770284E-05 -4.78315396E-05 -1.13243357E-05  5.07509001E-02  1.49656379E-02
  1.36935830E-02 -1.10766965E-02  2.72138071E-04 -5.44032413E-04 -1.44393981E-04
 -3.11290232E-05  8.24054532E-04 -6.83907184E-04 -1.16723319E-03 -2.13410286E-03
  6.81570372E-04 -6.34533955E-04 -7.05260873E-03 -5.43945073E-03 -5.87254647E-04
 -4.13496310E-04  7.71970200E-04 -1.95607996E-03  2.95555017E-03  2.07474071E-03
 -3.90230289E-03  2.68067780E-03  1.19184661E-03  1.27618019E-03 -3.76376503E-04
 -5.99299404E-02  6.66351267E-03  4.49877155E-03 -9.28401303E-03 -3.83849300E-05
  2.90743076E-04  1.66977323E-04 -7.10366898E-06 -3.98261361E-04  1.19026739E-03
  2.72703669E-03  3.71339967E-03 -9.30336335E-04 -1.00732521E-03 -6.94952670E-06
 -2.35658141E-05  7.32798262E-05 -1.03341625E-04  1.52218942E-04  2.11726785E-03
  1.92854392E-03 -1.65784879E-03 -1.78130798E-03  5.06574837E-04  1.05219060E-05
  5.34259771E-05  1.11503258E-04  3.97058216E-06  1.82564452E-05  3.68892969E-05
 -7.37088027E-05 -1.83515223E-04 -2.61547748E-04  3.80233271E-04  1.91430975E-04
 -7.07953352E-04  3.21431549E-04 -2.10362466E-04 -1.61197982E-03  1.42119915E-04
 -1.24797355E-06  9.24065728E-05 -1.54865307E-05 -7.45205242E-06  8.16568224E-05
 -3.03903247E-04 -3.13652851E-04  1.05029981E-04 -2.65589855E-06 -6.77959138E-06
 -2.43477197E-05  8.30771794E-05 -1.29106924E-04  1.68664294E-04  2.30434114E-03
  6.75135895E-03 -4.98139790E-04  1.08603462E-04  1.90476735E-03 -4.53770800E-05
 -8.09114755E-05 -7.36997388E-05 -1.46611683E-05 -2.67651788E-05 -2.55094670E-05
  6.86022717E-05  1.65730887E-04  2.29682285E-04  6.49082004E-04  7.36607900E-04
 -9.21527982E-05  1.04212771E-03  1.48031831E-03  6.63310162E-04 -2.71387063E-05
  5.96456791E-05  9.24911102E-05 -4.28928710E-05  9.69282441E-05 -2.57414467E-04
 -7.11844499E-05 -1.59621098E-04 -3.73019842E-06  2.55725284E-04  4.03444481E-06
  4.62278154E-06 -1.58387631E-05  2.05586304E-05  1.07192504E-04  2.11523856E-04
  6.15648551E-05 -8.70495839E-05 -4.36096094E-04 -3.39471146E-03  8.09745946E-04
  3.27582511E-04 -1.72526878E-03  1.19704744E-03 -3.30903614E-04 -7.85117324E-05
  8.55604188E-04  6.93591716E-05 -3.01933804E-05 -1.42667019E-05  1.80415082E-05
 -6.25115087E-05 -5.22592360E-04  2.25135558E-04  2.73593607E-05 -8.75950902E-05
  2.77593249E-04  8.13027466E-07  9.96615542E-06 -6.79528766E-05  1.41967975E-04
  7.47982001E-05 -2.11988219E-03  3.01827659E-03 -5.92886891E-04 -5.77869220E-04
  3.42844246E-04  6.73931170E-05  6.02343523E-05 -5.37840962E-05  2.14135432E-05
  1.84273886E-05 -1.90271067E-05 -3.59875720E-04 -3.50097158E-04  2.09731881E-04
  1.20104104E-03  1.24848028E-03 -4.81882530E-04  4.15224071E-04  4.02584158E-04
 -2.45931570E-04 -7.47060428E-05 -1.52334694E-05 -6.36119550E-05  1.15305160E-05
  1.45221995E-05  7.43414147E-04  1.78432940E-04  4.52701964E-04  5.85675435E-06
 -6.77129174E-04 -2.95242961E-06  1.06716587E-04  7.66282590E-05  1.03665546E-04
  3.46402786E-05 -1.35512790E-03 -5.63402591E-04 -7.17395114E-04 -1.32774971E-04
  6.94658268E-03 -2.93393245E-04 -2.37871387E-03 -5.52939990E-03  1.40358439E-02
  1.83658594E-03  2.42400682E-03  6.66314449E-04 -2.22050052E-04  1.07539882E-04
 -4.70515703E-05  3.16155211E-06 -6.47992204E-05  2.95458534E-03 -9.77540795E-04
  5.15444520E-04  1.92254757E-04 -7.88703787E-04 -5.25387885E-05 -9.02391060E-05
  2.33914603E-04  3.43117089E-04  1.78378811E-04  4.41779270E-04 -2.72983842E-04
 -4.44216601E-04 -3.27434029E-04 -4.67227147E-04  6.18165595E-03  8.99309255E-03
  4.51159669E-03 -4.48563631E-02 -9.58569295E-03 -1.38156595E-02 -6.64214874E-03
 -2.02989967E-04  8.73977050E-05  2.52509719E-05 -4.30345404E-05  1.44668577E-04
  2.92608560E-03 -1.61570523E-03 -7.11968100E-04  7.03546803E-04 -1.87669308E-03
  2.13989230E-04  5.85985737E-04 -9.73999822E-04 -8.26599785E-04 -5.03752702E-04
  2.18488685E-04 -2.71130626E-03 -4.40324694E-04 -2.52541767E-04  7.35993241E-04
 -7.49322272E-06  3.24757594E-06  3.31242026E-05 -2.11579368E-06 -1.15437922E-06
  3.71322947E-06  2.43943412E-05 -4.08637616E-05 -1.90390915E-04 -7.76040906E-05
  2.94624558E-04  1.05396877E-03  1.08772847E-04 -2.93746061E-06 -3.60228623E-04
 -1.82474347E-05  1.86103330E-05  1.50225010E-05 -7.75113552E-06  1.23107722E-05
 -4.49515646E-04 -3.00099666E-05 -3.62376689E-04  7.96033306E-05 -4.91833382E-05
  2.53885952E-05  6.81953003E-05 -1.02686696E-04 -1.39362474E-04  1.69913330E-04
 -1.63575308E-03 -6.30086807E-03 -1.30005915E-03 -1.35961464E-03  4.98833119E-04
 -4.75702179E-05 -5.15475531E-05  1.33574464E-05 -1.51352862E-05 -1.65229016E-05
  3.91684553E-06  1.99357707E-04  2.04796825E-04 -8.65603125E-05 -4.84258844E-04
 -4.41001146E-04  3.64033829E-04 -5.79356988E-04 -7.68126192E-04 -2.18950943E-04
 -4.42188145E-05  1.48286084E-05 -4.64523438E-06 -4.70046107E-06  1.89073918E-05
  2.98239376E-04  9.34576128E-05  2.52953433E-04 -3.34332871E-05 -1.59543924E-04
  6.11818906E-06  2.52414749E-05 -1.99338599E-05  3.50946908E-06  7.39981742E-05
 -1.61640910E-04  1.14043790E-04  2.20657410E-06 -3.62643298E-04 -1.04650618E-03
 -1.26554186E-03 -1.53830990E-03 -9.91615580E-05  4.63196119E-03  3.54550647E-05
  7.33000038E-04  1.88202535E-03 -7.65000360E-06  6.35679936E-05  6.05310337E-05
 -1.60837654E-05 -2.82170308E-05 -3.07049343E-05 -3.37640358E-04 -3.86544320E-04
  1.04436003E-04  1.08837856E-04 -1.21796608E-01 -3.26970979E-01  4.97782384E-01
  6.09995395E-01  6.05470638E-02 -2.90972270E-02  4.36498380E-02 -8.26452472E-03
 -1.11951801E-02 -3.77566416E-03 -2.64054224E-03 -3.55231005E-03 -1.13934386E-03
  1.01546570E-03  1.35826952E-03  4.16837038E-04 -7.13716053E-04 -9.11293335E-04
 -1.75022288E-04  3.82730822E-05 -6.82903615E-05 -3.09425717E-04  3.71458844E-03
  5.13219456E-03  1.97036967E-03 -4.26531186E-04  2.54419555E-04  3.56116617E-04
 -2.50671242E-04  8.47786522E-04  2.24997609E-04 -6.90149412E-05 -2.05691757E-04
  1.67116017E-04 -6.89645581E-04 -4.90661341E-05 -7.17866151E-05 -7.73213662E-05
  6.13026160E-05  4.16988223E-04  4.23412788E-04  2.55938156E-04  1.08431446E-04
 -5.32151018E-04 -3.03433241E-03 -3.27031144E-03  3.98375018E-04  1.16572216E-02
  1.18530910E-02  1.00647784E-02 -1.66642042E-03 -3.70763925E-02  2.01847319E-04
 -8.00938148E-05  4.42727739E-06  2.71777240E-05 -9.06294374E-05 -2.44254024E-03
  6.49017253E-04 -4.10727615E-04 -2.26872478E-04  1.17299305E-03 -3.66569779E-06
  1.16283751E-04 -1.90440377E-05  3.89762125E-05  1.67697749E-04 -1.69972399E-03
  2.11076268E-04 -1.66257621E-04 -1.13499194E-03  1.35076443E-02 -3.57517320E-03
 -4.49881184E-03 -6.98206407E-04 -4.93738071E-02  9.87721082E-03  1.08942697E-02
 -2.25000591E-03  2.67700681E-05  3.19888473E-05 -4.67893174E-05  4.83370944E-05
 -2.59885412E-04 -1.10100396E-03  6.33914942E-04  9.12220635E-04 -6.50992248E-04
  2.24054474E-03 -1.21796785E-01 -3.26970027E-01  4.97779292E-01  6.10019546E-01
  6.04886370E-02 -2.93972610E-02  5.33671874E-02  9.67559772E-04 -4.53738460E-03
 -1.54894983E-02  5.83200824E-04 -9.53148025E-04 -4.48219549E-03 -2.22452032E-04
  3.63469747E-04  1.70937384E-03  1.65368651E-04 -2.39624230E-04 -1.18724180E-03
 -7.06015648E-05 -4.52767479E-06  2.15548724E-04 -4.30283170E-04  1.63567939E-03
  5.84722778E-03  9.71034039E-04 -1.99413203E-04  4.06264660E-04 -3.76454345E-05
 -3.53427918E-05 -7.76341900E-04  1.79190285E-04 -3.30003781E-04  4.05147431E-05
 -4.44310791E-05  5.11011076E-04  1.38003083E-03 -2.15922390E-03 -2.38397214E-03
 -5.97679468E-04  7.45820270E-04 -7.73806656E-03 -2.31242417E-03 -1.90936136E-03
  2.27583526E-03  4.98822609E-05  1.65870406E-05 -1.16064370E-04  2.55710658E-05
  1.75779423E-05 -3.47836370E-05 -2.05430427E-04 -6.61880444E-05  4.83769168E-04
  3.21421627E-04 -1.18033887E-04 -1.36039507E-03  4.89805715E-04  3.50922601E-04
 -6.27878260E-04  7.21823862E-05  4.82241588E-05  7.31384024E-05 -5.99775827E-06
 -8.64365202E-05 -4.61477639E-04 -4.74071009E-04 -7.79810882E-04  1.69331107E-04
  2.73815176E-04 -4.09499923E-06 -2.54461352E-05 -1.31417239E-05 -8.43004410E-06
  1.95254371E-05  3.51631771E-04  3.50989976E-05  2.89035685E-05 -3.47658643E-05
 -1.86370661E-03  4.87444554E-04  2.92566525E-04 -7.78478703E-04 -1.43180949E-03
  1.92006194E-04  1.58270675E-05 -5.77577269E-04  2.53716174E-05 -3.03651367E-05
 -2.07049998E-05  9.02212065E-06 -3.05392033E-06 -1.63400991E-04  1.82289161E-04
  1.11850558E-04 -4.97723348E-05  6.08892793E-06 -2.15868390E-04 -5.68419467E-04
  7.86808769E-04  1.31404662E-03 -1.77335295E-04 -7.26386336E-04 -2.34859893E-03
 -1.66524238E-04 -1.63448359E-05  4.92077591E-04  3.84710591E-05  4.18653709E-05
 -1.03704232E-05  1.55703644E-05  1.73117169E-05 -3.19396458E-06 -2.26252767E-04
 -2.68906662E-04 -8.80987489E-07  9.21606084E-04  1.17371019E-03  2.17270186E-04
 -1.98089291E-05 -1.05009796E-04 -2.21511679E-04  6.70391698E-06 -3.63241614E-06
  8.77220771E-07  9.36922959E-08  1.76004006E-06  2.11329423E-04 -1.26014392E-04
 -2.13751352E-04  1.47173493E-04 -5.13494223E-04 -4.83458417E-05 -8.11485186E-05
 -2.63991234E-04 -3.50009033E-04 -9.99060208E-05  2.40311097E-04  4.92256238E-04
  5.53450400E-04 -8.38792013E-05 -1.65696023E-03 -7.60848841E-03 -9.52934221E-03
 -1.35978481E-03  1.16384226E-02  2.03448027E-02  2.44230766E-02  7.55910656E-04
 -2.01122550E-04  7.78978495E-05  1.84826832E-05 -4.17983945E-05  1.53302515E-04
  1.93783954E-03 -1.13604668E-03 -5.59890178E-04  4.95856249E-04 -1.26353218E-03
 -4.00989721E-06  8.56816212E-05 -9.01643541E-05 -7.73494484E-05  8.07395827E-05
 -1.26632955E-03  6.78927121E-04  5.98293956E-04 -5.64829013E-04  8.07934855E-03
 -1.47239669E-03  1.24223344E-03  8.14176533E-03 -4.27162732E-02  8.67008537E-03
  7.23026836E-03 -8.33131674E-03 -1.25782839E-04  1.01585747E-04 -2.41781387E-05
  1.51985626E-05 -1.53792871E-04  2.09922450E-03 -6.95937290E-04  5.94333300E-04
 -4.07179731E-06  1.46188300E-05 -5.12575141E-04 -1.36790481E-03  2.02481570E-03
  2.73993436E-03 -3.13913912E-05  1.76396097E-04 -4.98281987E-03 -2.40525810E-03
 -2.27709054E-03  1.57359291E-03  8.05696714E-05  8.09422680E-05 -3.99775524E-05
  2.60566274E-05  3.02978978E-05 -1.70287957E-06 -3.14299322E-04 -3.76960522E-04
 -1.07895183E-05  7.59692350E-04  1.05394981E-03  4.15090553E-04  6.92613369E-04
  7.69027352E-04 -1.44745275E-04 -3.77323958E-05  9.75206582E-05  8.99881954E-05
 -3.05296410E-05 -6.16610800E-06 -1.15495895E-04 -6.27305074E-04 -8.42303397E-04
  2.53071654E-04 -8.60757556E-06 -1.21797201E-01 -3.26971736E-01  4.97787597E-01
  6.10006959E-01  6.05757685E-02 -2.98147732E-02  4.76939055E-02  8.02256859E-03
  1.15157623E-02  5.42905633E-03  2.51211867E-03  3.52661512E-03  1.48416516E-03
 -9.57732284E-04 -1.34972281E-03 -5.80070330E-04  6.79681433E-04  9.73282546E-04
  4.53815840E-04 -2.06298416E-04 -3.20572713E-04 -2.06560336E-04 -3.50900023E-03
 -4.95416540E-03 -2.14939177E-03 -3.36870680E-04  3.35032203E-04  4.90411369E-04
 -2.77249501E-04  7.86338051E-04  2.47297147E-04 -2.23709364E-04 -4.12426859E-04
  2.43892763E-04 -7.76020979E-04 -2.04080260E-07 -4.35895151E-06  2.42381204E-06
  1.82887660E-05  4.19871157E-05  1.17936486E-04 -1.31405539E-05 -8.75719646E-05
 -1.96069198E-04 -1.74230754E-03  1.71731358E-04 -3.90521499E-05 -6.61704190E-04
  6.23474960E-03 -5.15451345E-04  3.37055839E-04  2.58427775E-03  5.27203140E-06
  1.20366832E-05  2.00894169E-05 -6.37686696E-06  4.80991601E-06 -8.17776808E-05
 -5.04229129E-05 -1.28539831E-04  3.64524284E-05 -2.93972179E-05 -2.64228626E-05
 -7.08515645E-05  1.08816655E-04  1.19402206E-04  2.90618568E-04 -1.87537441E-03
 -8.18642700E-03  7.67940184E-04  1.28138378E-03  1.00806530E-03  6.05217652E-05
  6.47148290E-05 -1.93540065E-05  2.04845363E-05  2.20925334E-05 -6.03642551E-06
 -2.55738784E-04 -2.70766548E-04  8.91157847E-05  6.49085602E-04  6.63822829E-04
 -2.89937199E-04  9.53875459E-04  9.85460388E-04 -3.99479687E-04 -3.94486498E-05
 -1.60951882E-05 -2.52541015E-05 -1.98488485E-06  5.29493107E-05  2.75361651E-04
  1.67557240E-04  2.44681325E-04 -7.89730749E-06 -3.65833702E-04  1.07215266E-06
 -1.88042898E-05 -1.60175123E-05 -2.13659813E-05 -6.40735728E-06  2.85406330E-04
  1.17916686E-04  1.58967859E-04  5.17722599E-05 -1.04422355E-03 -1.25988422E-04
 -2.73357308E-04 -3.37327728E-04  4.16716686E-03  4.93972152E-04  1.87935917E-04
 -1.08467827E-03  7.59568453E-06 -5.85095095E-06  1.23215225E-05 -7.48741655E-06
  3.56215684E-05 -3.29631731E-04  3.67407796E-05 -2.04733117E-04  4.24456084E-05
 -6.12353676E-05  5.27670396E-05  7.59750425E-05 -9.94022628E-05 -1.30634883E-04
 -3.44792949E-05 -5.19339552E-04  8.61030486E-05  8.54886217E-05 -4.54877449E-05
  1.95350308E-03  6.33774288E-04  9.23086110E-04  4.65404889E-04 -4.54753858E-03
  5.66545801E-04  4.15472909E-04 -6.99532220E-04  3.71954082E-06 -8.52395712E-07
 -8.63271919E-06  6.08307906E-06 -2.53692968E-05 -3.15922110E-04  2.38598146E-04
  2.97687643E-04 -1.88080389E-04  5.60726672E-04  1.69513061E-07 -3.80155562E-08
  3.56148718E-06 -1.06052423E-05 -5.22923184E-05  5.94411791E-04  4.10458406E-04
 -2.05610574E-05 -2.03773401E-05  1.09329093E-05  8.00453157E-06 -1.00360004E-05
 -5.32223609E-05 -1.17833729E-06  1.19406899E-06  7.06071656E-06 -1.26138012E-05
  1.55819515E-05  8.32471789E-05  5.14136103E-05 -5.80406612E-05 -3.24372345E-04
  3.74200723E-05 -3.75478869E-05 -2.23321260E-04 -6.88180119E-06  1.01138762E-06
 -2.45012451E-06 -1.42283058E-07  2.53116223E-06  1.24279775E-04 -3.28285597E-05
  3.94251911E-05  2.09615799E-07 -1.37624068E-05  9.85316721E-08 -2.30870323E-07
  3.85816163E-06 -9.99184848E-06 -1.80499672E-05  1.13896690E-04 -7.27680291E-04
 -1.38449767E-04 -1.50775210E-04  3.68817420E-05  1.01546454E-05  1.19014952E-05
 -4.11849990E-07 -3.32358110E-07 -5.49413762E-07 -4.22364687E-07 -2.86939565E-05
 -3.24796894E-05  4.29725505E-06  9.05725838E-05  1.02281690E-04 -1.42133323E-05
  3.85933812E-06  4.85571277E-06  7.80619007E-07  1.10794388E-06  8.61679898E-07
  3.96354402E-08  6.17869323E-07 -4.40601845E-06 -3.71123147E-05 -6.84349926E-06
 -5.89542231E-06 -9.79809845E-06  6.93508962E-05 -1.58719988E-06 -5.60926651E-06
 -3.58810819E-06 -7.01276801E-06 -7.50217437E-06  4.59083802E-05  1.80970620E-05
  3.59116468E-05  3.93136861E-05  1.27354705E-05  3.21935836E-05  1.63871196E-05
 -5.94350046E-05  3.08571713E-05 -9.03993127E-05 -9.49723236E-05  3.35592141E-05
  7.84325768E-07 -5.07302399E-06 -1.79971167E-06 -5.28069104E-07  9.54392521E-06
  3.43163655E-07  3.31698827E-05  2.34941061E-05 -2.14607346E-06 -4.23867612E-05
 -7.51094639E-04 -2.04790515E-03  3.25375489E-03  3.83966041E-03  2.21331942E-04
 -1.83308061E-03  6.87260607E-04 -2.44876252E-04 -2.87545155E-04  8.36601331E-06
  4.67835486E-01  6.25737879E-01  1.91955760E-01 -1.58476849E-01 -2.11965470E-01
 -6.50240086E-02  3.08649172E-02  4.12830380E-02  1.26659464E-02 -6.80343663E-05
 -8.79093040E-05 -1.95018552E-05  3.78090976E-04  5.06799529E-04  1.58110240E-04
  3.09376166E-04 -1.81365509E-04 -2.52955614E-04  1.79699225E-04 -6.11170200E-04
  1.53164129E-04 -9.77940628E-05 -1.17608876E-04  8.13455225E-05 -2.59205829E-04
  4.86363610E-05  7.60316407E-05  3.16374665E-05 -2.23096501E-05 -1.63056097E-04
 -5.12976730E-04 -8.91694106E-05 -6.09037447E-05  1.22370293E-04  1.76690551E-03
  9.64339238E-05  4.74642082E-04  9.81253345E-04 -2.06349437E-03 -1.71368668E-04
 -4.07483250E-04 -5.56167642E-04 -2.36052771E-05  9.63806488E-06 -8.83037075E-06
  2.02988178E-06 -1.10542577E-05  5.96226581E-04 -8.35609316E-05  2.90400576E-04
 -3.39833172E-05 -3.71362471E-05  1.04632309E-06 -1.51433351E-05  5.91820079E-06
 -3.87770696E-06 -2.96984087E-05  2.67583372E-04 -5.19765894E-05  2.52841598E-05
  2.36905451E-04 -1.18817425E-03 -1.13951950E-04 -2.63761953E-04 -3.50051216E-04
  1.34391737E-03 -8.04341333E-05  3.39388711E-05  3.52504655E-04  1.93865931E-05
 -1.49839194E-05  5.03296402E-06 -2.90020528E-06  2.49599816E-05 -2.42884601E-05
 -9.29483429E-05 -2.29236554E-04  9.95606258E-05 -2.50516799E-04 -7.59842620E-04
 -2.07204255E-03  3.30234310E-03  3.86106384E-03  2.03095436E-04 -1.62592656E-03
  1.16895370E-03  6.93466655E-05 -6.02459188E-05 -3.88317536E-04 -9.23889892E-02
  1.76478287E-01  7.79476934E-01  3.12961144E-02 -5.97813791E-02 -2.64043955E-01
 -6.09448104E-03  1.16519317E-02  5.14470520E-02  1.11099650E-05 -6.44365727E-05
 -2.11500615E-04 -7.27250709E-05  1.11539794E-04  5.39008759E-04 -7.12060022E-04
  1.61819330E-04 -2.80204463E-04  2.24535552E-05  2.29433294E-05 -2.69364386E-04
  5.79793814E-05 -1.01122439E-04  4.31170236E-06  3.06947280E-05  2.69722685E-07
  2.02130159E-07  3.60858852E-06 -1.43527147E-05  3.41564939E-05  7.27318421E-05
 -9.75621894E-05 -3.99742283E-05 -7.63112506E-06  1.08519224E-04  6.00762890E-05
  8.30887117E-05  3.20915437E-05 -2.28005391E-05 -3.13519430E-05 -1.16812398E-05
  1.77963195E-05  1.91994746E-05 -5.24845660E-06 -1.95723855E-05 -9.69274979E-07
  6.06541090E-05  4.37990912E-05  2.18271911E-05 -8.21856087E-05  7.64756223E-06
 -1.32316529E-06  6.37939305E-06 -2.16093325E-06  6.93371618E-06 -6.76454015E-06
  2.99056202E-05  1.61259433E-05 -8.98035374E-07 -3.88179796E-05  7.52856653E-09
  6.56987393E-07  2.50073949E-06  5.69637052E-07 -6.53133822E-06 -2.37735531E-05
 -8.62506352E-06 -1.18894938E-06  2.46405988E-05  2.28749800E-04 -5.51309709E-05
 -1.23184126E-05  1.44633438E-04 -1.98092292E-05  1.39565823E-05  1.51798485E-05
 -3.77495596E-06 -4.60947335E-06  4.34013276E-06  1.39848099E-06 -6.19415935E-07
 -1.79304456E-06  3.54569556E-05 -2.77249553E-05 -6.00688786E-06  3.92451903E-06
  8.52127116E-06  5.44767768E-08 -6.63816234E-08  1.49349229E-06 -3.35966958E-06
 -6.86086078E-05  6.19983356E-04 -2.81442055E-04  8.21653298E-05  1.03116852E-04
  1.51953033E-05  8.49564377E-06  1.46094483E-05  1.23254058E-05 -1.01625646E-05
 -1.40963790E-05 -5.53890642E-06  5.64104521E-05  7.10673059E-05  1.11953831E-05
 -1.98969934E-04 -2.52034445E-04 -4.32341365E-05 -1.26278618E-04 -1.61461264E-04
 -3.15030956E-05  5.76223334E-06 -1.41178075E-06  1.67245926E-07  1.07410339E-06
 -5.13438134E-06 -6.80045085E-05  1.81410282E-05  1.58726988E-05 -2.30828628E-05
  1.00779203E-04 -4.67192657E-05 -7.52748948E-05 -9.69305334E-05 -1.30442778E-04
 -4.19350823E-05  5.09530239E-04  1.02354047E-04  1.03737893E-04 -4.83221922E-05
 -1.94318865E-03  3.90649291E-04  7.57970703E-04  8.01482449E-04  2.70949542E-03
  2.08730709E-05 -1.85851317E-04 -5.73448956E-04  6.58108546E-08  8.03544244E-07
  1.18245686E-05 -6.94914796E-06  2.70332915E-05  1.31707642E-04 -2.15891264E-04
 -3.37337093E-04  1.66665154E-04 -4.14313806E-04 -1.09513019E-06  1.50397894E-05
 -1.23678524E-05 -1.13831757E-05  8.97624444E-06 -2.88647314E-04  1.20921328E-04
  1.13324056E-04 -8.22230411E-05  1.67193702E-03 -2.39676164E-04 -4.52230105E-04
 -4.56987970E-04 -2.31503593E-03  1.42553106E-04  2.99097085E-05 -3.79263653E-04
  4.95097847E-06  5.94518108E-06 -5.57306362E-06  7.06140377E-06 -4.04268296E-05
  2.26600896E-04  1.38360349E-05  2.31177590E-04 -7.03800191E-05  1.49849342E-04
 -4.08642178E-08  3.10346847E-07 -3.58727177E-06  1.04919446E-05 -2.84236433E-05
 -8.95608505E-05  3.60583714E-05  4.66752002E-05  6.11991757E-05  1.57372631E-05
  7.94284054E-06 -3.26811161E-05 -1.14712830E-04 -2.09708153E-06  1.04196906E-05
  3.51641576E-05 -8.41974184E-06 -7.00374878E-06  8.15739889E-06  3.58986706E-05
  4.09233147E-05 -4.61790241E-06 -5.31318965E-05 -5.32231621E-05  2.68543171E-05
 -3.41110137E-06 -1.10658874E-07 -6.32617575E-06  2.84603953E-06 -9.68151899E-06
  1.78313906E-05 -3.19647229E-05 -1.17882625E-05  7.26832630E-07  3.70386441E-05
  7.54912433E-04  2.05877699E-03 -3.28313031E-03 -3.83074645E-03 -2.07885948E-04
  1.60934564E-03 -1.08053281E-03 -2.36449314E-04 -3.02328552E-04 -5.90835424E-05
  4.36311086E-01  6.18222562E-01  2.73318013E-01 -1.47797774E-01 -2.09419457E-01
 -9.25855900E-02  2.87932406E-02  4.08009458E-02  1.80449303E-02 -1.19721891E-04
 -1.81080727E-04 -1.06133501E-04  3.10613389E-04  4.26052882E-04  1.56273968E-04
 -2.51032408E-04  2.37815265E-04  3.45358848E-04 -1.98617355E-04  5.71584415E-04
 -1.13943266E-04  9.40420810E-05  1.16015938E-04 -7.02212009E-05  1.99665839E-04
 -5.78700320E-07 -3.86108461E-06 -1.94517508E-06 -1.27263901E-06  2.82047333E-06
  6.23947890E-05  8.36089658E-06  6.59749352E-06 -9.05151920E-06 -5.74790852E-04
  4.99267661E-05 -5.20001708E-05 -3.03071776E-04 -5.51557913E-04  3.48120375E-05
 -1.17688221E-05 -1.44601566E-04  5.06057503E-06 -2.39991381E-06  2.94382380E-07
  4.23188933E-07 -6.16820673E-07 -3.46467320E-05  1.60930193E-05 -3.19416169E-06
 -2.29907556E-06  2.30527330E-06 -7.37145090E-08  2.54691161E-07 -3.59338643E-06
  8.99570505E-06  2.73672160E-05 -1.58596305E-04  7.23596585E-04 -1.35874700E-04
 -1.59887303E-04  3.73134789E-06  3.67251244E-06  1.32751915E-06 -8.25182401E-06
  2.38095250E-06  3.81956898E-06  2.70565084E-06 -3.21643948E-05 -3.83666830E-05
 -5.27072828E-07  1.05010211E-04  1.26728197E-04  5.71900105E-06  1.22123618E-05
  1.20788208E-05 -6.55758055E-06 -8.85991371E-07 -2.22706008E-06 -1.02859239E-06
 -4.45991648E-07  5.69263526E-06  3.67012775E-05  7.80056491E-06  1.52669371E-06
  1.27086489E-05 -8.24858391E-05  3.29180795E-11 -3.91187800E-10  1.84267480E-06
 -1.55355604E-06  5.70348019E-07  5.26946344E-09 -4.25163257E-07  3.63952484E-07
 -1.34146480E-07  1.67064511E-08 -4.16102967E-05  3.50551960E-05 -1.29150960E-05
  7.26580135E-08  1.33940890E-05 -1.13622966E-05  4.00928404E-06 -1.54413369E-06
 -2.80104274E-06  2.19163717E-06 -3.88646837E-07 -9.69791701E-07  6.58651487E-06
  1.01674522E-05 -1.14474127E-05 -9.78505361E-06  2.16225872E-06  1.44373744E-10
  2.00639522E-10  7.52946280E-06 -6.34441592E-06  2.32978433E-06 -1.27055495E-10
  1.80478219E-05 -1.52063085E-05  5.58138331E-06 -2.58142531E-08  1.00496515E-04
 -8.46290888E-05  3.10914979E-05 -5.25094883E-08 -5.10444790E-05  4.31375427E-05
 -1.57874211E-05  1.54903990E-06  5.70105265E-06  1.22425321E-06  1.90497827E-05
  4.18778488E-06  7.07543671E-06  1.54297973E-05 -6.93772409E-06  1.86128956E-05
  7.33589050E-06 -7.38093141E-12  3.04559072E-11 -4.29194504E-10  1.27042663E-09
 -4.30251249E-09  1.43120626E-08  1.57994126E-07 -2.03926758E-05  1.71797022E-05
 -6.33996648E-06 -2.04426853E-06  1.72301694E-06 -6.31666132E-07 -2.36606346E-07
  1.99202306E-07 -7.37283484E-08  5.06880401E-06 -4.27126885E-06  1.56964037E-06
 -1.12095934E-05  9.44660234E-06 -3.46990385E-06  2.22637543E-05 -1.87564116E-05
  6.86870171E-06  2.88881643E-07  4.97730030E-07 -4.44783521E-07 -1.10592384E-07
  1.50539922E-07 -5.43348686E-07 -1.00106751E-06  7.62644304E-07 -1.92613097E-07
 -3.52591391E-07  5.12234505E-12 -2.01088259E-11  2.82755644E-10 -8.02274667E-10
  1.10683212E-09 -4.36988938E-10 -1.01895996E-07  2.89639618E-06 -2.46687122E-06
  8.94662140E-07  3.03370830E-06 -2.55664649E-06  9.38528918E-07 -7.28844939E-07
  6.14340848E-07 -2.25402028E-07 -1.59960781E-06  1.34681192E-06 -4.95522335E-07
  2.44379650E-06 -2.05425753E-06  7.58228862E-07  6.68002384E-06 -5.63779400E-06
  2.07088420E-06 -1.23385877E-07 -4.27092659E-07 -6.70362368E-08 -1.34710365E-06
 -3.03887873E-07  5.15515763E-07  1.81961300E-06  3.20182220E-07  5.84158677E-06
  1.30832620E-06  1.60784659E-11  8.15158308E-11 -2.19865202E-09  1.77845120E-09
 -4.13773948E-10 -8.17284113E-10  1.11832445E-06 -9.41845634E-07  3.44496241E-07
 -2.19175593E-09 -8.61141081E-06  7.25210416E-06 -2.66375265E-06  9.18802682E-09
 -8.64239309E-06  7.27539779E-06 -2.67444794E-06  1.92471884E-07  3.09944043E-07
 -3.20083851E-07 -2.07468096E-07  7.70944144E-08 -1.02511297E-06 -1.85337776E-06
  1.46329035E-06 -2.08345494E-07 -6.36381740E-07 -5.06935300E-10 -1.97091299E-09
  6.00340789E-09 -7.48570859E-10 -5.32256126E-09 -1.99096552E-09 -8.32369803E-08
  1.25340097E-04 -1.05590164E-04  3.87844837E-05  5.98999939E-01 -5.04693118E-01
  1.85314452E-01 -2.03000437E-01  1.71039962E-01 -6.28028682E-02  3.88055450E-02
 -3.26959816E-02  1.20053932E-02 -5.28791654E-04  4.45538519E-04 -1.63599737E-04
 -1.37505977E-04  1.15864993E-04 -4.25402008E-05 -6.74567603E-05 -2.20075049E-04
 -1.99990882E-05 -6.47754394E-04 -1.51032337E-04  1.46032823E-05  4.84037783E-05
  5.23260801E-06  1.45139517E-04  3.35404667E-05 -3.65526452E-07  6.38863556E-06
  5.51414456E-06  6.89041875E-06  9.43411095E-07 -7.75666416E-05 -4.32126445E-05
 -4.45261354E-05  1.84030879E-05 -8.90386019E-05  2.98585749E-05  7.63546193E-05
  1.11422163E-04  1.37349699E-03  5.69138124E-04  3.19418160E-04 -9.69755459E-04
  1.10099329E-05 -2.99113924E-06 -3.44377792E-06  4.25148023E-06 -1.83434189E-05
 -9.80801099E-05  4.55948587E-05  3.22064159E-05 -3.18556695E-05  1.09757712E-04
  1.42046840E-06  1.13958146E-06 -8.19770348E-07 -1.21266134E-06 -6.52378657E-07
 -2.59458697E-05 -2.44875395E-05 -1.68277985E-05  3.33191011E-05  2.81077123E-04
 -8.77795577E-05 -1.30808423E-04 -7.25277741E-05 -1.88694611E-03  5.99053101E-04
  6.16692101E-04 -2.56599157E-04  2.01889343E-05  9.63330864E-06  2.12888364E-05
 -3.60948389E-06 -1.03944041E-05 -1.02574415E-04 -2.99858997E-07 -4.02375785E-05
 -5.52315790E-06  7.52957786E-05 -2.57565193E-08 -5.27222138E-08  4.98756533E-08
 -2.06148739E-07  6.58180901E-06 -5.27231096E-05  8.43962898E-04 -9.86921972E-05
 -1.79417624E-04 -1.69718710E-04 -9.31752691E-06 -1.18696041E-05 -2.21180875E-06
  1.50183221E-07  1.16925617E-06  2.69975821E-06  1.92371810E-05  1.88912227E-05
 -1.07297794E-05 -4.82823691E-05 -5.27876448E-05  1.22912216E-05  6.24199696E-05
  5.53993635E-05 -5.08772217E-05 -5.99597850E-07  2.21463969E-06  8.30237966E-07
  1.27075628E-07 -3.61638197E-06  1.35345178E-05  1.55877361E-06  1.44316946E-05
 -4.31750134E-06  8.30425974E-06 -5.51337805E-08  2.22200397E-07 -3.08128834E-06
  8.59557879E-06 -5.83104364E-06 -5.06635268E-05  2.99590201E-04  1.11779868E-05
  4.65828578E-05  9.07359593E-05  3.51227861E-06  3.80584355E-06 -9.87204300E-07
 -1.35961401E-06 -2.12317064E-06 -1.38701276E-06  4.86635067E-06  1.08594996E-05
  1.38399716E-05 -2.82588187E-05 -5.00773100E-05 -4.50266186E-05  1.34813718E-05
  2.22055591E-05  1.69030518E-05  1.17396907E-06  1.71082359E-07  8.13711129E-07
 -9.25899496E-08 -4.85959253E-07  1.88822389E-06 -1.51762246E-05 -2.45172052E-05
  1.00464199E-05 -1.85568915E-05 -6.02662985E-07 -2.29546697E-06 -1.93938961E-06
 -4.28025700E-06 -5.38829525E-06  1.67769630E-05  8.56265541E-06  1.99578510E-05
  2.66766376E-05  6.42495064E-05 -7.75450476E-06 -1.83482635E-05 -2.48899020E-05
 -2.55838614E-04 -2.25143968E-06 -3.85913003E-05 -9.78463400E-05  1.19039180E-06
  6.86094443E-07  2.98700291E-06 -1.23337009E-06  3.36321484E-06 -2.67161089E-06
 -1.80740005E-06 -9.27987560E-06  4.25210458E-06 -1.31818978E-05 -3.83406232E-06
 -1.01544171E-05  1.19725993E-05  3.11699228E-05 -1.66270691E-05  2.94148128E-05
 -5.10313264E-04 -3.19376877E-05  6.68951433E-05  2.85387002E-04 -2.64556776E-01
 -3.51612834E-02  7.59378634E-01  8.96570682E-02  1.19156385E-02 -2.57350880E-01
 -1.71170689E-02 -2.27324736E-03  4.91371972E-02  2.15769081E-04  4.39519842E-05
 -5.77761041E-04  9.10644921E-05  2.04203594E-05 -2.38733961E-04 -2.80362711E-04
 -3.33701330E-04 -5.15930776E-04  1.12025727E-04  1.99311494E-04  5.79625292E-05
  5.40879470E-05  8.39604086E-05 -1.46853571E-05 -5.28284280E-05 -3.94588594E-10
 -2.45189981E-10  7.46837442E-06 -6.29350505E-06  2.31116651E-06  2.43566389E-10
  1.63983431E-05 -1.38165518E-05  5.07472519E-06  1.61228478E-08  9.88114754E-05
 -8.33031852E-05  3.05100644E-05  1.74940386E-07 -5.97744692E-05  5.03173539E-05
 -1.86378934E-05  7.98406256E-06  1.42370207E-05 -1.16547307E-05  3.15380229E-07
  4.73148582E-06  9.15262969E-06  1.80275811E-05 -1.13557221E-05  1.13083845E-05
  7.31176001E-06 -1.32206077E-11  7.99407133E-11  1.95699077E-06 -1.64904296E-06
  6.05560358E-07  1.44415229E-09 -1.29309375E-06  1.08763421E-06 -3.99529135E-07
 -3.10484801E-08 -4.03491922E-05  3.40618334E-05 -1.24477970E-05 -1.09664905E-07
  2.43334854E-05 -2.03030877E-05  7.51596540E-06 -9.02604624E-07 -2.13979294E-06
  6.86416488E-07 -3.46926699E-06 -1.12470142E-06  1.31953118E-07  2.99177489E-06
  3.06215055E-06  1.77677175E-05  3.13525745E-06  7.91698895E-10  2.53742038E-09
 -6.17756425E-09 -2.23410322E-09  3.76848585E-09  2.50651068E-08  1.38312536E-07
  1.29372179E-04 -1.09040124E-04  3.99944094E-05  5.98964354E-01 -5.04767112E-01
  1.85275714E-01 -2.02989459E-01  1.71065944E-01 -6.27900777E-02  3.87770615E-02
 -3.26787049E-02  1.19947838E-02 -5.17061958E-04  4.35732481E-04 -1.59951260E-04
 -1.43247663E-04  1.20732189E-04 -4.43296854E-05 -2.78374959E-04 -4.98369295E-04
  4.04041555E-04 -2.35845066E-05 -1.67133635E-04  6.27292422E-05  1.12299084E-04
 -9.10318988E-05  5.35048163E-06  3.76639955E-05 -9.85160049E-12  9.97233856E-12
 -2.74110038E-10  7.77620408E-10  1.45710277E-09 -3.12619131E-08 -8.60331516E-08
  2.29599846E-06 -1.94681809E-06  6.97133800E-07 -4.03453416E-05  3.39907394E-05
 -1.24836697E-05  1.29637733E-05 -1.09222287E-05  4.01134628E-06  1.71513359E-06
 -1.44175970E-06  5.30856056E-07 -8.12791632E-06  6.83424963E-06 -2.51829509E-06
 -9.46817676E-06  7.95662248E-06 -2.91480971E-06  4.69704815E-10  3.59111001E-07
  4.18459974E-07  2.30112715E-06  3.97224111E-07 -1.12793117E-06 -3.52968633E-06
 -1.32498665E-07 -9.79335539E-06 -2.35202431E-06  4.12969961E-11  2.02627381E-10
  2.63788261E-07 -2.22223937E-07  8.18662423E-08 -2.54752038E-09 -2.55337463E-06
  2.15123291E-06 -7.91303048E-07  1.71494864E-08  8.52474304E-06 -7.18143776E-06
  2.64921661E-06  3.91815580E-08  3.36019076E-06 -2.84060060E-06  1.04574053E-06
 -2.56642175E-07 -4.25607031E-07  4.11985858E-07  1.94994178E-07 -1.16641145E-07
  1.22021807E-06  2.02625920E-06 -1.95513446E-06 -9.08383876E-07  5.57764250E-07
  1.08927814E-11 -3.54123768E-11  5.39541244E-10 -1.59048565E-09  5.44392249E-09
 -2.34193055E-08 -1.31910506E-07 -2.40913412E-05  2.03228434E-05 -7.43229330E-06
 -6.00852551E-07  5.06748191E-07 -1.86174522E-07 -7.71575745E-07  6.50392020E-07
 -2.38421233E-07  5.47271344E-06 -4.61375430E-06  1.69191989E-06 -1.19133436E-05
  1.00447029E-05 -3.68281933E-06  2.25082587E-05 -1.89397768E-05  6.95348411E-06
  1.75469925E-08  1.21581324E-07  8.03935661E-08  5.82278360E-07  1.11332989E-07
 -2.04779134E-07 -4.30331643E-07  2.28885795E-07 -4.10719694E-07 -1.94726210E-07
  5.27926978E-07 -2.74680761E-06  1.33327381E-06  2.87564435E-06  3.52689139E-06
  3.12027051E-05  2.08600449E-05  1.18463764E-05 -3.51619380E-05 -2.24331991E-04
  5.52987993E-05  2.78652688E-05 -1.02851882E-04 -5.45266550E-04 -3.58457655E-05
  2.07615178E-04  6.81300271E-04 -1.10935975E-05  2.12655298E-05  2.33213438E-05
 -9.77551830E-06  1.28213623E-05  1.03057643E-04 -8.14686961E-05 -6.79282358E-05
  4.20826301E-05 -9.88540275E-05 -3.72769323E-07  2.53435953E-06 -2.50851374E-06
  1.82941834E-06  1.30916101E-05 -6.45900877E-05  3.28331990E-05  7.38404381E-06
 -8.60170302E-05  1.02179927E-04 -2.70751162E-05  1.15727822E-05  1.19053515E-04
  9.14645889E-05 -5.94314123E-04 -7.54611302E-04 -1.34210214E-04 -1.98659064E-05
  9.75730926E-06 -1.25394666E-06 -1.48121041E-06  1.17495149E-06  2.15907164E-04
 -7.82137917E-05  3.20386311E-05  1.50104131E-05 -5.11103203E-05  1.34731839E-05
  3.69503717E-05 -6.20603522E-05 -5.94806169E-05 -2.11172572E-05  7.50102984E-05
 -6.23863822E-04  1.50003359E-04  2.18939124E-04  1.11552529E-04  5.29698679E-01
  6.01598018E-01 -7.34242779E-02 -1.79513027E-01 -2.03879985E-01  2.48818034E-02
  3.42607002E-02  3.89146722E-02 -4.73934715E-03 -3.95057130E-04 -4.53959364E-04
  4.03440971E-05 -1.83811137E-04 -2.09363388E-04  2.38704924E-05  1.02663530E-04
 -4.73295660E-04 -5.15101109E-04  1.72783252E-04 -2.93215430E-05 -2.24595039E-05
  8.76394691E-05  9.25101616E-05 -3.12465429E-05  4.13090254E-06  1.54309955E-07
 -4.32134671E-07  6.92137865E-06 -1.98803956E-05  2.42730283E-05  1.24095588E-04
  1.44605076E-04 -3.45692780E-05 -1.22765322E-05  7.82804365E-05 -1.59486055E-05
  8.89763080E-07  5.39463183E-05  5.22326935E-06 -6.70265502E-08 -1.70579987E-05
 -6.04398829E-06 -1.18831137E-05 -1.28186345E-05  4.15858500E-05  7.63095161E-05
  7.33840522E-05  2.52825054E-05  8.23456799E-06 -5.93116744E-05  5.62370754E-06
  9.06590853E-07  5.92436951E-06 -1.65426576E-06  2.48268965E-06 -2.60768716E-05
  1.47213259E-05  7.66758046E-06 -6.96848909E-06  1.90390795E-05  8.30920323E-08
  1.42936735E-07 -4.74379699E-07  5.78173723E-07  3.10846284E-06  6.56761332E-06
  3.20314110E-06 -1.86422675E-06 -1.54333659E-05 -1.78618627E-04 -1.93703451E-05
 -5.98625304E-05 -1.00433081E-04  4.17506355E-05  3.57341972E-05  6.09028930E-05
  5.03579685E-05  1.71197906E-06  1.22910957E-06  2.72607047E-06 -7.20548303E-07
  1.74256008E-07 -1.53287501E-05 -6.34461314E-06 -1.83135266E-05  4.41849547E-06
 -4.37014178E-07 -1.04829693E-08 -1.83749870E-07  1.54846337E-06 -4.37682267E-06
  1.60507929E-05 -3.04691496E-05  9.73776259E-04 -7.11430219E-05 -1.54414943E-04
 -1.90567726E-04 -1.71586861E-07  2.45196280E-07  1.22113415E-06  2.62468057E-06
  1.52007008E-06 -4.34398833E-06 -1.44185650E-05 -7.09443253E-06  2.72862134E-05
  1.95859937E-05 -4.70039816E-06 -7.61140027E-05 -5.30209056E-05 -3.68262914E-05
  7.10975688E-05 -1.08776625E-06  1.75325407E-06  8.17541382E-07 -1.77626987E-07
 -1.41431422E-06 -2.72716367E-06  1.19109564E-05  1.83516295E-05 -7.70213162E-06
  1.44614102E-05 -3.19593732E-10 -5.83361952E-10  7.17631545E-06 -6.04889526E-06
  2.21995971E-06  8.19399211E-09  1.62060619E-05 -1.36473670E-05  5.01088093E-06
 -2.04911429E-08  9.07606649E-05 -7.63801537E-05  2.81001279E-05  1.46506262E-07
  2.53382700E-07 -1.81860598E-07  1.36356823E-07 -2.68515827E-06 -7.62687167E-06
  5.58162151E-07 -1.84326276E-05 -4.74850515E-06 -5.68223049E-06 -1.31652553E-05
  4.61992544E-06 -2.00382601E-05 -6.77014768E-06 -7.97561454E-11  6.79552770E-10
  1.67355858E-06 -1.41135018E-06  5.17819656E-07 -1.13012926E-08 -3.01757183E-07
  2.62768750E-07 -9.58176383E-08  2.33580055E-08 -3.22142250E-05  2.71195459E-05
 -1.00240352E-05 -9.31616797E-08 -5.14749334E-05  4.33322543E-05 -1.59506166E-05
  1.50263985E-06  3.04655830E-06 -1.74853072E-06  2.46668452E-06  1.30056717E-06
 -7.09642118E-06 -1.26817946E-05  1.02655900E-05 -7.17276552E-07 -4.25051004E-06
  6.57664944E-12 -3.22443951E-11  4.25026267E-10 -1.21154878E-09  2.28222206E-09
 -5.46266474E-09 -1.14424023E-07 -9.22199944E-06  7.77719864E-06 -2.82830785E-06
  3.80580044E-05 -3.20620029E-05  1.17699570E-05 -1.36273251E-05  1.14800520E-05
 -4.21439303E-06  6.93120408E-06 -5.83733313E-06  2.14396328E-06 -8.50326826E-06
  7.15908016E-06 -2.63418131E-06 -8.87945008E-06  7.47329187E-06 -2.73408210E-06
 -9.67571123E-07 -1.64860796E-06  1.50471524E-06  4.66732632E-07 -4.87138970E-07
  4.37971874E-06  7.86070960E-06 -6.32448113E-06  5.03160203E-07  2.65311158E-06
  4.68552604E-09  1.31836169E-08 -2.46780860E-08 -1.75823717E-08 -6.93309581E-09
  5.28619503E-08  8.18163737E-10  1.14653643E-04 -9.66047518E-05  3.54599945E-05
  5.99034775E-01 -5.04682183E-01  1.85280077E-01 -2.03013086E-01  1.71036948E-01
 -6.27914802E-02  3.87815786E-02 -3.26731699E-02  1.19950517E-02 -5.16729389E-04
  4.35358226E-04 -1.59820041E-04 -1.41533591E-04  1.19269372E-04 -4.37752623E-05
  9.24790357E-05  2.62928700E-04 -1.86674241E-05  6.37276572E-04  1.63928036E-04
 -2.07935230E-05 -5.91248060E-05  4.17667655E-06 -1.43389615E-04 -3.68681261E-05
 -6.37528353E-11 -3.47317583E-10 -5.83073212E-07  4.90879913E-07 -1.80499882E-07
  4.32029422E-09  1.68083471E-06 -1.41478861E-06  5.21129287E-07 -1.79972986E-08
 -1.21785290E-05  1.02699998E-05 -3.77752716E-06 -3.19174580E-08  2.48176417E-05
 -2.09181653E-05  7.67210059E-06  1.17398803E-07  2.02421702E-07 -1.79049210E-07
 -3.62740092E-08  6.24613445E-08 -8.31854327E-07 -1.41281152E-06  1.29534125E-06
  4.01841191E-07 -4.17922738E-07 -1.37720716E-11  5.06086843E-11 -7.29145240E-10
  2.06858114E-09 -2.10999880E-09 -8.69137731E-09  6.59736435E-08  1.91281238E-05
 -1.61363821E-05  5.91437738E-06 -1.75182258E-06  1.47601239E-06 -5.41770375E-07
  9.80507630E-07 -8.25992685E-07  3.03436116E-07 -2.48980584E-06  2.09493180E-06
 -7.71406595E-07  3.82349127E-06 -3.20493889E-06  1.18635396E-06  5.89936490E-06
 -4.97537878E-06  1.82825497E-06  3.83821266E-08  3.52513166E-07  2.82101421E-07
  1.84008641E-06  3.38988320E-07 -2.47883732E-07 -1.76094903E-06 -1.19824165E-06
 -8.49812131E-06 -1.61437152E-06 -6.60952698E-07  2.17958481E-06  1.01904664E-07
  2.14672241E-06  5.51795797E-06 -4.50023437E-05 -2.42822904E-05 -2.92716910E-05
 -1.21993651E-06  2.44857000E-04 -1.00382726E-04 -9.61287016E-05  6.27293949E-05
 -2.94808368E-03 -3.02206175E-04 -1.30115057E-04  6.22316390E-04 -2.89382623E-05
 -6.50652311E-06 -2.30812708E-05  3.28771328E-06  1.13574205E-05  1.87936192E-04
 -3.69995548E-05  5.86230449E-05  5.60350945E-06 -6.18462425E-05  6.96566982E-07
 -7.11292709E-06  1.58832427E-06  3.17014457E-06  3.49953103E-06  1.05739521E-04
 -1.93887863E-05 -2.38708752E-05 -2.33963095E-06 -1.29617886E-04  3.46873563E-06
 -4.35956091E-07 -1.24393928E-05  2.64227811E-03 -5.78524000E-04 -5.75581678E-04
  3.02248741E-04 -1.26504693E-05  6.18007841E-06  8.07432860E-06 -6.40775983E-06
  2.30644157E-05  1.71415661E-04 -7.99002214E-05 -5.74515765E-05  5.63121159E-05
 -1.94093095E-04 -1.67237502E-07  4.84709341E-07 -7.65578012E-06  2.19918442E-05
 -2.66586812E-05 -1.51267247E-04 -1.88187509E-05  8.99538602E-05  8.89181611E-05
 -4.85676973E-05 -3.45998286E-05 -3.66359783E-05  1.20653208E-05  1.26246105E-05
  1.37459169E-05 -3.36990049E-06 -8.66616583E-06 -1.70380169E-05 -1.84048665E-05
  1.52237070E-05  6.10777849E-05  1.17183140E-04 -4.46326552E-05 -4.64987335E-05
  1.76378879E-05 -1.90854723E-06 -1.95024575E-06 -5.45718166E-06  2.07585520E-06
 -4.48456026E-06 -3.73435475E-05  8.15402410E-06 -9.28123016E-06 -2.26961071E-06
  1.57428381E-05 -1.04597423E-05 -2.86798802E-05  4.92573263E-05  4.40754883E-05
  1.46773715E-05 -6.16473235E-05  3.79679968E-04 -2.12644899E-05  5.35386772E-05
  2.14600963E-04 -3.13832835E-01 -1.03029462E-01  7.34021986E-01  1.06356312E-01
  3.49152137E-02 -2.48758762E-01 -2.02922418E-02 -6.65590435E-03  4.74775313E-02
  2.26765606E-04  6.51260140E-05 -5.55767568E-04  1.04630598E-04  3.04523060E-05
 -2.55338513E-04  3.79377001E-04  2.70374555E-04  4.79292658E-04 -8.36532098E-05
 -2.67916159E-04 -6.94066091E-05 -5.01003780E-05 -8.71164472E-05  1.47190640E-05
  5.23714842E-05  1.97705816E-07  1.25188246E-06  2.38197862E-06  2.41103586E-06
 -1.13305040E-06 -1.52659024E-05 -7.51564232E-06 -7.89807762E-06  2.78388548E-06
  9.74020783E-06 -3.42843929E-05 -5.89957178E-05 -4.98768958E-05 -2.14199771E-04
  6.80567076E-05  6.07981386E-05 -5.43761509E-05  1.21280258E-06  2.10086962E-06
  3.17951675E-06 -8.25498105E-07 -4.82610256E-07 -7.85310613E-06 -1.36305035E-05
 -2.03226215E-05  5.17239404E-06  3.87130316E-06  8.66974765E-08 -3.26006552E-07
  4.63880861E-06 -1.29616341E-05 -1.00584809E-06  1.97072204E-04  3.47603327E-05
  6.28681752E-05  4.27543400E-05 -8.67414905E-05 -1.24077549E-06 -2.21697971E-06
 -2.02633596E-06 -1.03413091E-06 -1.70464919E-06 -1.29914758E-06  1.64750562E-05
  2.54652256E-05  1.60940498E-05 -8.20230243E-05 -1.18898445E-04 -5.86747273E-05
 -3.38680272E-05 -3.44649333E-05  1.56180997E-05  1.08603578E-07 -2.37389350E-07
 -4.43460956E-07  2.17642185E-07 -5.74196709E-07 -2.54847587E-05  2.13796857E-05
  2.88651578E-05 -1.73725955E-05  5.09008607E-05 -5.68120891E-03 -8.81193686E-03
  3.16351121E-03  1.45422796E-03 -6.26441452E-03  2.46033768E-02  8.20191884E-03
  5.43588193E-03 -1.17044125E-02  2.58210254E-02 -2.51587920E-03 -1.60817550E-02
 -3.56691789E-02 -1.71717625E-01 -3.66638177E-02 -3.93424296E-02  1.13543244E-02
  9.88407374E-04 -1.27910030E-03 -5.83747833E-04  1.79262631E-04  7.31235457E-04
  2.71537253E-03 -2.38868103E-03 -1.06342460E-03  5.73781923E-04 -5.44367181E-05
 -3.74643653E-02 -5.71558003E-02  4.37772606E-03 -1.40958780E-02 -5.25449630E-02
  1.50948492E-01  7.59559990E-03 -1.43093080E-02 -6.35278492E-02 -5.94446471E-02
  2.54854492E-03  2.19001127E-02  5.14131206E-02  2.04472359E-01 -2.21121105E-02
 -1.78483416E-02  2.28527280E-02  1.38831903E-02 -2.96809644E-03  6.50122181E-03
 -1.00618317E-03  1.57965058E-03  3.21716280E-03  1.20138839E-03  4.58283042E-04
  1.10471866E-03 -7.98821850E-03  1.21799706E-04  3.50252119E-04 -7.23685129E-04
 -1.16194364E-03  5.90538873E-04  1.39121968E-02  2.82894946E-02  5.50583826E-03
  3.96944398E-03 -6.98733892E-03 -8.25282144E-05  2.29917769E-05  3.29443465E-04
  5.16365313E-05 -1.35130946E-05 -2.03729264E-04 -1.27459795E-04  1.11892900E-05
  4.42377282E-04  1.27801359E-03 -3.03736546E-05 -4.21374961E-03 -1.18550796E-03
 -2.99963284E-03 -4.34111772E-03  1.60881090E-04 -1.82173521E-04 -6.82295671E-05
  2.22831554E-05  1.07093711E-04  6.90349360E-04  2.04652690E-04  4.64699254E-04
 -7.67908339E-06 -6.35453629E-04  4.55549100E-04  1.29908538E-03 -2.59162052E-03
 -4.73074245E-03  6.78874161E-03 -4.65790168E-03 -2.90940994E-02 -2.59548714E-03
 -3.08575822E-03 -1.32616005E-05 -1.16999720E-03 -1.33056943E-03  1.58068751E-04
  4.45491972E-04  4.90553141E-04 -1.03992948E-04  1.03752477E-03  1.28715911E-03
  1.52042309E-04  1.25720603E-03  1.04814593E-03 -1.20965759E-03 -3.53413352E-03
 -5.04721333E-03 -2.31974914E-03 -3.71767296E-04  1.25890235E-04  5.66242704E-05
 -9.78054080E-05  3.94504109E-04  4.28527759E-04 -1.23423003E-03 -5.74522877E-04
  2.55677829E-05  1.57379237E-03 -1.19583995E-01 -1.93325227E-01 -4.08132991E-03
  1.14415072E-02  4.43558170E-02  5.71225710E-01 -6.59918718E-03  1.89547806E-02
  7.29588924E-02  4.70422086E-01 -6.58226329E-03  1.55217890E-02  6.35522247E-02
  8.28119310E-03  1.26441295E-03  2.99627293E-03  4.07685974E-03  2.50656553E-03
 -3.81551663E-04  1.17133999E-03 -1.23472388E-04 -1.89029693E-04  1.50125543E-02
 -2.64071836E-03  7.00653084E-03 -8.64602684E-04 -7.63945020E-05  1.49142296E-03
  4.23350707E-03 -8.28255194E-03 -1.60950774E-02  2.15734824E-02  2.30289786E-02
 -2.62686572E-02  4.51964721E-03  7.34193049E-03  5.38803376E-03  2.76861248E-03
  4.37730356E-03  2.97250098E-03 -1.01972622E-03 -1.65064069E-03 -1.19940211E-03
 -2.19121238E-03 -3.17989649E-03 -1.57788116E-03 -7.98990231E-03 -1.37071118E-02
 -1.15045838E-02  6.28050511E-04 -2.54559771E-03 -8.96511889E-03 -4.34009827E-04
  7.47572703E-04  1.19807028E-03 -5.89047781E-04  1.47234748E-03 -1.31225123E-05
  4.37517590E-03  6.97186569E-03 -2.68014661E-03  4.20309314E-03 -7.08174273E-02
 -1.09984861E-01  2.28573720E-03  3.66760719E-03  2.61529901E-03  2.95369056E-01
 -6.49736192E-03 -2.44765967E-03  1.43586935E-02  1.33577384E-01  3.28569895E-02
  3.24355894E-02 -1.78678018E-02 -2.22938162E-01 -1.29574936E-01 -1.17782855E-01
  9.80444776E-02  3.94044617E-03 -3.04387425E-03  1.77124861E-03 -1.04898911E-03
  6.94102352E-03 -7.61004435E-04  2.03726700E-03  5.98151448E-03 -3.15057461E-03
  1.00945570E-02 -4.21419487E-02 -6.56607125E-02 -1.35195032E-02 -2.89036071E-03
  3.58236193E-02  1.83344439E-01 -1.69616191E-02 -1.73287557E-04  5.43477060E-02
  2.53505232E-02  8.81473103E-04 -8.47873983E-03 -2.59340443E-02  4.84123156E-01
 -3.66068968E-02 -1.53137684E-02  7.65955423E-02 -1.71442567E-03 -3.05964682E-03
 -2.10617651E-03 -3.33264531E-04  6.93335884E-03 -9.38852743E-03  1.33108929E-03
 -2.92779610E-03 -4.70783076E-04  4.66075015E-03  1.86321183E-02  5.32733204E-02
 -1.07482465E-01 -1.99784306E-01  3.00063682E-01  2.68138505E-01 -9.76062992E-02
  1.02794594E-02  2.43327073E-02  3.30534748E-02 -3.98570389E-03  6.90144275E-03
  3.16854384E-02  1.40973014E-03 -2.63352464E-03 -1.17314160E-02  4.45702622E-03
 -5.98256514E-03 -3.07062491E-02  6.46520588E-03 -1.87659040E-02 -7.20206049E-02
 -1.39739049E-04 -9.35406867E-03 -2.50285774E-02  1.00450018E-02 -2.41723116E-03
  3.83442945E-03 -2.93363715E-04 -2.12676481E-04  2.29238149E-02 -2.83948224E-03
  1.22630204E-02 -1.84382087E-03  1.86982251E-04  1.66208404E-02  4.75284770E-02
 -9.59399258E-02 -1.77983290E-01  2.66912202E-01  2.42866732E-01 -1.19180254E-01
 -1.25181305E-02 -2.55617346E-02 -2.91449393E-02 -1.57846729E-02 -2.27396969E-02
 -1.09083699E-02  5.80819329E-03  8.41436008E-03  4.14186289E-03  1.56124743E-02
  2.21389802E-02  9.82858479E-03  3.42065293E-02  5.06113786E-02  2.72706350E-02
  1.17684093E-02  1.84077616E-02  1.20913492E-02 -3.07269895E-03  3.14964699E-03
  4.67493803E-03 -2.61834680E-03  7.39338639E-03 -5.10972120E-03  8.23073096E-03
  1.24595142E-02 -6.13330127E-03  1.49445595E-02  1.84005179E-02  3.00464158E-02
 -3.12848364E-03  1.14903847E-03  1.32414982E-02 -9.33974188E-02 -4.65867044E-03
  1.49758032E-03  1.91368547E-02 -7.02589758E-02 -2.23674404E-03  2.89762898E-03
  1.51214380E-02 -3.74554697E-02  2.05581881E-03 -4.41178388E-03 -1.86617510E-02
  2.14812465E-04 -1.73153340E-04 -3.35822004E-05  2.01394553E-05  7.43999602E-05
  1.48103519E-03 -3.78641201E-04  5.77332555E-04 -5.87133470E-05  6.56798166E-05
  1.15862415E-02  3.31314710E-02 -6.68779087E-02 -1.24219859E-01  1.86260664E-01
  1.73195854E-01 -7.63328905E-02  1.69651070E-02  2.11700767E-02  2.81888745E-03
  1.22428789E-02  1.53288156E-02  2.17443708E-03 -4.60787133E-03 -5.73823827E-03
 -7.33719533E-04 -1.13004009E-02 -1.43670194E-02 -2.60138096E-03 -3.02408898E-02
 -3.69417546E-02 -2.86121868E-03 -1.21540544E-02 -1.47670045E-02 -9.31716976E-04
 -3.10073200E-03  1.08815916E-03  1.42195204E-03 -1.38504263E-03  5.55155512E-03
 -7.59847338E-03  1.38972584E-03  2.08353350E-03 -3.00230224E-03  1.39702807E-02
  1.91325751E-02  2.96238992E-02  2.27838888E-02  2.46561721E-02 -6.49856106E-03
 -7.56079858E-02  4.05686243E-02  4.35212374E-02 -1.26086895E-02 -7.70405224E-02
 -1.02371018E-02  1.70294761E-03  3.77253141E-02  7.82339586E-02  4.11571952E-02
  2.40554057E-02 -6.75206346E-02 -1.06854010E-03 -1.54355242E-03 -3.08498189E-03
  1.01491673E-03 -1.21746897E-03 -1.59633842E-02  2.55651243E-03 -6.68881417E-03
  3.59231983E-04  2.75398862E-03 -3.70034051E-02 -5.75337908E-02  3.14737712E-02
  4.36807766E-02  1.72277881E-02  1.53814113E-01  5.53127208E-02  7.36956103E-02
  2.19165337E-02  1.09765535E-01 -2.71012716E-02 -3.22510044E-02 -2.40983370E-04
 -3.24000879E-02  8.34087215E-02  9.96895664E-02  1.90905752E-03 -2.96203146E-03
  1.18767724E-03  1.77156260E-03 -1.52258018E-03  5.88753834E-03 -1.37337762E-02
  8.84341592E-03  8.12631021E-03 -5.77906080E-03  1.69620793E-02 -7.39737630E-03
 -2.11801467E-02  4.29802061E-02  7.90253733E-02 -1.19763206E-01 -1.10140987E-01
  5.93925931E-02 -2.25917443E-03 -8.71852097E-03 -1.64503338E-02 -1.68079357E-03
 -5.39502086E-03 -9.26261420E-03  6.81051995E-04  2.04674707E-03  3.37363694E-03
  1.26560301E-03  5.11143958E-03  9.83309276E-03  5.41938682E-03  1.24937431E-02
  1.65108189E-02  2.24375676E-03  6.78036996E-03  1.12183120E-02 -3.08886352E-03
 -3.57191806E-04 -2.48557565E-03  4.88632915E-04  1.32733019E-04 -4.77783856E-03
 -2.12276904E-03 -5.59366033E-03  1.25312665E-03  5.92141188E-04 -1.44062021E-02
 -4.12222294E-02  8.34404137E-02  1.54627814E-01 -2.34633332E-01 -2.07031407E-01
  7.17861724E-02  1.55957903E-02  2.20121213E-02  9.53883686E-03  9.55441615E-03
  1.39397713E-02  7.08051033E-03 -3.48308698E-03 -5.12913159E-03 -2.71016480E-03
 -9.95342806E-03 -1.40811971E-02 -6.17612205E-03 -1.93364652E-02 -3.03121451E-02
 -2.00493201E-02 -8.66810339E-03 -1.28381794E-02 -6.94628518E-03  1.86206943E-03
 -2.17996244E-03 -3.13270610E-03  1.67124406E-03 -4.40783697E-03  1.92120949E-03
 -5.67050084E-03 -9.67074096E-03  4.42354871E-03 -1.02856343E-02  1.46952953E-02
  2.39651304E-02  7.62935042E-03  1.41715663E-02  1.39358463E-02 -7.35979694E-02
  1.03946857E-02  1.98512953E-02  2.04661902E-02 -6.63872285E-02  1.55517623E-02
  2.27922133E-02  1.18068755E-02 -1.57984738E-02 -2.60997136E-03 -5.89767195E-03
 -7.62675682E-03  2.54970419E-04  1.26412862E-04  3.83635294E-04 -1.14366960E-04
  1.41635851E-04  7.45659710E-04  2.82044314E-03  3.90864102E-03 -1.14629530E-03
 -4.34743724E-05  3.00713125E-02  8.60678611E-02 -1.74389401E-01 -3.22539848E-01
  4.90743659E-01  4.42822354E-01 -1.81474890E-01  3.40168477E-02  4.81601090E-02
  2.12047537E-02  2.08704493E-02  2.82210109E-02  9.39841311E-03 -7.68072353E-03
 -1.03818600E-02 -3.44789841E-03 -2.13262272E-02 -2.88468999E-02 -9.62943463E-03
 -4.33048842E-02 -5.85741868E-02 -1.95495944E-02 -2.24586987E-02 -3.16981620E-02
 -1.37328232E-02 -5.35645591E-03  3.38481468E-03  4.47974803E-03 -3.08300599E-03
  1.00899000E-02 -9.95219426E-03  6.55717076E-03  9.52773226E-03 -6.36934348E-03
  2.09478217E-02  1.62008627E-03  2.53403418E-03  1.22281974E-02  3.60027349E-02
  5.85327769E-02 -7.95397700E-03  2.03035863E-02  5.80536070E-02  9.24893312E-02
  4.46293694E-03 -1.16790753E-02 -2.83297814E-02 -3.94093890E-02  3.91307313E-02
  3.00942872E-02  7.58051209E-02  1.09202787E-01  6.79810540E-03 -2.21813997E-03
  1.58958228E-04  1.08453361E-03 -4.47464349E-03  2.60512701E-02 -1.03741040E-02
 -7.20615355E-04  4.28494640E-03 -1.48036363E-02  9.41701232E-03  1.46149840E-02
  1.03061954E-03  1.77769735E-03  1.51201514E-03 -3.84784209E-02  9.98268876E-04
  2.35541578E-03  3.19170121E-03 -4.54770954E-02  1.54127056E-02  3.49873556E-02
  4.54740769E-02 -2.03654570E-02 -2.80959086E-03 -1.31977411E-02 -2.68763462E-02
  1.87595061E-03 -3.59639113E-04 -1.69172717E-05  4.29372727E-04 -2.15305646E-03
  2.03582513E-02 -8.39813674E-03 -2.13431081E-03  4.20702951E-03 -1.46252710E-02
  2.72929995E-02  7.81585927E-02 -1.58736081E-01 -2.93034004E-01  4.48073713E-01
  4.18196543E-01 -1.69203500E-01 -1.15485278E-02  7.19643183E-03  5.69450195E-02
 -4.12167337E-03  2.55831226E-03  2.02955447E-02  1.62654222E-03 -8.41304668E-04
 -7.55074098E-03  3.36132037E-03 -3.53538492E-03 -2.04995502E-02  1.25034371E-02
 -1.40414760E-03 -4.42489396E-02  7.58859588E-03 -3.23398045E-03 -3.33482772E-02
  7.62082545E-03 -2.04755890E-03  2.46461892E-03 -2.80332972E-05 -6.25183251E-04
  1.70583931E-02 -8.08159326E-03  1.54161788E-03  1.09406655E-03 -7.39497185E-04
 -2.47833917E-02 -7.09708855E-02  1.44130043E-01  2.66033425E-01 -4.06285131E-01
 -3.81900714E-01  1.41550974E-01  3.11197735E-02  3.98785277E-02  8.00627743E-03
  1.19783607E-02  1.53823126E-02  3.17293707E-03 -4.52205517E-03 -5.75141246E-03
 -1.04621079E-03 -1.15157804E-02 -1.52723279E-02 -4.36835037E-03 -2.88137763E-02
 -3.48325598E-02 -1.72563922E-03 -2.05224986E-02 -2.61246881E-02 -4.80769167E-03
  3.32606925E-03 -2.09762841E-03 -2.60896620E-03  1.80986378E-03 -5.84515761E-03
  9.71181597E-03 -2.02666219E-03 -2.01209460E-03  3.34618115E-03 -1.54669030E-02
 -7.57300436E-03 -1.23649012E-02  3.28061779E-03  5.01089990E-04 -9.23933529E-03
  3.82159799E-02  4.49775072E-03  3.05733917E-04 -1.37054281E-02  3.27611545E-02
  1.22096350E-03 -2.20195672E-03 -9.94638513E-03  4.20691468E-02 -3.54903066E-03
  2.22438778E-03  1.75327191E-02 -1.91568601E-04  1.92839932E-04  9.85685201E-05
 -4.60122271E-05 -1.10658729E-05 -7.76959846E-04 -1.95667073E-04 -9.38405397E-04
  2.76515842E-04 -4.30019978E-04 -5.12142767E-03 -1.46796283E-02  2.99245889E-02
  5.46286584E-02 -8.32899274E-02 -8.13367716E-02 -5.55726566E-04 -1.93213122E-03
 -1.88970488E-03  1.10573035E-03 -1.84995509E-03 -3.19544957E-03 -2.72298552E-03
  6.80446106E-04  1.16384281E-03  9.70326187E-04  2.00986003E-03  3.58161870E-03
  3.25715300E-03  2.43936762E-03  3.97298887E-03  2.93807178E-03  7.03956456E-03
  9.26143562E-03  2.46642781E-03  6.54191802E-04 -8.72093594E-04 -1.07411307E-03
  5.31825704E-04 -1.16007331E-03  1.67949397E-03 -3.74499742E-04  1.73401207E-04
  2.49046185E-04 -1.29723579E-03 -5.49267087E-02 -8.60138528E-02  6.63732582E-02
  5.44759196E-02 -6.61668314E-02  2.41343370E-01  8.91719538E-02  7.31406663E-02
 -8.90222867E-02  1.34826631E-01  8.97106961E-03  8.45555438E-04 -2.66830691E-02
 -8.77733062E-02 -1.13682762E-02 -3.38376474E-02 -5.54320202E-02  4.10116544E-04
 -8.14079576E-03 -7.66234835E-03  1.83888314E-03  4.80937209E-03  5.68354489E-03
 -1.36134392E-04  2.83534174E-03 -1.20783698E-04 -2.19559486E-03 -6.96075607E-02
 -1.09319323E-01 -6.52436820E-02 -6.17587384E-02  4.26755921E-02  3.10475836E-01
 -8.61816130E-02 -8.31132044E-02  5.21887288E-02  1.70945180E-01 -1.23003722E-02
 -4.23802173E-03  2.82047231E-02  2.22223360E-04  1.03466620E-02  2.12944789E-02
  2.45626944E-02  2.51828546E-03 -7.22053396E-03 -5.03681737E-03  1.18291140E-03
  4.99267963E-03  7.65032898E-03  2.60853458E-04  4.79708156E-03 -6.02584175E-04
 -1.84520513E-03 -1.17520663E-02 -3.36861445E-02  6.87000023E-02  1.27152266E-01
 -1.97929184E-01 -1.92334414E-01  8.89471450E-02  3.76132178E-03 -4.37994792E-03
 -2.40908821E-02 -6.75353673E-03 -3.55481068E-03  1.21492863E-02  2.50329514E-03
  1.34443176E-03 -4.43029539E-03  7.15264115E-03  3.53210633E-03 -1.35015886E-02
  1.47407311E-02  9.32273441E-03 -2.22569906E-02  3.56241590E-03  4.29987594E-03
  1.93797021E-04  2.41391709E-03 -2.58351033E-03 -1.64027382E-03  7.67808698E-04
 -3.90261261E-04  1.95854584E-03 -4.50926617E-03 -4.51654513E-03  1.69377676E-03
 -9.73024378E-04 -1.42534483E-02 -4.08590535E-02  8.33517700E-02  1.54086642E-01
 -2.39613534E-01 -2.37619416E-01 -9.70997378E-03  4.26951259E-03  6.37562122E-03
  3.56917397E-03 -1.07737760E-02 -1.12553842E-02  4.17066181E-03  3.95441060E-03
  4.10871429E-03 -1.59199948E-03  1.17388098E-02  1.24421214E-02 -4.05789065E-03
  2.11975431E-02  2.11007042E-02 -1.10502794E-02 -2.16611673E-03 -5.49919589E-03
 -7.97468111E-03 -2.73544844E-03 -6.88152972E-04 -1.53931658E-03 -1.10737227E-04
  2.90352485E-03 -3.67187874E-03 -2.57716697E-03 -4.29975446E-03  6.16483945E-04
  3.32186670E-03  2.29503576E-02  3.75945076E-02 -2.31440403E-02 -3.98621081E-03
  6.39525566E-02 -1.17817914E-01 -3.31429569E-02 -5.92203510E-03  9.09999812E-02
 -1.19768629E-01 -2.44744508E-02 -6.31205026E-03  6.19173148E-02 -1.08028278E-02
  1.34435651E-03 -5.55376401E-04 -5.85580069E-03  1.65313351E-03 -8.08956254E-04
  6.94285992E-05  1.45838559E-04 -1.94353655E-04  6.10457217E-03 -3.92275948E-03
 -7.44765604E-04  8.10059660E-04 -3.86901366E-04 -1.47010483E-02 -4.21532302E-02
  8.60850011E-02  1.58781127E-01 -2.47223957E-01 -2.45524017E-01 -5.88964028E-03
 -4.98661005E-03 -6.75552481E-03 -2.28506380E-03  1.14918913E-02  1.29297854E-02
 -1.93062596E-03 -4.17471310E-03 -4.70028893E-03  6.92519491E-04 -1.27798520E-02
 -1.43052753E-02  2.34767064E-03 -2.22921973E-02 -2.53521372E-02  3.00713927E-03
  3.29361178E-03  5.13701473E-03  3.34465309E-03 -2.30737352E-03 -4.87227085E-04
 -9.42268793E-04 -2.77859518E-04  3.05788953E-03 -2.79474311E-03 -3.68470536E-04
 -1.23777571E-03 -1.95765663E-04  2.79013065E-03  4.37291744E-02  6.91373209E-02
 -1.49923461E-02 -1.72381192E-02  1.50497919E-03 -1.97514141E-01 -1.34669636E-02
 -1.83662527E-02 -6.50201767E-03 -1.47297958E-01 -1.17603180E-02 -2.31672406E-02
 -2.50923228E-02  2.05257145E-01 -2.09281958E-02 -6.64264584E-02 -1.13256149E-01
  7.05813569E-04  1.51694134E-03  1.08556615E-03  9.73761083E-05 -3.08814383E-03
  1.65265494E-03 -4.93193007E-03 -6.45723029E-03  2.64101102E-03 -4.02772772E-03
 -3.50284299E-02 -5.59266839E-02  5.22804026E-02  1.79666059E-02 -1.20053964E-01
  1.66676818E-01  7.86011395E-02  3.06341708E-02 -1.70629578E-01  8.18933134E-02
  2.23786929E-02  2.37911504E-02 -7.53560184E-03 -1.05127450E-01  5.66604321E-02
  7.75444975E-02  2.80528977E-02  1.13533344E-02 -4.20353294E-05  7.16026885E-03
 -1.07985162E-03 -1.32672459E-03  4.50518518E-03 -4.48576666E-03 -3.35462276E-03
  1.73607717E-03 -2.47978502E-03  8.17735879E-03  2.34870177E-02 -4.83071921E-02
 -8.89045447E-02  1.40594408E-01  1.60144315E-01  7.59256036E-02  3.47988794E-03
 -6.26328031E-04 -1.29661891E-02  7.87373821E-03 -5.26047817E-03 -3.97856277E-02
 -2.91688831E-03  1.93383474E-03  1.46981801E-02 -8.76347393E-03  5.80320043E-03
  4.41404121E-02 -1.66153759E-02  1.16938223E-02  8.55726673E-02 -4.95886661E-03
  6.96808351E-04  1.79290239E-02 -7.04925323E-03  2.24910099E-03 -1.92597904E-03
 -6.09936189E-05  3.87434134E-04 -1.08898370E-02  3.79176236E-03 -3.01498599E-03
  4.65217368E-05 -4.62834455E-04  5.91632120E-03  1.69853556E-02 -3.48716572E-02
 -6.45525646E-02  1.03385076E-01  1.04143358E-01 -1.30893248E-01 -1.48061507E-02
 -2.10881739E-02 -9.56861601E-03  1.59828570E-02  2.21248602E-02  8.59287340E-03
 -5.91310046E-03 -8.19348148E-03 -3.20100852E-03 -1.75860152E-02 -2.42655400E-02
 -9.24070550E-03 -3.48303908E-02 -4.86131960E-02 -1.98103965E-02 -1.57466972E-02
 -1.95710604E-02 -2.39901620E-03  1.79719220E-03 -1.73676821E-03 -2.42085693E-03
  1.37752243E-03 -3.85930786E-03  2.67169399E-03 -2.42749806E-03 -3.72033187E-03
  2.17924221E-03 -6.50991691E-03  3.28514374E-02  5.38663484E-02  7.11565686E-03
  8.26246281E-02  2.02046610E-01 -1.70889807E-01  9.85719603E-03  1.19357834E-01
  2.93236565E-01 -1.69468684E-01  8.72645686E-03  9.21465562E-02  2.22774223E-01
 -7.60421014E-03 -3.41893568E-03 -1.15102188E-03  7.92109132E-03  4.14476401E-03
 -1.36079509E-04  2.61720581E-03 -4.40398295E-04 -1.10404059E-04  1.57047522E-02
  2.29780180E-04  1.09432484E-02 -2.02563978E-03 -1.09280970E-04 -6.87511103E-03
 -1.97660640E-02  4.08137615E-02  7.42343631E-02 -1.17552511E-01 -1.25734593E-01
 -6.15801285E-02  2.74120469E-03  7.31268430E-03  1.10505946E-02  1.48908909E-02
  2.79314866E-02  2.79369519E-02 -5.47259747E-03 -1.03215855E-02 -1.04207871E-02
 -1.64723872E-02 -3.06259453E-02 -3.01633210E-02 -3.40151234E-02 -6.49681566E-02
 -6.69871061E-02 -5.51302230E-03 -1.57576678E-02 -2.50961657E-02 -3.15089686E-04
  4.66290546E-03  7.01147332E-03 -2.68771232E-03  3.94516158E-03  6.23235769E-04
  9.96536918E-03  1.47834913E-02 -5.23936853E-03  5.71426185E-03  8.65221408E-03
  1.38605645E-02  2.85879823E-02  4.86313642E-02  4.00416170E-02 -4.38284872E-02
  4.34687146E-02  7.40749965E-02  6.12363471E-02 -6.58941673E-02  9.77532712E-03
  2.90558242E-02  4.75335584E-02  5.56672740E-01  4.89476060E-02  2.07940807E-02
 -1.01548920E-01 -2.80194093E-03  3.08103824E-04 -1.07588017E-03 -4.89113024E-05
  1.15632882E-03 -1.23257181E-02  4.10986033E-03 -6.88947339E-04 -1.68815088E-03
  6.85267451E-03 -2.44451848E-02 -3.87107941E-02  5.22932071E-02  9.06737839E-02
  7.79207090E-02  1.11381685E-01  8.51277792E-02  1.42108922E-01  1.11871514E-01
  1.52654712E-01  2.23941948E-02  4.03645254E-02  3.75428165E-02 -5.00747835E-01
  9.18016367E-02  7.21491455E-02 -1.00219258E-01 -5.03882453E-03 -2.50478513E-03
 -5.63946408E-03  1.06438025E-03  2.08040277E-03  2.84880318E-03 -9.28124413E-03
 -7.79986201E-03  2.21954376E-03  3.76292881E-03 -2.48533374E-03 -7.15717951E-03
  1.48786129E-02  2.67502304E-02 -4.17431718E-02 -5.07401074E-02 -3.19429542E-03
 -4.80701128E-03 -3.21382628E-03  6.78018654E-03 -1.29467820E-02 -6.80501812E-03
  2.33202737E-02  4.84117489E-03  2.55648269E-03 -8.68776507E-03  1.43691141E-02
  7.56976921E-03 -2.58352039E-02  3.02204101E-02  1.52581846E-02 -5.61410922E-02
  1.29741232E-02  8.73479708E-03 -1.81501389E-02  3.63947716E-03 -3.20735468E-03
 -1.40032049E-03  7.51006851E-04  1.20590242E-05  7.72122791E-03 -6.93877458E-03
 -3.24137453E-03  1.71004109E-03 -2.43348588E-04  6.61484037E-03  1.90235129E-02
 -3.93281658E-02 -7.20539625E-02  1.16024103E-01  1.28456479E-01 -8.25591060E-02
 -9.90889827E-03 -1.16718908E-02  2.38567367E-04  3.62940711E-02  4.63279020E-02
  8.85402123E-03 -1.35730947E-02 -1.72954927E-02 -3.22941360E-03 -3.97932920E-02
 -5.09429925E-02 -1.01123540E-02 -8.58990461E-02 -1.09415774E-01 -2.03252698E-02
 -3.28636937E-02 -4.12355115E-02 -6.07389809E-03  3.83457749E-03 -1.80907374E-03
 -2.59800355E-03  2.05857960E-03 -7.56092298E-03  6.20206908E-03 -1.39312747E-03
 -3.89192554E-03  3.70236031E-03 -1.61015290E-02 -7.63011396E-03 -1.24877140E-02
  9.45126209E-02  7.18312885E-02 -1.09873464E-01  3.95685632E-02  1.35527594E-01
  1.02295040E-01 -1.59483838E-01  3.59455613E-02  1.15139738E-01  8.97724226E-02
 -1.27686333E-01  4.50898871E-03 -1.33249786E-03 -4.84747544E-03 -8.89583737E-03
 -2.19097641E-03  1.52351997E-03  4.51179840E-04 -3.61183029E-04  2.48061444E-04
 -9.06272814E-03  9.77417183E-03  6.15894720E-03 -2.85582171E-03  1.23927011E-03
 -1.20421513E-02 -3.46432781E-02  7.17175806E-02  1.30968322E-01 -2.08359584E-01
 -2.38935987E-01  1.82942292E-02 -6.45579256E-03 -1.71010534E-04  2.03955228E-02
  7.00088666E-02  9.24497387E-02  2.54903461E-02 -2.60317149E-02 -3.43479066E-02
 -9.40175781E-03 -7.80375921E-02 -1.03253573E-01 -2.89622499E-02 -1.62506351E-01
 -2.13623434E-01 -5.65193788E-02 -5.81476440E-02 -7.83960554E-02 -2.55520930E-02
 -7.98958434E-03  4.01333637E-03  5.64258571E-03 -4.34016209E-03  1.55887096E-02
 -1.29500885E-02  5.14856010E-03  8.20431672E-03 -6.95497895E-03  2.70249416E-02
  3.65811103E-02  5.82084439E-02  8.38185950E-02  6.77848342E-02 -8.63249053E-02
 -1.63390174E-01  1.29263346E-01  1.05167508E-01 -1.31410521E-01 -1.84480534E-01
  4.77499509E-02  4.14599855E-02 -4.14326004E-02  5.51323844E-03  3.53946685E-02
  5.32464272E-02  3.06195566E-02 -1.95872705E-03 -3.96526399E-03 -5.89910974E-03
  1.59331721E-03  6.01587666E-04 -4.05846283E-03  1.27747403E-02  9.67893318E-03
 -2.44423220E-03 -7.59456081E-03 -1.72767655E-02 -2.75489098E-02 -5.16352947E-02
 -3.77221418E-02  6.41458354E-02  8.57496885E-02 -7.22398084E-02 -5.36554687E-02
  8.73385202E-02  7.95244414E-02 -2.97895450E-02 -2.56996504E-02  2.62783092E-02
 -1.16599817E-01 -3.52168160E-02 -5.23190880E-02 -2.86634059E-02 -4.13369893E-03
  9.18499029E-04 -7.16589546E-04 -4.36199656E-04  2.47591435E-03 -4.96083037E-03
  1.88663417E-02  1.95213929E-02 -6.52003068E-03  1.09385064E-04  9.58801761E-03
  2.76018667E-02 -5.72981276E-02 -1.03758349E-01  1.64424287E-01  1.95956216E-01
 -1.13492145E-02 -3.23563437E-03 -6.53344997E-03 -7.33637194E-03 -9.31788147E-03
 -4.57658393E-02 -9.45489729E-02  3.52733795E-03  1.70848783E-02  3.51381699E-02
  1.03040126E-02  5.08606862E-02  1.05239794E-01  2.18797000E-02  1.06630226E-01
  2.19741845E-01  8.59756905E-03  3.77423575E-02  7.50209614E-02 -1.39431041E-02
 -1.61517292E-03 -1.13696208E-02  2.29652564E-03  2.32906096E-04 -2.45837836E-02
 -3.34833965E-03 -2.02531578E-02  3.99247042E-03  1.41114274E-03  8.65733164E-03
  2.49321511E-02 -5.18376856E-02 -9.33368049E-02  1.46915402E-01  1.79944843E-01
  7.87381419E-02  1.07388492E-02  1.86785052E-02  1.61506351E-02  3.56481949E-02
  6.53867720E-02  6.28464091E-02 -1.31684792E-02 -2.42614805E-02 -2.35083406E-02
 -4.00007315E-02 -7.29213845E-02 -6.92975562E-02 -8.20185726E-02 -1.51912052E-01
 -1.48602177E-01 -2.26228496E-02 -4.66621277E-02 -5.39541613E-02  8.19050638E-04
 -7.75584726E-03 -1.20782425E-02  4.81279200E-03 -8.10563752E-03  1.44630360E-03
 -1.64243233E-02 -2.39997672E-02  9.13763678E-03 -1.27236421E-02 -3.26680707E-03
 -5.32134596E-03 -6.61879402E-02 -9.19717442E-02 -3.65782890E-02  1.66453247E-02
 -9.47943172E-02 -1.32300665E-01 -5.39641907E-02  1.38220019E-02 -7.76641036E-02
 -1.07878217E-01 -4.28115081E-02  1.18845003E-03 -1.78591377E-03 -3.65764790E-03
 -4.19222872E-03 -5.89958128E-04 -8.72578378E-04 -1.53175920E-03  4.47317926E-04
 -1.81093147E-04 -1.92747405E-03 -5.19612488E-03 -7.70733034E-03  2.26081483E-03
 -2.45776710E-04  5.96283818E-04  1.72809066E-03 -3.68178009E-03 -6.11547396E-03
  9.76971059E-03  2.60247630E-03  8.71673314E-02 -7.01011709E-03 -1.33304835E-02
 -1.36401139E-02  4.52949048E-03 -3.90781534E-03 -2.52787719E-02 -1.66531417E-03
  1.48786679E-03  9.43316054E-03 -5.53109888E-03  3.79578331E-03  2.82108500E-02
 -6.38664381E-03  1.43884086E-02  5.98178203E-02 -5.80766848E-03  3.24025626E-03
  2.75925915E-02 -2.15831826E-03 -2.63501015E-03 -4.43285778E-03  1.12169146E-03
  5.80927371E-04 -2.32985747E-03 -5.44549605E-03 -8.16026524E-03  2.32932964E-03
  6.91900783E-05  1.65144641E-06  2.59089467E-06  4.40905479E-02 -3.71459342E-02
  1.36390328E-02 -5.99099031E-06  7.09763725E-02 -5.97976792E-02  2.19561354E-02
 -2.60569806E-05  4.28862515E-02 -3.61347078E-02  1.32736746E-02  4.74745693E-05
 -3.74116032E-02  3.16077178E-02 -1.15610884E-02 -1.25237265E-03 -1.69128775E-03
  2.46966442E-03  3.45021784E-03 -1.40068945E-04 -3.36801408E-03 -4.68401375E-03
  6.47578793E-03  8.38507876E-03 -5.32116939E-04 -1.69724709E-06 -2.70389012E-06
  9.03731222E-02 -7.61500324E-02  2.79622387E-02  7.10340623E-06  1.39808070E-01
 -1.17804588E-01  4.32568833E-02  2.22644328E-05  7.40210923E-02 -6.23790482E-02
  2.29059289E-02 -1.02872544E-04  3.99114970E-02 -3.36564728E-02  1.23203000E-02
 -3.75326527E-03 -7.04725939E-03  5.05618476E-03 -2.44133467E-03 -2.61869944E-03
 -6.61548333E-03 -1.11834576E-02  1.03867407E-02  3.71145230E-03 -3.23558488E-03
  2.66114315E-09  7.58416356E-09 -1.55765756E-08 -2.74970033E-08 -2.02534561E-07
  1.95439381E-06 -3.69745028E-05  7.41325226E-03 -6.25367991E-03  2.30316413E-03
 -1.35217853E-02  1.13912864E-02 -4.18225755E-03  5.12325533E-03 -4.31603574E-03
  1.58458253E-03  1.45701766E-02 -1.22744505E-02  4.50677181E-03  3.38214132E-02
 -2.84926907E-02  1.04594247E-02  1.15176502E-02 -9.70333280E-03  3.56381278E-03
 -1.52073499E-03 -2.67971060E-03  2.25786321E-03  1.50221471E-04 -8.65085932E-04
 -3.90303501E-03 -7.01445095E-03  5.63419113E-03 -4.95409998E-04 -2.37187170E-03
  2.12413100E-07  6.12930105E-07 -1.28499388E-06 -2.25388237E-06  3.04840019E-06
  7.86922320E-06  6.03953930E-05  6.76362697E-03 -5.68622632E-03  2.09778168E-03
 -1.56117006E-02  1.31566885E-02 -4.82811614E-03  5.89340853E-03 -4.96657942E-03
  1.82261821E-03  1.70243173E-02 -1.43476661E-02  5.26492538E-03  3.80096622E-02
 -3.20299479E-02  1.17552756E-02  1.62359025E-02 -1.36766549E-02  5.02105313E-03
  3.67664019E-04  1.24805389E-03  1.66932637E-04  3.84748318E-03  8.77396146E-04
  7.62864488E-04  3.03237789E-03  8.70823793E-04  1.08398538E-02  2.31361950E-03
 -1.21445478E-07 -2.10700506E-07  1.91457292E-01 -1.61326699E-01  5.92280012E-02
  9.53651425E-07  2.75140512E-01 -2.31840157E-01  8.51157493E-02 -2.47298505E-06
  2.34783689E-01 -1.97834703E-01  7.26291197E-02  6.11520716E-07  1.14768149E-02
 -9.66788399E-03  3.55234585E-03  1.16281202E-03  2.11032496E-03 -1.65307973E-03
  2.84838404E-04  7.30240890E-04  9.18144080E-03  1.66205612E-02 -1.31036154E-02
  1.97172851E-03  5.71828122E-03 -1.27191671E-08 -3.70347152E-08  8.10009938E-08
  1.19070178E-07  1.32082248E-07 -2.23845010E-06  3.77991911E-05 -1.55139243E-02
  1.30624043E-02 -4.80020385E-03 -2.97783155E-02  2.50910754E-02 -9.21413273E-03
  1.12158278E-02 -9.45036309E-03  3.47044138E-03  3.27239353E-02 -2.75733894E-02
  1.01256276E-02  7.24125148E-02 -6.10125278E-02  2.24060090E-02  3.09677974E-02
 -2.60932587E-02  9.58124792E-03 -1.03639099E-03 -2.99467967E-03  1.50564242E-04
 -7.45551322E-03 -1.89034145E-03 -2.76463597E-03 -7.70915751E-03  7.34310052E-04
 -1.80798120E-02 -4.73214351E-03 -1.99959128E-03 -3.03657857E-03 -2.83552286E-02
 -7.66566325E-02 -1.17126571E-01  4.46223623E-03 -4.92470330E-02 -1.26085308E-01
 -1.84221253E-01 -1.18401080E-02 -2.81734191E-02 -5.94007872E-02 -7.07166919E-02
  1.36931524E-01  5.64419253E-02  1.07364114E-01  1.09995164E-01 -8.04807238E-03
  2.69985901E-03 -2.73564716E-04 -1.20437656E-03  4.86032042E-03 -2.08465779E-02
  8.94018430E-03  1.53957764E-03 -3.78612142E-03  1.23180742E-02 -7.55891817E-03
 -1.18122587E-02  1.08037382E-02  2.25303841E-02  2.64457189E-02  3.15247705E-02
  1.87977882E-02  3.68058936E-02  3.94875543E-02  8.11051455E-02  3.92931666E-03
  4.57754189E-03 -2.29637444E-04 -1.47552579E-01 -1.16252265E-02 -4.03417409E-02
 -7.23032013E-02 -1.06855620E-02  1.31328141E-05 -5.20717908E-03  6.50870884E-05
  5.16417842E-03 -3.23463780E-02  1.65134580E-03 -1.06440202E-02 -2.35626524E-03
  2.35621541E-02  6.18689084E-03  1.78479375E-02 -3.73562490E-02 -6.66627315E-02
  1.03907096E-01  1.48038232E-01 -1.24890493E-01 -5.74237027E-03 -3.59020481E-03
  8.78918331E-03  3.11671594E-02 -1.03554714E-02 -1.28984025E-01 -1.17140796E-02
  3.71674242E-03  4.80006289E-02 -3.46910511E-02  1.26933140E-02  1.46746587E-01
 -7.65527333E-02  2.00352419E-02  3.02100175E-01 -3.34881680E-02  1.04111672E-02
  1.36641531E-01 -1.64883507E-02  5.94063173E-03 -3.61618008E-03 -4.38656899E-04
  1.06660292E-03 -2.71137149E-02  1.34654315E-02 -1.74120976E-03 -1.94639237E-03
  1.06701994E-03 -5.61436215E-03 -1.62049300E-02  3.39933057E-02  6.01608079E-02
 -9.21131161E-02 -1.39273106E-01  8.60133473E-02  1.12141725E-04  1.69961655E-04
  8.88310511E-05 -7.42386749E-02 -9.56183677E-02 -2.04353741E-02  2.76185285E-02
  3.55255185E-02  7.47503436E-03  8.45550645E-02  1.09209539E-01  2.41028344E-02
  1.74068086E-01  2.22573097E-01  4.34908588E-02  7.65397786E-02  9.78436802E-02
  1.90582217E-02 -8.03409103E-03  3.93292315E-03  4.68691623E-03 -3.79601722E-03
  1.35155083E-02 -1.60112027E-02  4.79546550E-03  3.95372930E-03 -5.37316414E-03
  2.26806808E-02  1.00726599E-04  2.84072311E-04  5.97575767E-02  4.05904300E-02
 -8.25980743E-02 -2.50669432E-03  8.61603338E-02  5.81191552E-02 -1.20196885E-01
  1.21525254E-02  7.58688289E-02  5.60916998E-02 -9.24519746E-02 -2.10622609E-02
  8.24810394E-03  2.88635342E-03 -1.88017936E-02 -1.45219364E-03  5.82637199E-04
 -1.83699491E-04 -9.97303796E-05  2.51759152E-04 -5.47647621E-03  4.77947457E-03
  2.58254034E-03 -1.43997244E-03  1.31711224E-03 -2.11189176E-03 -6.08118361E-03
  1.26340022E-02  2.31473570E-02 -3.57891507E-02 -6.12291019E-02  5.68364451E-02
 -5.54578245E-03 -5.85825305E-03  1.97803723E-03  2.22949191E-02  3.75083809E-02
  3.00831261E-02 -8.24498117E-03 -1.38748688E-02 -1.11353679E-02 -2.58169259E-02
 -4.36122799E-02 -3.53215668E-02 -4.85321431E-02 -8.14446279E-02 -6.49289427E-02
 -2.18016376E-02 -3.83990526E-02 -3.41020170E-02 -2.13264678E-03  3.09375278E-03
  4.06407208E-03 -1.98729099E-03  4.42916733E-03 -2.22574847E-03  1.71030064E-03
  2.69521662E-03 -1.68196087E-03  5.35817201E-03 -1.56965688E-02 -2.48918503E-02
  5.46025447E-02  4.83586946E-02 -4.47746528E-02  6.78749605E-02  6.90072472E-02
  5.87815217E-02 -6.29428681E-02 -1.89669454E-02  1.16449172E-02  1.00296865E-02
 -1.03186216E-02  3.97687615E-01  3.85351391E-02  1.74355941E-02 -7.70374040E-02
 -2.20265823E-04 -2.88885390E-03 -3.29955691E-03  9.01972155E-04  8.77754081E-04
  2.66319814E-02  2.73310364E-03  1.22962575E-02  1.27299304E-03 -2.29716181E-02
  3.41372892E-03  5.19297648E-03 -6.13543105E-02 -7.04730654E-02  6.37847116E-03
 -8.32240817E-03 -9.36413000E-02 -1.09269585E-01  5.07513703E-03 -1.11469809E-02
 -7.47878826E-02 -7.50458316E-02  3.73442211E-02 -3.39260070E-01  9.19460849E-02
  8.77691298E-02 -5.81599957E-02  6.01752059E-03 -1.31684328E-02 -1.27454039E-02
  4.76187298E-03 -2.23506963E-03  3.66510792E-02 -3.86930475E-02 -3.19201787E-02
  1.61664677E-02 -2.51078932E-02  7.27905056E-04  2.11468209E-03 -4.54681325E-03
 -7.45458490E-03  1.27352547E-02  3.17757401E-03  1.52675346E-02 -9.49953586E-03
 -1.36581288E-02 -6.50354156E-03 -1.87973749E-02 -2.73646696E-02 -1.37819183E-02
  7.08312519E-03  1.03324346E-02  5.25061144E-03  2.12231449E-02  3.04214697E-02
  1.42668937E-02  4.58003125E-02  7.01753046E-02  4.31192690E-02  2.69918985E-02
  3.85079220E-02  1.76479713E-02 -4.44618292E-04 -2.45504158E-03 -3.58815439E-03
  1.17214678E-03 -7.78082984E-04 -4.92323779E-03 -6.28236237E-03 -1.13537649E-02
  3.22225303E-03 -9.70159789E-04  1.88873393E-03  5.42161272E-03 -1.11155939E-02
 -2.13757450E-02  3.67378001E-02  4.14462010E-02 -5.56282266E-02 -5.30641281E-03
 -8.49843467E-03 -5.99903359E-03  1.47047304E-02  2.72061889E-02  2.65523365E-02
 -5.61769424E-03 -1.02468356E-02 -9.74408519E-03 -1.56953304E-02 -3.04013347E-02
 -3.20503864E-02 -3.69841725E-02 -6.43868343E-02 -5.57819367E-02 -2.21910603E-02
 -3.49515530E-02 -2.34444782E-02 -1.95257972E-03 -1.96590978E-03 -4.12035844E-03
  1.23596595E-03 -1.01680431E-03 -3.05508220E-03  2.95849684E-03 -3.64553552E-04
  4.13950141E-04 -4.67059105E-03 -7.12231563E-05 -1.47905848E-04  1.62389809E-01
  1.86388626E-01 -1.72555824E-02  1.29817584E-03  2.32499284E-01  2.66521912E-01
 -2.56238239E-02 -1.62276276E-02  2.02515490E-01  2.29422785E-01 -2.97516502E-02
  3.80684429E-02  2.95842404E-02  4.00185951E-02  1.33730314E-02 -2.28481028E-05
  1.05359679E-03  1.27271026E-03 -4.01647591E-04  2.92883316E-05 -2.44772230E-03
  6.15541618E-03  6.39290268E-03 -2.38566827E-03  1.51060292E-03  2.80622000E-03
  8.12277385E-03 -1.72216502E-02 -2.96257054E-02  3.93564197E-02  1.20078800E-01
 -9.55874660E-03 -1.58365728E-02 -1.15827423E-02  1.96455722E-02 -7.53970158E-02
 -9.45779893E-02 -1.38634541E-02  2.79903224E-02  3.50891806E-02  5.08720272E-03
  8.78798577E-02  1.10450517E-01  1.67411857E-02  1.68628889E-01  2.10051857E-01
  2.69872777E-02  7.77706469E-02  9.09673013E-02 -3.64383062E-03  7.87617566E-03
 -3.82723640E-03 -3.85983751E-03  3.27996914E-03 -1.14968358E-02  1.18765000E-02
 -4.11000468E-03 -2.16316911E-03  3.30865389E-03 -1.32204307E-02  2.47274749E-06
  3.89018640E-06  9.96754327E-02 -8.39871967E-02  3.08367132E-02 -8.80863834E-06
  1.57927130E-01 -1.33069704E-01  4.88584105E-02 -3.37313694E-05  1.03751287E-01
 -8.74300980E-02  3.21010606E-02  4.38466582E-05  9.07294109E-03 -7.64554550E-03
  2.78571841E-03  2.46169948E-04  5.15663779E-04 -2.69174768E-04  5.02375022E-04
  2.30170976E-04  4.74601056E-03  6.12266223E-03 -9.72257971E-03 -1.49988803E-02
  1.98215443E-04 -6.05519571E-07 -9.50110012E-07  3.79074181E-02 -3.19402654E-02
  1.17281248E-02  1.09402944E-06  6.27655181E-02 -5.28867204E-02  1.94189244E-02
  3.18015518E-05  4.19131429E-02 -3.53180713E-02  1.29680239E-02 -3.30342988E-05
 -7.53541862E-03  6.37008355E-03 -2.33482650E-03  4.22435273E-03  6.99122603E-03
 -6.80660712E-03 -3.33042481E-03  1.90181536E-03  1.16429777E-02  1.92744672E-02
 -1.87496115E-02 -9.14123930E-03  5.25238277E-03 -8.07582225E-08 -2.34363431E-07
  5.00628668E-07  8.48971021E-07 -1.93474854E-06  2.74922188E-06  9.91049015E-06
 -1.13470100E-02  9.56003470E-03 -3.50977903E-03 -8.47803986E-02  7.14383309E-02
 -2.62214779E-02  3.19798823E-02 -2.69471094E-02  9.89091330E-03  9.57985020E-02
 -8.07226684E-02  2.96297619E-02  2.09572367E-01 -1.76590949E-01  6.48148925E-02
  1.07533188E-01 -9.06096788E-02  3.32563223E-02 -4.88869472E-03 -8.83500441E-03
  6.99748963E-03 -9.46016522E-04 -3.02685185E-03 -1.21262284E-02 -2.16836728E-02
  1.76367660E-02 -8.32795996E-04 -7.24825461E-03 -4.95664243E-08 -1.42572558E-07
  2.94939701E-07  5.51888313E-07 -1.10205140E-06  6.87942284E-09 -1.47982204E-05
 -1.02618696E-02  8.64074321E-03 -3.17428871E-03 -7.56862017E-02  6.37679467E-02
 -2.34168656E-02  2.85336477E-02 -2.40404447E-02  8.82812728E-03  8.55553622E-02
 -7.20833036E-02  2.64704534E-02  1.86812211E-01 -1.57393464E-01  5.77980649E-02
  9.30508438E-02 -7.83979321E-02  2.87886023E-02  1.89423412E-03  4.97703656E-03
 -8.65107013E-04  1.04158654E-02  2.90297639E-03  4.43876343E-03  1.16324849E-02
 -2.06469244E-03  2.42089455E-02  6.76938343E-03 -1.81231956E-08 -4.16444755E-08
 -1.03583880E-01  8.72759888E-02 -3.20439331E-02  4.60597635E-07 -1.49027563E-01
  1.25565200E-01 -4.61020939E-02 -3.59156003E-06 -1.28771791E-01  1.08498964E-01
 -3.98381459E-02 -5.61953101E-06 -2.34615455E-02  1.97666135E-02 -7.26089994E-03
 -2.84324545E-04 -5.31462064E-04  3.85940049E-04 -1.69076632E-04 -1.95655576E-04
 -2.18572259E-03 -3.99251891E-03  3.07587328E-03 -7.04276529E-04 -1.40172676E-03
 -1.23278001E-09 -3.08851401E-09  3.78020746E-09  1.40518587E-08  8.01225429E-07
 -6.70005222E-06 -7.01924560E-06 -7.50063260E-04  6.31414052E-04 -2.30679804E-04
 -3.41651526E-02  2.87871995E-02 -1.05683163E-02  1.29006135E-02 -1.08698389E-02
  3.99056115E-03  3.85505673E-02 -3.24830952E-02  1.19247613E-02  8.50847830E-02
 -7.16868335E-02  2.63197509E-02  4.24806678E-02 -3.57899275E-02  1.31400793E-02
  2.78094219E-05 -7.04977244E-04 -9.36390438E-04 -4.87855516E-03 -8.23365576E-04
 -1.02491008E-04 -2.04824468E-03 -2.06305222E-03 -1.20575670E-02 -2.13703544E-03
 -2.07096340E-07 -3.31405301E-07 -1.82413516E-02  1.53646461E-02 -5.64072091E-03
  8.97521225E-07 -2.77065249E-02  2.33367485E-02 -8.56771196E-03  3.98762434E-06
 -2.03915551E-02  1.71818938E-02 -6.31444746E-03 -4.68613513E-06 -2.01136062E-03
  1.66795819E-03 -6.20512855E-04 -4.31774080E-04 -4.32497469E-05  1.49342507E-03
  4.67725279E-03  5.51948137E-04 -5.04927318E-03 -5.88342181E-03  1.10646533E-02
  1.99232324E-02  4.73552670E-04  1.33781090E-06  2.13438874E-06  4.09728704E-02
 -3.45193835E-02  1.26722688E-02 -5.99321348E-06  6.47765065E-02 -5.45760161E-02
  2.00350708E-02 -1.21585907E-05  4.60261573E-02 -3.87765503E-02  1.42399857E-02
  2.17694649E-05  4.22839090E-03 -3.55830954E-03  1.31363843E-03  1.79593290E-03
  4.26443134E-03 -1.35745130E-03  6.94423227E-03  2.24682713E-03  3.80822115E-03
  1.24842377E-02  1.20178359E-03  3.69565897E-02  8.59225424E-03 -4.69913719E-08
 -1.35478851E-07  2.81996590E-07  5.27806857E-07 -1.36082466E-06  3.10244337E-06
  6.33376049E-06  6.54345121E-03 -5.51359660E-03  2.02312258E-03  3.09468286E-02
 -2.61005769E-02  9.57946611E-03 -1.16301388E-02  9.80884874E-03 -3.60008500E-03
 -3.58747966E-02  3.02569958E-02 -1.11045980E-02 -7.57758065E-02  6.39084544E-02
 -2.34577135E-02 -4.33528331E-02  3.65652234E-02 -1.34224327E-02  1.08079218E-03
  2.15794397E-03 -1.30336234E-03  1.53814671E-03  8.97786049E-04  1.77509798E-03
  3.72524841E-03 -1.92334876E-03  3.70143297E-03  1.67666491E-03  3.82512511E-08
  1.09908928E-07 -2.27591330E-07 -4.24043057E-07  1.05569923E-06 -1.14090680E-06
 -2.21331235E-05  7.60835657E-03 -6.41580754E-03  2.35193925E-03  6.14995537E-02
 -5.18266330E-02  1.90358825E-02 -2.32116233E-02  1.95607548E-02 -7.18465102E-03
 -7.05147551E-02  5.94242105E-02 -2.18264511E-02 -1.53245811E-01  1.29140521E-01
 -4.74336367E-02 -8.99273957E-02  7.57796292E-02 -2.78340005E-02 -7.37291784E-04
 -1.87817728E-03  4.04633165E-04 -3.67987116E-03 -1.06463196E-03 -1.33889106E-03
 -3.99673523E-03  4.11783698E-05 -1.04647001E-02 -2.58558758E-03 -1.73715433E-07
 -2.94355988E-07 -5.74657858E-02  4.84266588E-02 -1.77747338E-02  1.03940352E-06
 -8.25782184E-02  6.95890192E-02 -2.55421355E-02  1.39590228E-06 -7.31324824E-02
  6.16303300E-02 -2.26206942E-02  5.47655634E-06 -1.82156283E-02  1.53494709E-02
 -5.63278038E-03 -6.49044401E-05 -6.95446811E-05  1.49729131E-04  2.96630039E-04
  1.30118907E-05 -5.63216120E-04 -9.61381179E-04  8.73234621E-04  2.53947714E-04
 -2.86268873E-04 -8.43561532E-08 -2.40109936E-07  4.76267168E-07  1.02161613E-06
 -1.98383364E-06 -1.04012041E-06 -4.15076067E-06 -2.30250733E-02  1.94021306E-02
 -7.12406772E-03 -1.46650719E-01  1.23565259E-01 -4.53808071E-02  5.52682362E-02
 -4.65679985E-02  1.71026611E-02  1.69109652E-01 -1.42488808E-01  5.23306083E-02
  3.63945909E-01 -3.06653850E-01  1.12622697E-01  2.13487971E-01 -1.79882084E-01
  6.60631706E-02 -9.95582544E-04 -3.18522761E-03 -2.20410323E-04 -9.15217137E-03
 -2.15894550E-03 -1.89555780E-03 -6.51798488E-03 -9.56546345E-04 -2.03523168E-02
 -4.61438694E-03  6.08904440E-03  9.58043184E-03 -3.24228044E-02 -3.28801476E-02
  1.52674842E-02 -2.44279638E-02 -4.57991573E-02 -5.01733218E-02  1.14170745E-02
  1.37974812E-02 -1.42464955E-02 -2.37082572E-02 -1.84948074E-02 -1.22705715E-01
 -7.60490071E-02 -8.61144183E-02  1.12731667E-02 -1.36000611E-03  7.48857697E-03
  8.24799645E-03 -2.71721142E-03  2.55584125E-04 -7.69348071E-04  2.42214815E-02
  3.01669440E-02 -9.86476751E-03  3.36312942E-03  1.57741788E-02  2.50470441E-02
  2.86856396E-02  2.39380521E-02 -2.75431100E-02 -6.65216455E-02  3.46677304E-02
  2.81738640E-02 -3.53571092E-02 -1.18426096E-01  2.56178070E-02  3.45510878E-02
  1.12724600E-02  1.98277949E-01 -8.72184347E-04  1.65647320E-02  4.79241871E-02
  5.52390984E-03  2.91205051E-03  6.21218859E-03 -1.12528347E-03 -2.71197009E-03
  1.76484375E-02  1.05633817E-02  2.08496535E-02 -3.74816605E-03 -9.97882217E-03
 -5.24452170E-04 -1.49730048E-03  3.00053877E-03  6.26743335E-03 -1.21675039E-02
 -2.19742659E-03  2.42960737E-02 -4.57256788E-03 -6.09183578E-03 -1.81542966E-03
 -9.53992245E-02 -1.05096212E-01  2.20978150E-02  3.59165813E-02  3.95504195E-02
 -8.36559812E-03  1.10451582E-01  1.21856215E-01 -2.51013308E-02  2.34786297E-01
  2.58395107E-01 -5.50800093E-02  1.46234560E-01  1.59799235E-01 -3.74204501E-02
 -1.15112578E-05 -2.69581065E-03 -2.96242271E-03  8.26419511E-04  7.78830545E-04
 -6.30599261E-04 -4.41721292E-03 -4.80172925E-03  1.14221911E-03  2.45056401E-03
  2.54970214E-04  7.08690332E-04 -1.26864055E-03 -3.55466819E-03  1.01791382E-02
 -1.75013271E-02 -8.94356021E-02 -7.41084171E-03 -1.43403128E-02 -1.50954943E-02
 -5.52031563E-02 -5.26259841E-02  3.50853578E-02  2.06134362E-02  1.95970781E-02
 -1.32482355E-02  6.48001027E-02  6.19838342E-02 -4.06165290E-02  1.30056054E-01
  1.22276813E-01 -8.73055253E-02  6.91097700E-02  6.22658600E-02 -5.37690203E-02
 -3.95531835E-03  1.62820226E-03  1.04823715E-03 -1.20796062E-03  4.43727564E-03
 -4.33443554E-03  3.45608411E-03  2.38606288E-03 -1.46900874E-03  2.88947584E-03
 -2.63724993E-03 -4.41154203E-03  1.51716271E-02  3.20825152E-02  3.83633720E-02
  1.48587826E-02  2.20607018E-02  4.65747933E-02  5.55769441E-02  1.32171202E-02
  2.24169631E-02  4.37884841E-02  4.68316864E-02  4.15252898E-02  1.84408748E-04
  8.57754346E-03  2.27764045E-02  4.92937973E-04 -5.46834994E-06  2.97413203E-04
 -3.99713668E-05 -8.02647658E-05  1.43625458E-03  2.07925748E-03  3.51539016E-03
 -9.74191739E-04  4.18657418E-05 -6.24202045E-04 -1.79352041E-03  3.69194400E-03
  7.09659661E-03 -1.29753609E-02 -1.20454054E-02 -3.73662055E-02  1.37916125E-02
  9.70601963E-03 -1.81319343E-02  5.55074537E-02  1.61667606E-02 -1.35293750E-01
 -2.09172697E-02 -6.10878743E-03  5.09386225E-02 -6.40568118E-02 -1.83399677E-02
  1.56994453E-01 -1.38042718E-01 -4.12691547E-02  3.33568871E-01 -8.43231854E-02
 -2.41782269E-02  2.06568720E-01 -9.46220115E-05 -2.63924011E-03 -2.83747248E-03
  7.46705872E-04  1.06553869E-03  1.00424653E-03 -5.56376501E-03 -4.76950942E-03
  1.18316452E-03  3.22587236E-03  3.28733266E-03  4.93389723E-03  5.79042982E-03
  2.64065390E-04 -1.80064816E-02 -5.27050849E-03  1.34386413E-02  1.25535101E-03
 -4.00323020E-02 -2.03936806E-02 -9.56484041E-03 -1.56398143E-02 -1.16909424E-02
 -1.84095752E-01 -7.47759780E-02 -5.15548036E-02  1.01299575E-01 -5.06503983E-03
 -4.33486940E-03 -7.13077424E-03  1.30117023E-03  3.94369508E-03 -1.91542548E-02
 -2.30583317E-02 -3.58713308E-02  7.94153290E-03  1.28436715E-02 -9.89408834E-03
 -1.58431275E-02 -2.16500933E-02 -1.75097632E-02  2.22918319E-02  4.50422902E-02
 -2.48117302E-02 -2.20730422E-02  2.00886866E-02 -1.24130487E-02 -2.38261180E-02
 -8.81192815E-03  5.30199969E-02  2.44968940E-01 -6.02191305E-02 -5.28756015E-02
  5.06172220E-02  4.40862968E-03  6.60318669E-05  2.25567627E-03 -6.60608057E-05
 -2.07936028E-03  1.76059423E-02  1.44167063E-02  2.17768943E-02 -2.91082344E-03
 -1.92665598E-02 -9.83428577E-04 -2.80302039E-03  5.59211563E-03  1.17892024E-02
 -2.44918347E-02  2.64445708E-03 -7.11307429E-02  1.22039730E-02  1.97830574E-02
  1.44351729E-02  5.19432322E-02  4.33526248E-02 -4.98529413E-02 -1.94312310E-02
 -1.62756214E-02  1.84912230E-02 -6.12232817E-02 -5.08285923E-02  5.94931473E-02
 -1.23839036E-01 -1.05181706E-01  1.13887772E-01 -7.58042526E-02 -6.61409191E-02
  6.49256547E-02 -5.97853605E-03  2.93019476E-03  5.56809501E-04 -1.02158231E-03
  2.70903573E-03 -6.81486654E-03  1.08657929E-03 -8.99023514E-04 -1.05053444E-03
  6.08574324E-03 -1.06301821E-04 -3.10888174E-04  6.87552043E-04  1.02403067E-03
 -1.45892724E-03 -3.70641254E-03 -4.07776082E-02  9.20097744E-03 -2.58592230E-03
 -3.67804775E-02  6.36509487E-02  2.33028176E-02 -1.42252515E-01 -2.39403728E-02
 -8.75946658E-03  5.35180511E-02 -7.40125929E-02 -2.71513913E-02  1.65259607E-01
 -1.55756949E-01 -5.62498800E-02  3.50203502E-01 -1.00203398E-01 -3.93436449E-02
  2.16703324E-01  3.19697236E-03  1.59484325E-03  3.24557142E-03 -4.69092322E-04
 -2.17108711E-03  4.62668139E-03  2.76287077E-03  5.34114436E-03 -9.08004057E-04
 -2.90924579E-03 -4.53988420E-03 -7.59785165E-03  1.74701525E-02  2.61698213E-02
  1.48044342E-02  2.66287240E-02  2.45673808E-02  3.71678617E-02  2.18172615E-02
  1.96272368E-02  2.89825331E-02  3.96168930E-02  1.42151963E-02  5.82997068E-02
  2.13297436E-03  1.22608312E-02  2.65002790E-02  5.49883698E-04 -2.84598580E-04
 -8.48176857E-05  1.09107951E-04 -2.87677363E-04  1.43229394E-03  1.37962638E-03
  1.95511850E-03 -2.73468401E-04 -1.73548643E-03  2.13136698E-04  6.13280683E-04
 -1.26723016E-03 -2.41580332E-03  2.83667065E-03  1.21243600E-02  3.93421158E-02
  5.00748410E-03 -7.13266001E-03 -3.56085826E-02  3.69911463E-02 -7.47420791E-03
 -1.39949400E-01 -1.39469447E-02  2.75082604E-03  5.25827519E-02 -4.28541342E-02
  9.14916752E-03  1.63466000E-01 -9.36441121E-02  1.46330722E-02  3.42607642E-01
 -6.06746478E-02  5.22139462E-03  2.10377124E-01 -2.34220428E-03 -2.47107055E-03
 -4.23091580E-03  1.00351556E-03  9.02387189E-04 -4.48392068E-03 -2.87479579E-03
 -5.13385319E-03  7.80782280E-04  3.52176403E-03 -2.93359268E-07 -4.69559629E-07
 -2.21489733E-03  1.86720645E-03 -6.84729194E-04  1.50965472E-06 -3.57974710E-03
  3.01790850E-03 -1.10559372E-03 -1.38286609E-06 -4.02988700E-03  3.40119550E-03
 -1.24143225E-03 -2.87346296E-06  8.28438267E-03 -7.01945174E-03  2.54845549E-03
  2.70945727E-03  5.43917501E-03 -3.23222948E-03  4.03707841E-03  2.28211174E-03
  1.36747698E-02  2.75331940E-02 -1.62298136E-02  2.08556179E-02  1.16037881E-02
  2.75244875E-07  4.56011916E-07 -7.14783349E-03  6.02320495E-03 -2.21192510E-03
 -1.64594104E-06 -1.12781270E-02  9.50224543E-03 -3.48965037E-03  4.45250339E-06
 -6.72986753E-03  5.67047728E-03 -2.08476854E-03  3.03620587E-05 -1.11757205E-02
  9.43263475E-03 -3.44713372E-03 -1.46455009E-04 -2.50167853E-04  2.26943924E-04
  6.68251662E-05 -7.44913448E-05 -2.23077447E-03 -5.00974504E-03  2.01440126E-03
 -6.81053995E-03 -2.47367339E-03  6.77548613E-08  1.91463433E-07 -3.68036464E-07
 -8.66002757E-07  1.78928985E-06 -6.74204584E-07  1.68677833E-05 -2.36521309E-02
  1.99309986E-02 -7.31950294E-03 -1.25687056E-01  1.05897298E-01 -3.88719857E-02
  4.73417591E-02 -3.98876715E-02  1.46416957E-02  1.46109531E-01 -1.23104103E-01
  4.51880015E-02  3.11864115E-01 -2.62760815E-01  9.64526012E-02  1.95621586E-01
 -1.64820908E-01  6.05024615E-02 -1.66943172E-03 -2.87072662E-03  2.56452821E-03
  6.28708647E-04 -8.70079389E-04 -3.05832946E-03 -5.24285487E-03  4.71661180E-03
  1.25063086E-03 -1.57701786E-03 -2.30845835E-08 -6.15190376E-08  8.48474856E-08
  4.27447957E-07 -1.45590055E-06  3.94841704E-06 -3.29414156E-05  1.85722956E-02
 -1.56565624E-02  5.74469634E-03  1.18292084E-01 -9.96627284E-02  3.65946711E-02
 -4.45560359E-02  3.75391500E-02 -1.37838063E-02 -1.37413903E-01  1.15772641E-01
 -4.25100153E-02 -2.93435213E-01  2.47225156E-01 -9.07773391E-02 -1.82780451E-01
  1.53996885E-01 -5.65454403E-02 -1.98510308E-04 -1.02055196E-03 -5.01150660E-04
 -4.31636651E-03 -8.59813102E-04 -5.27823811E-04 -2.17832438E-03 -6.98979038E-04
 -8.01915700E-03 -1.68964301E-03  8.22029984E-08  1.38335583E-07  1.68618981E-02
 -1.42128323E-02  5.21719981E-03 -5.43839456E-07  2.45354821E-02 -2.06806926E-02
  7.59152186E-03  1.85940173E-06  1.95571253E-02 -1.64848599E-02  6.05274787E-03
 -3.58424477E-06  5.04707053E-03 -4.25533969E-03  1.55913048E-03  5.87669094E-05
  1.03663966E-04 -8.71473984E-05 -5.01451754E-06  3.35801357E-05 -6.67489192E-05
  1.52277668E-06  2.40863784E-04  7.77873294E-04  9.46888424E-05 -8.46904159E-09
 -2.17192752E-08  2.31897504E-08  1.71644141E-07  3.52617450E-09 -3.06984073E-06
 -1.32042278E-05  1.01846226E-02 -8.58018219E-03  3.15343715E-03  2.15280533E-02
 -1.81420442E-02  6.67002531E-03 -8.07035475E-03  6.80103882E-03 -2.50043904E-03
 -2.53421939E-02  2.13559412E-02 -7.85173840E-03 -5.24438838E-02  4.41977734E-02
 -1.62486630E-02 -3.25372664E-02  2.74214386E-02 -1.00811229E-02  3.13769868E-04
  7.20035619E-04 -2.66872381E-04  1.05098335E-03  3.64601949E-04  9.67649622E-04
  1.72771609E-03 -1.40746513E-03  6.11513053E-05  5.76353655E-04  2.33051777E-03
  3.62307940E-03 -1.39856958E-03  2.37136924E-03  1.09800417E-02 -8.62004196E-03
  3.35164540E-04  4.16683355E-03  1.02684128E-02  2.82414287E-03 -4.57868608E-03
 -6.04707921E-03 -1.66676786E-03 -3.98574557E-01 -8.81888170E-02 -4.85044418E-02
  1.52943763E-01  3.65897073E-03 -1.61635850E-03 -3.54120877E-04  6.98658505E-04
 -2.22776527E-03  5.13037365E-02 -2.31555806E-02 -4.93979236E-03  9.60115671E-03
 -2.97020732E-02  4.74417028E-05  2.52100736E-05  2.42758814E-03  3.06315470E-03
  4.96865970E-04  1.05990656E-03  9.80094726E-03  1.46116254E-02  8.11878573E-03
 -2.25459003E-02  1.12362628E-04  7.01385623E-03  1.87404709E-02  4.07350335E-01
 -1.23113836E-01 -1.30434778E-01  4.26745716E-02  6.81581047E-04  8.83431098E-04
  1.41777315E-03 -3.46393409E-04 -2.93424322E-04  3.54535805E-02 -3.74808660E-03
  1.01823495E-02  2.78293411E-03 -2.36677542E-02  3.57019187E-04  1.03981485E-03
 -2.26492177E-03 -3.59052699E-03  8.79176518E-03 -1.28141799E-02 -7.65006687E-02
  3.61622365E-02  4.57177113E-02  7.63210804E-03  9.99497715E-02  1.24122022E-01
  1.49621186E-02 -3.75896121E-02 -4.66139249E-02 -5.44583110E-03 -1.17334864E-01
 -1.46390237E-01 -1.94138310E-02 -2.48487845E-01 -3.02978471E-01 -2.19276462E-02
 -1.69043855E-01 -2.04801743E-01 -1.13465182E-02  1.60888820E-03  8.06995163E-04
  1.87784080E-03 -3.84553436E-04 -4.92489517E-04 -4.93537575E-03  1.86080603E-03
 -1.39044335E-03  8.89212614E-05 -7.05717863E-04 -5.77040563E-04 -1.66972519E-03
  3.54402561E-03  6.15786994E-03 -1.31892246E-02  8.75384101E-03 -1.49607111E-02
 -1.32014218E-02 -7.94035407E-03  2.10546092E-02 -4.38910896E-02  1.65777714E-03
  1.46413386E-01  1.66042351E-02 -4.83513363E-04 -5.49978221E-02  5.05331398E-02
 -3.36684611E-03 -1.72541239E-01  1.16479916E-01  7.11049941E-03 -3.57209799E-01
  7.62534804E-02  2.70768702E-03 -2.39151054E-01  1.01349389E-03 -1.89914701E-03
 -1.93301214E-03  7.87707774E-04 -8.07377614E-04 -1.57376116E-05  1.11695263E-04
  1.43589445E-03 -8.46858589E-04  3.28265341E-03  3.04430520E-04  5.34668759E-04
  2.94349029E-02  3.62098089E-02  3.47355247E-03 -2.33332357E-03  4.27627890E-02
  5.22169328E-02  3.98894593E-03 -1.58694710E-02  3.64142311E-02  4.17213456E-02
 -4.08079101E-03  9.95649871E-03  1.29568737E-02  1.84796970E-02  8.45238554E-03
  2.02867730E-05  2.19146246E-04  2.69220190E-04 -7.89710340E-05 -2.52480388E-05
 -6.45229775E-04  5.25637258E-04  5.56023456E-04 -3.37855475E-04  8.97663454E-04
  5.27589783E-04  1.48899963E-03 -2.84169583E-03 -6.84829440E-03  1.21394776E-02
  2.07860964E-02  7.64452613E-02  4.91101272E-03 -8.87476193E-03 -4.00376221E-02
  3.22961929E-02  4.91417722E-03 -9.10120275E-02 -1.21324430E-02 -1.86884364E-03
  3.41277718E-02 -3.76690955E-02 -5.00225765E-03  1.08139078E-01 -8.51335367E-02
 -2.04692410E-02  2.19444464E-01 -5.48508564E-02 -1.06094692E-02  1.48407579E-01
 -1.76949604E-03  1.45603239E-04 -6.17055355E-04 -8.71953642E-05  1.03418606E-03
 -4.86052614E-03  4.68677036E-03  4.01887771E-03 -2.17587350E-03  4.13955798E-03
 -2.96654679E-06 -4.78628971E-06 -1.14277169E-01  9.62897659E-02 -3.53528007E-02
  1.34783991E-05 -1.73092621E-01  1.45847787E-01 -5.35484889E-02  2.60326684E-05
 -1.53848803E-01  1.29634831E-01 -4.75919803E-02  6.26407642E-05 -4.47655193E-02
  3.77585328E-02 -1.38931751E-02  3.03787374E-03  3.87120892E-03 -6.26645650E-03
 -9.86846277E-03  8.13374342E-05  6.65295937E-03  8.25072155E-03 -1.39932719E-02
 -2.30818135E-02 -7.45188554E-05  2.63611061E-06  4.27630996E-06 -1.17039346E-01
  9.86207464E-02 -3.62124507E-02 -1.27015103E-05 -1.77623687E-01  1.49670609E-01
 -5.49569570E-02 -1.89941811E-05 -1.57130528E-01  1.32401101E-01 -4.86171928E-02
 -1.15840605E-04  5.60820473E-03 -4.70890895E-03  1.71409281E-03 -3.46959132E-03
 -4.67275963E-03  6.85916511E-03  9.64633815E-03 -3.72869245E-04 -7.89076925E-03
 -1.07100894E-02  1.54984324E-02  2.13930313E-02 -9.41258837E-04 -3.84309557E-08
 -1.11044363E-07  2.34656922E-07  4.16651762E-07 -5.66825988E-07 -3.20955712E-06
  3.08755256E-05  9.03220961E-03 -7.61740373E-03  2.78929815E-03 -6.93379694E-02
  5.84220959E-02 -2.14472670E-02  2.62002111E-02 -2.20754884E-02  8.10413663E-03
  8.22814802E-02 -6.93280337E-02  2.54506866E-02  1.76978184E-01 -1.49116009E-01
  5.47432053E-02  1.34062716E-01 -1.12956949E-01  4.14675769E-02  4.37265141E-03
  7.67715965E-03 -6.52589796E-03 -6.10820071E-04  2.45658154E-03  1.06058207E-02
  1.85887952E-02 -1.58678035E-02 -1.69198518E-03  5.92218743E-03 -5.84106175E-08
 -1.68785544E-07  3.57276156E-07  6.30546240E-07 -9.78605501E-07 -2.10307074E-06
  1.22223850E-05  8.45474817E-03 -7.12292881E-03  2.62194892E-03 -7.17900844E-02
  6.04872749E-02 -2.22075904E-02  2.71089204E-02 -2.28408415E-02  8.38588524E-03
  8.52751873E-02 -7.18490829E-02  2.63791316E-02  1.82467334E-01 -1.53740037E-01
  5.64442762E-02  1.39159802E-01 -1.17248431E-01  4.30479689E-02 -9.82633584E-04
 -3.34934821E-03 -4.61725085E-04 -1.03644447E-02 -2.36024502E-03 -2.36412546E-03
 -8.02299688E-03 -1.07004794E-03 -2.47102231E-02 -5.63968981E-03 -1.41733918E-07
 -2.37627400E-07  6.68797410E-02 -5.63533032E-02  2.06917442E-02  7.99347387E-07
  9.54607701E-02 -8.04357961E-02  2.95344891E-02  1.52227962E-06  9.15557134E-02
 -7.71453199E-02  2.83261397E-02 -7.85250790E-07  3.51030415E-02 -2.95774543E-02
  1.08606695E-02 -2.85608279E-04 -4.90311680E-04  4.39311256E-04  1.11324177E-04
 -1.48172147E-04 -1.65519637E-03 -2.89613624E-03  2.48102770E-03  2.91144709E-04
 -9.19514028E-04  3.27415944E-08  9.31753298E-08 -1.84720731E-07 -4.03176286E-07
  8.38659409E-07  7.03577100E-07  1.62951391E-05 -4.78437722E-03  4.02514667E-03
 -1.47735861E-03 -6.89068713E-02  5.80602867E-02 -2.13179276E-02  2.60326686E-02
 -2.19348691E-02  8.05380954E-03  8.19010625E-02 -6.90091022E-02  2.53379272E-02
  1.75976442E-01 -1.48276133E-01  5.44425616E-02  1.35460005E-01 -1.14138041E-01
  4.19074203E-02  7.90021914E-04  3.12838453E-03  8.88468514E-04  1.11490899E-02
  2.38194949E-03  1.70391679E-03  7.17580666E-03  2.42533960E-03  2.68175411E-02
  5.61429145E-03  4.41443433E-05  7.20515565E-05  1.48084264E-01 -1.24675864E-01
  4.57550216E-02 -2.23100817E-04  2.23128673E-01 -1.87859522E-01  6.89421523E-02
 -5.11588860E-04  3.74392348E-01 -3.15248983E-01  1.15707743E-01 -2.35504424E-03
  4.42573604E-01 -3.71847115E-01  1.36653312E-01  3.11550403E-03  3.93315325E-03
 -6.46436028E-03 -1.03468833E-02  4.95324024E-05  1.23757415E-02  1.55818041E-02
 -2.56881188E-02 -4.13050897E-02  1.61143271E-04 -1.02795210E-05 -1.72275777E-05
 -1.64093367E-01  1.38251893E-01 -5.07344677E-02  6.34359358E-05 -2.44046473E-01
  2.05616057E-01 -7.54551822E-02  1.51978651E-05 -4.04570225E-01  3.40912668E-01
 -1.25122664E-01  9.95725720E-05 -3.73874565E-01  3.14955662E-01 -1.15606770E-01
  1.84869163E-03  1.75051300E-03 -4.52260795E-03 -9.88533147E-03 -6.19413817E-04
  5.54175118E-03  3.15474460E-03 -1.60401552E-02 -4.31934624E-02 -4.19368371E-03
  5.22594849E-06  1.50685256E-05 -3.15461082E-05 -5.99987236E-05  1.10396283E-04
  1.46854997E-04  7.40826168E-04 -1.53526293E-01  1.29154786E-01 -4.78129565E-02
  3.37883498E-02 -2.84503174E-02  1.05059313E-02 -1.28904690E-02  1.08539698E-02
 -4.00799726E-03 -4.17296273E-02  3.51371121E-02 -1.29748025E-02 -9.40876016E-02
  7.92240448E-02 -2.92493341E-02 -1.14768058E-01  9.66345084E-02 -3.56837926E-02
 -1.24395218E-02 -2.27224550E-02  1.74332214E-02 -4.18102878E-03 -7.99247641E-03
 -2.94790588E-02 -5.42743940E-02  4.07962978E-02 -1.26962883E-02 -1.94159903E-02
  6.34123115E-06  1.82772045E-05 -3.82034724E-05 -7.30044797E-05  1.34636373E-04
  1.74116536E-04  1.55791886E-03 -1.21054755E-01  1.02663327E-01 -3.72725015E-02
  3.40025460E-02 -2.87324381E-02  1.05005742E-02 -1.29488645E-02  1.09417715E-02
 -3.99882034E-03 -4.21474055E-02  3.56142959E-02 -1.30161701E-02 -9.38722675E-02
  7.93145845E-02 -2.89898260E-02 -1.18537309E-01  1.00184105E-01 -3.66058087E-02
  5.38485731E-03  1.37272193E-02 -2.93615808E-03  2.70634988E-02  7.79187044E-03
  1.35543777E-02  3.40945294E-02 -7.93082955E-03  6.51621671E-02  1.91057626E-02
 -1.03944806E-06 -1.72837886E-06  6.20098502E-02 -5.22411732E-02  1.91829279E-02
  5.69235758E-06  8.90082397E-02 -7.49860100E-02  2.75346784E-02  8.14174423E-06
  9.36222162E-02 -7.88745371E-02  2.89648625E-02  3.99189064E-05  1.09892694E-01
 -9.25815069E-02  3.40102453E-02 -7.58929382E-04 -1.41600173E-03  1.03276576E-03
 -4.36256256E-04 -5.19657895E-04 -4.49225190E-03 -8.29851448E-03  6.21552644E-03
 -2.03109550E-03 -2.98099372E-03 -6.90615376E-07 -1.98756338E-06  4.13140959E-06
  8.04670871E-06 -1.49451112E-05 -1.62742967E-05 -2.24831678E-04  1.26513380E-01
 -1.06474050E-01  3.90727164E-02 -3.81442758E-02  3.21207598E-02 -1.17953030E-02
  1.45669183E-02 -1.22667059E-02  4.50451899E-03  4.70296084E-02 -3.96024771E-02
  1.45428551E-02  1.07026392E-01 -9.01286535E-02  3.30953939E-02  1.31201789E-01
 -1.10465103E-01  4.05766077E-02  4.31716521E-03  1.28141465E-02 -2.39376165E-04
  3.32159347E-02  8.25588248E-03  1.02448067E-02  3.03983926E-02 -5.77518931E-04
  7.87740478E-02  1.95840675E-02 -4.43712485E-02 -7.26995914E-02 -6.00058197E-02
 -9.40486809E-02 -6.17985143E-02  2.30138477E-01 -9.21686468E-02 -1.42215578E-01
 -8.88275480E-02  4.78686154E-01 -1.44574443E-01 -2.09450678E-01 -1.02142332E-01
  4.84505089E+00 -2.23227838E-01 -6.43153028E-01 -1.02880244E+00  9.43511988E-03
 -4.10542279E-03 -2.47544901E-03  2.77799801E-03 -9.83648967E-03  2.85785656E-02
 -1.41618369E-02 -1.69576206E-02  1.35852086E-02 -4.82188591E-02  3.38485846E-02
  5.55991827E-02 -5.01391336E-02 -8.60831581E-02 -7.27783057E-02 -1.81449007E-01
 -7.69247995E-02 -1.30241390E-01 -1.06657904E-01 -3.14093342E-01 -1.06703493E-01
 -1.84231985E-01 -1.57854761E-01 -4.09000239E+00  1.93662209E-01 -6.69528713E-03
 -6.45047770E-01 -1.13741801E-02  2.52740125E-03 -8.13170178E-04 -1.91996459E-03
  9.72416951E-03 -2.68310466E-02  2.51801616E-03 -4.38459374E-04 -6.71252704E-03
  3.70886991E-02 -2.97987642E-04 -8.66967300E-04  1.88253459E-03  3.17506816E-03
 -5.32027601E-03 -1.45147123E-02  2.13641861E-01  8.86298016E-02  1.00662233E-01
 -1.27832192E-02 -1.04370211E-02 -1.35975011E-02 -3.21266291E-03  3.99392376E-03
  5.22008495E-03  1.27504900E-03  1.28115728E-02  1.66002636E-02  3.69582328E-03
  2.89512211E-02  3.90594911E-02  1.25627342E-02  3.11786243E-02  3.99418459E-02
  7.71835029E-03  1.09803699E-03  1.04466749E-02  1.25713611E-02 -3.55450578E-03
 -2.15552269E-03  2.10143315E-03  2.57909126E-02  2.98038159E-02 -8.19926326E-03
 -7.36128957E-03 -9.38465489E-03 -2.70629827E-02  5.66858015E-02  1.07628116E-01
 -1.96873241E-01 -2.59767672E-01 -2.53764318E+00 -5.40188545E-01 -7.17698297E-01
 -2.08705319E-01  6.25584847E-02  8.44270458E-02  2.78024159E-02 -2.37195557E-02
 -3.20060926E-02 -1.05275692E-02 -7.73830669E-02 -1.04376971E-01 -3.42377989E-02
 -1.64591948E-01 -2.21889979E-01 -7.25029949E-02 -2.44712026E-01 -3.34865594E-01
 -1.21310790E-01 -1.85699664E-02  1.27833066E-02  1.68430398E-02 -1.11018248E-02
  3.51111824E-02 -4.50125540E-02  3.18570998E-02  4.15366551E-02 -2.70268388E-02
  8.42432841E-02  3.42131786E-03  5.68184548E-03  1.67385715E-02  1.38969777E-02
 -1.61049274E-02 -1.82278288E-02  2.31954521E-02  1.89926367E-02 -2.30312739E-02
 -3.89565131E-02  2.93734925E-02  2.30779619E-02 -3.18656825E-02 -6.67779179E-02
  6.72727403E-03 -9.11582495E-04 -2.39533906E-02  3.23707949E-04 -7.03225039E-04
 -5.95366543E-04  2.02946949E-04  8.64885424E-05  1.83757335E-04 -3.24310676E-03
 -3.45545650E-03  9.88255434E-04  8.51876788E-04  7.73097978E-03  2.22852719E-02
 -4.66056439E-02 -8.90340063E-02  1.62371840E-01  2.22038039E-01  1.61283919E+00
 -4.54720512E-01 -5.43826575E-01 -1.09901370E-02  5.71549939E-02  7.03834569E-02
  6.84964746E-03 -2.16827801E-02 -2.66920611E-02 -2.57332107E-03 -7.04787014E-02
 -8.67201821E-02 -8.25366693E-03 -1.53775061E-01 -1.88623006E-01 -1.63940480E-02
 -2.19828940E-01 -2.79333112E-01 -4.98687119E-02  2.12122153E-02 -4.69942442E-03
 -5.24357047E-03  7.73952298E-03 -3.50557484E-02  5.10608993E-02 -9.61193056E-03
 -1.09411478E-02  1.82218194E-02 -8.53334887E-02  5.46149865E-02  8.92437334E-02
  5.27525189E-02  1.07356453E-02 -1.41711508E-01 -2.80137392E-01  7.76988902E-02
  1.49743090E-02 -2.11029844E-01 -6.58568974E-01  1.22183379E-01  3.33049320E-02
 -3.05334170E-01 -1.79781037E+00  4.26089110E-01 -1.03308317E-01 -1.66047631E+00
  1.05429205E-02 -3.70735833E-03  2.51128845E-03  2.00280087E-04 -4.80315424E-04
  5.37788233E-02 -9.51367614E-03  2.76907526E-02 -4.67744223E-03  6.31734711E-03
 -1.14474948E-04 -4.24307503E-04 -5.62082030E-02 -7.46611578E-02 -2.12164038E-02
  4.37300081E-03 -8.29120954E-02 -1.11012792E-01 -3.36895940E-02 -1.08068136E-01
 -6.09084216E-02 -1.12565391E-01 -1.08571458E-01 -1.68333598E+00  2.11774559E-01
  2.16953053E-01 -9.21635064E-02 -9.22691171E-03  1.99132288E-03 -1.43705330E-03
 -1.08854645E-03  6.10238742E-03 -1.78274536E-02  9.94902559E-03  6.74727517E-03
 -5.69940147E-03  1.71134358E-02  1.06183089E-02  3.06174193E-02 -6.41033661E-02
 -1.22107002E-01  2.24650468E-01  2.96965108E-01  2.77502929E+00  8.08920238E-02
 -2.80529660E-01 -1.02526706E+00 -1.12473000E-02  2.77200091E-02  1.11785151E-01
  4.21931171E-03 -1.05979904E-02 -4.24769930E-02  1.42576939E-02 -3.37044853E-02
 -1.37797948E-01  2.77882429E-02 -7.63880518E-02 -2.97681517E-01  4.88996182E-02
 -1.05434849E-01 -4.44980952E-01 -5.02599324E-02  6.54449886E-03 -2.45490601E-02
  2.71475123E-03  4.54203284E-03 -1.22603815E-01  1.50513951E-02 -6.03143944E-02
  6.55294014E-03  1.27695162E-02  3.44347038E-03  9.93224696E-03 -2.08236032E-02
 -3.94844264E-02  7.23134781E-02  1.05292669E-01  2.54327405E-01  2.15536346E-02
  1.41484317E-01  3.16111314E-01 -1.37788075E-02 -2.93630684E-02 -3.55227748E-02
  5.23138901E-03  1.12025383E-02  1.36347988E-02  1.68595733E-02  3.58218878E-02
  4.31779517E-02  3.79986054E-02  8.21240561E-02  1.01087225E-01  5.07575097E-02
  1.01361541E-01  1.12326118E-01 -1.68496568E-03 -1.76643756E-02 -2.47171793E-02
  8.19239213E-03 -5.44563923E-03 -2.31181162E-03 -4.31908321E-02 -5.91045044E-02
  1.97452445E-02 -1.30729278E-02  6.95834009E-03  1.16741785E-02  2.37709247E-02
  1.69330664E-02 -3.08837136E-02 -4.03383331E-02  3.38736134E-02  2.32620103E-02
 -4.63747579E-02 -6.77790362E-02  3.85284041E-02  2.72856984E-02 -5.04739238E-02
 -9.00610666E-02  1.28032601E-02 -1.85692744E-03 -4.67613934E-02  2.60758860E-04
 -6.21407234E-04 -5.68791760E-04  1.97371918E-04  2.00142213E-05  2.38634567E-04
 -3.93442390E-03 -4.11880205E-03  1.15272834E-03  1.24016400E-03  3.44900850E-03
  9.95842060E-03 -2.09641648E-02 -3.92325729E-02  6.97768529E-02  1.06671035E-01
  3.95866675E-01 -1.79836940E-01 -2.32133735E-01 -5.14456132E-02  2.30576209E-02
  2.90941359E-02  4.80599853E-03 -8.80739194E-03 -1.11259110E-02 -1.87063662E-03
 -2.80157212E-02 -3.51876569E-02 -5.39715181E-03 -6.24335160E-02 -7.91198957E-02
 -1.39609789E-02 -9.12106603E-02 -1.14923358E-01 -1.84885541E-02  1.03305210E-02
 -5.08366425E-03 -5.87248622E-03  4.76287803E-03 -1.69412617E-02  2.48328661E-02
 -1.34546709E-02 -1.54371112E-02  1.18071966E-02 -4.02850116E-02  2.04332546E-02
  3.36639162E-02 -2.62421891E-02 -4.31363629E-02 -3.25692205E-02 -1.08798714E-01
 -3.65700809E-02 -6.39004453E-02 -5.56935837E-02 -1.37673231E-01  7.96372131E-02
  5.77378285E-02 -9.98761423E-02 -1.26935376E+00 -1.84789769E+00 -1.65073338E+00
  1.47789868E+00  2.73352250E-03 -1.86578521E-04 -9.04583071E-04  1.28776986E-03
 -6.35991021E-03  3.29267517E-03 -1.55341804E-02 -2.27601278E-02  9.23797380E-03
 -1.54557232E-02 -2.51447822E-02 -4.07251496E-02  3.24855367E-02  2.09110785E-02
 -4.81720751E-02  1.14511720E-01  5.27690679E-02  3.40823117E-02 -7.79189235E-02
  2.87459329E-01  1.10402768E-01 -1.34933628E-02 -3.93943376E-01  7.87692842E+00
  2.22755847E-01  4.47255335E-01  4.97229086E-01 -1.25519299E-02  4.94898460E-03
 -4.40524973E-03  8.35159306E-04 -4.60977568E-03 -2.18807098E-02  1.54005009E-02
 -7.59580077E-03  3.88909147E-03 -2.83637272E-02 -2.35975326E-04 -6.44370394E-04
  1.02715289E-03  4.03639921E-03 -1.33603397E-02 -7.46518894E-03 -1.16663207E+00
  2.13771983E-01  3.48362284E-01  2.57887415E-01 -8.88954445E-03  2.80987023E-03
  3.64242805E-02  3.31974624E-03 -1.10640527E-03 -1.37576530E-02  1.15599794E-02
 -3.05333489E-03 -4.57322276E-02  2.15821160E-02 -9.09010003E-03 -9.46036056E-02
  2.85652322E-02 -2.72655387E-02 -1.66813180E-01 -2.34441254E-02  1.16336491E-02
 -2.12913158E-03 -1.30121647E-03 -6.25759293E-04 -5.62679025E-02  3.15055536E-02
 -1.64068043E-03 -3.93867914E-03 -3.68511305E-03 -5.30213102E-03 -1.52375449E-02
  3.14491981E-02  6.30137164E-02 -1.25716424E-01 -1.11250561E-01 -1.65178577E+00
 -2.36666534E-01 -4.80049682E-01 -5.42433223E-01  6.87223659E-03  6.21728444E-03
 -5.25813405E-03 -2.59963882E-03 -2.34025787E-03  2.02088523E-03 -8.82601207E-03
 -8.06045245E-03  6.54609973E-03 -1.53667391E-02 -1.22262808E-02  1.63173280E-02
  2.19421563E-02  4.35184948E-02  4.74658826E-02 -4.39841633E-04 -1.66667298E-03
 -2.75511157E-03  9.53787471E-04 -1.08207796E-03 -5.63178054E-03  2.78008172E-04
 -2.99094862E-03  2.90341808E-04  1.30364652E-03  2.20800810E-02  3.71109762E-02
  5.66949509E-04 -1.88576327E-02 -5.31514260E-02 -1.30405383E-01 -7.22749435E-04
 -2.90961176E-02 -7.68492797E-02 -2.03014893E-01  1.36706206E-02 -2.99848819E-02
 -1.25794630E-01 -6.82072158E-01 -3.85882153E-02 -1.10642695E-01 -1.76512502E-01
  6.16267100E-04  8.67705120E-05  4.54782233E-04 -6.63616722E-05 -1.77903449E-04
 -3.50051436E-03  2.68544445E-03  1.82132256E-04 -1.53104654E-04 -1.72055340E-03
 -7.96940796E-03 -2.29336499E-02  4.76082020E-02  9.37139069E-02 -1.80238511E-01
 -2.21824317E-01 -2.30417736E+00  5.61408389E-01  8.13657747E-01  4.01468107E-01
 -1.07851672E-02 -1.94700543E-02 -1.81865763E-02  4.17887587E-03  7.55208654E-03
  7.06871537E-03  1.26405449E-02  2.28387540E-02  2.13688233E-02  3.15830930E-02
  5.84725815E-02  5.72245591E-02 -1.00940438E-02  1.21862560E-02  6.58996974E-02
 -2.40117236E-03  1.11617240E-02  1.32449506E-02 -4.73970298E-03  3.40657547E-03
 -1.35972552E-02  2.91538326E-02  3.02838496E-02 -1.18840996E-02  1.06086388E-02
 -1.31952006E-02 -2.09093764E-02 -5.57126978E-02 -7.49232534E-02 -2.39694940E-02
  5.28032370E-02 -8.61053146E-02 -1.14464940E-01 -3.34154728E-02  3.43895197E-01
 -1.91515135E-01 -2.10266063E-01  4.63645907E-02 -1.32244832E+00  7.94739013E-01
 -3.75692987E-01 -3.59240509E+00  1.47068389E-03 -2.87312254E-03 -2.01700541E-03
  6.15215035E-04  1.15768601E-03  2.44162521E-02 -1.27522015E-02 -2.08444632E-04
  2.61348226E-03 -3.50545568E-03 -4.01264354E-02 -6.54717212E-02  5.42905458E-02
  5.70431427E-02 -2.01266720E-02  2.02009857E-01  8.18285809E-02  8.56554200E-02
 -3.12140261E-02  7.70217724E-01  1.02974661E-01  1.21937302E-01 -7.54247901E-04
 -1.47194645E+00  1.00123534E+00  1.32262031E+00  3.66143582E-01 -9.77962980E-03
  2.49912354E-03 -2.81167395E-03 -2.27301386E-04  2.07527248E-03 -2.91829386E-02
  1.32994055E-03 -1.82987769E-02  3.15737975E-03 -2.40863319E-05  6.98704160E-03
  2.00343913E-02 -4.09525531E-02 -8.50198371E-02  1.78362563E-01  1.23881820E-01
  4.48462574E+00  2.50749636E-01 -3.26771723E-01 -1.70157302E+00 -2.63810757E-03
 -7.82106521E-03 -1.27956540E-02  1.21406949E-03  3.19544289E-03  4.78542738E-03
  1.85799398E-03  8.09577171E-03  1.60831469E-02  1.41123463E-02  3.08439771E-02
  3.83934815E-02 -2.76635542E-02  2.39121253E-02  1.54885576E-01  2.39055727E-03
  9.90108140E-03  1.37953479E-02 -4.13536198E-03  4.17433661E-04 -6.19368445E-03
  2.81861818E-02  3.18202820E-02 -1.10109541E-02  4.71207289E-03 -1.60202783E-03
 -4.66069360E-03  1.01222428E-02  1.70891770E-02 -2.52966993E-02 -5.93403612E-02
 -5.89738457E-01 -1.85044988E-01 -1.75762634E-01  1.19476352E-01  2.94040660E-02
  3.57281911E-02  2.24592988E-03 -1.10621622E-02 -1.36132709E-02 -1.31338211E-03
 -3.76635169E-02 -4.43486733E-02  9.80076226E-04 -7.43625566E-02 -9.59023325E-02
 -2.07922908E-02 -1.81010959E-01 -2.16412742E-01 -4.19722379E-03 -1.02668791E-02
  1.18795251E-02  1.80596210E-02 -9.75040748E-03  2.66960589E-02 -2.23325276E-02
  2.62972870E-02  4.19558090E-02 -2.26828325E-02  6.33734126E-02  8.76981382E-03
  1.45777525E-02 -5.71841471E-03 -2.72412231E-02 -5.57052200E-02 -4.70801683E-02
 -6.34474457E-03 -3.76865115E-02 -8.21255518E-02 -1.05422587E-01 -1.64609016E-02
 -5.13500124E-02 -8.66488491E-02  4.42084304E-02  2.50499054E-02  8.87140120E-03
 -5.67819716E-02  5.61646661E-04  3.31664899E-04  7.41723646E-04 -1.68868870E-04
 -1.07991714E-04  2.79149835E-03  1.97566218E-03  4.12869945E-03 -9.90577449E-04
 -4.22184834E-04 -3.66639210E-03 -1.05733542E-02  2.21605617E-02  4.23862698E-02
 -7.63688781E-02 -8.61969544E-02 -2.08411917E+00  4.77931392E-01  6.40016608E-01
  1.97937436E-01 -2.03754828E-02 -3.51074041E-02 -2.97643235E-02  7.92410357E-03
  1.35667674E-02  1.13389216E-02  2.38586482E-02  4.19517470E-02  3.71525412E-02
  6.04866121E-02  1.02701595E-01  8.42041743E-02  1.56838044E-01  2.35916764E-01
  1.35667876E-01 -1.58596694E-02  1.80515398E-02  2.40080695E-02 -1.27797135E-02
  3.24117670E-02 -3.80971542E-02  4.41594784E-02  5.52550043E-02 -2.89217688E-02
  6.93911336E-02  1.18025581E-02  1.93226185E-02  5.79400206E-03  8.20997490E-03
  3.65351003E-03 -5.38281631E-02  4.92819750E-03  9.12482700E-03  8.92982067E-03
 -4.36596546E-01  1.27179324E-04  4.66510617E-02  1.26813386E-01 -1.98218564E+00
 -1.89022660E+00 -2.04018296E+00  5.51862784E-01 -3.67929518E-03  2.41429190E-03
  1.40364987E-03 -1.05646188E-03  2.47152524E-03 -4.02160509E-03  5.51702811E-03
 -1.26206935E-03  1.62025460E-03 -1.30216124E-02 -1.92514367E-02 -3.14407256E-02
  3.50165999E-02  4.65870702E-02  1.36668802E-02  8.97167950E-02  5.46368363E-02
  7.28543429E-02  2.17677300E-02  5.33126236E-01  2.05481992E-02  7.14960863E-02
  1.28188000E-01  1.74890317E+00 -2.42692461E+00 -2.71444147E+00  4.52258823E-01
  1.35536663E-03 -5.16445853E-04 -8.88811228E-04  7.53481163E-04 -2.97031866E-03
 -8.70784136E-04 -1.06656144E-02 -7.97727350E-03  7.28826340E-04  1.38605761E-02
  8.29738069E-04  2.39480019E-03 -5.03031411E-03 -9.59673262E-03  1.82968938E-02
  1.53013957E-02 -3.52103471E-02 -1.27913698E-02 -7.56518624E-02 -1.63878507E-01
 -1.85905091E-02 -2.12732540E-02  2.17733916E-03  6.69955292E-03  7.60815713E-03
 -9.42818794E-04  2.64762791E-02  3.07062620E-02 -1.98884799E-03  3.95162427E-02
  4.36762183E-02 -8.81521381E-03  1.21556739E-01  1.50564571E-01  1.69084497E-02
 -5.11796757E-03 -3.21676397E-04 -3.88882909E-03  7.68316859E-04 -2.60903376E-05
 -1.37771402E-02 -3.12905947E-03 -1.30767272E-02  2.83770150E-03  2.74155898E-04
 -4.35195747E-03 -1.23916247E-02  2.45683062E-02  5.60761785E-02 -1.31896456E-01
 -4.83541275E-03 -3.66633487E+00 -9.90795921E-01 -1.35953689E+00 -4.99021764E-01
 -2.58995932E-02 -3.47016688E-02 -1.07685990E-02  9.67159355E-03  1.29847099E-02
  4.09359039E-03  3.34872202E-02  4.45994795E-02  1.31837625E-02  6.94482201E-02
  9.43818457E-02  3.25418706E-02  2.08076889E-01  2.71794022E-01  6.73352694E-02
  4.71839471E-03 -3.50068419E-03 -5.33381466E-03  3.37793934E-03 -1.07878732E-02
  1.95323195E-03 -4.33267229E-03 -9.71253249E-03  4.94898548E-03 -1.45096265E-02
  6.49000764E-04  1.06351844E-03  8.90477338E-03  6.46271025E-03 -1.11808827E-02
 -3.09762499E-03  1.73258697E-02  1.45859444E-02 -1.62777695E-02 -6.82575380E-03
 -6.74980885E-03 -1.44348957E-02 -1.74893645E-02  1.85650976E-03  1.04991673E-01
  1.19497333E-01 -1.39269312E-02  5.25124820E-05  4.65766850E-04  6.26686804E-04
 -1.98479151E-04  6.60908392E-05  2.04348087E-04  3.54179227E-03  4.22211673E-03
 -1.23267511E-03 -5.26042850E-04  1.98004374E-03  5.55801691E-03 -1.03094691E-02
 -2.83690059E-02  7.90994777E-02 -4.13309948E-02  3.93627281E+00 -8.38976427E-01
 -1.11980838E+00 -3.37719500E-01 -3.70885564E-02 -4.66824257E-02 -7.24709025E-03
  1.39893347E-02  1.76287206E-02  2.79028335E-03  4.71243738E-02  5.90654802E-02
  8.52736235E-03  1.01189496E-01  1.27773654E-01  2.09001979E-02  2.38581968E-01
  3.08546319E-01  6.90562388E-02 -1.38910486E-02  8.03385241E-03  1.09104046E-02
 -7.83309328E-03  2.66570996E-02 -2.92438304E-02  1.49491958E-02  2.07585902E-02
 -1.58540332E-02  5.65483801E-02  5.26962067E-03  8.76455365E-03 -1.26291776E-02
 -4.32426837E-02 -7.70815935E-02 -3.09910638E-02 -1.80990674E-02 -6.20135677E-02
 -1.10586261E-01 -1.86827858E-01 -1.02808443E-01 -2.39521387E-01 -3.20218712E-01
 -5.67829923E+00 -1.64519078E+00 -1.94809478E+00  7.90774145E-03  4.69750792E-03
 -1.53742378E-03  1.26428061E-03  3.77135791E-05 -1.86175925E-04  1.55851708E-02
 -2.75471789E-03  6.77074419E-03 -5.81665740E-04 -1.33410996E-03 -1.28220226E-02
 -2.16268547E-02  1.21976754E-02  1.41637176E-02 -1.11138804E-03  1.00083440E-01
  2.15531221E-02  2.49889601E-02 -1.95787163E-03 -1.20915182E-01 -3.74800095E-02
  7.04682730E-02  3.12278567E-01  7.56027081E+00 -5.55394326E-01  2.71567671E-01
  2.53948541E+00 -7.44644781E-03  1.34535419E-03 -4.98010842E-04 -1.38948449E-03
  7.38621137E-03 -3.78943359E-02 -3.95418453E-03 -2.50920082E-02  2.82833354E-03
  1.38647166E-02  3.44453867E-04  1.09571472E-03 -3.19189924E-03 -4.19948868E-04
 -1.68380811E-02  1.09577152E-01  8.37503075E-01  1.29185927E-01  2.52086907E-01
  2.73095395E-01 -8.43723196E-03  1.06386230E-02  5.65104410E-02  3.21799025E-03
 -3.88243614E-03 -2.10691352E-02  1.05410098E-02 -1.45560606E-02 -7.41048936E-02
  2.46282810E-02 -2.37643689E-02 -1.44835426E-01  5.92038860E-02 -1.07999535E-01
 -4.87471931E-01 -2.79184321E-02  1.00002254E-02 -5.51119106E-03 -1.13832954E-03
  3.53081496E-03 -5.68718072E-02  2.42477134E-02 -7.36480416E-03 -3.26834761E-03
  5.13008298E-03 -1.10404133E-03 -3.20345721E-03  6.88398024E-03  1.21222686E-02
 -1.73001765E-02 -6.83578456E-02 -1.27051609E+00 -3.17034435E-01 -2.92506325E-01
  2.32903020E-01 -6.57175500E-04  9.57281797E-03  2.84378668E-02 -1.66341267E-04
 -3.90859101E-03 -1.01925788E-02  4.49861654E-03 -9.51308939E-03 -4.08120080E-02
 -1.38649587E-02 -3.81119052E-02 -5.94190119E-02 -1.84952937E-02 -1.08026101E-01
 -2.36329561E-01 -1.09687787E-02  6.61076940E-04  1.11244157E-03 -3.66654372E-03
  1.94888161E-02 -2.39341325E-02 -3.97218865E-03 -3.54600250E-03 -6.32235926E-03
  4.39770251E-02 -9.36458268E-03 -1.59612969E-02  6.66984937E-03 -8.35204597E-03
 -4.44172283E-02  6.17782623E-02  1.14380656E-02 -1.24102858E-02 -7.09673882E-02
  6.67209130E-02 -2.81993180E-03 -8.25931726E-04  6.85425831E-03  9.87700948E-01
  1.54627775E-02  6.36347979E-02  1.22798961E-01 -5.13683148E-04  1.45205265E-04
 -1.39448618E-04 -1.14126984E-05  8.37866721E-05  5.89004961E-03 -1.53215608E-03
  3.15917813E-03 -7.70430578E-04  2.47540587E-03 -1.50550542E-03 -4.31146269E-03
  8.76144453E-03  1.86508559E-02 -4.16825146E-02  1.69327009E-03 -1.96668137E+00
  5.53938937E-01  8.22040692E-01  4.51233736E-01 -3.47599796E-03  6.84183646E-03
  3.01285961E-02  1.30550239E-03 -2.37835905E-03 -1.07883806E-02  4.85123203E-03
 -1.01200485E-02 -4.36322236E-02  6.89262442E-03 -1.48734052E-02 -6.32559901E-02
  4.45796457E-02 -3.68451342E-02 -2.46412929E-01 -5.90372929E-03  6.77242815E-03
  9.64376910E-03 -5.16890500E-03  1.36978102E-02 -1.17609558E-02  2.36954287E-02
  3.49448531E-02 -1.62105850E-02  3.57446153E-02 -1.00134756E-05 -1.65935433E-05
 -1.26600591E-02  1.07284663E-02 -3.81127690E-03  5.80918052E-05 -1.91481872E-02
  1.62233185E-02 -5.77480687E-03  2.79897506E-04 -8.70339773E-03  7.70298111E-03
 -2.17356757E-03  7.37499126E-03 -4.50293898E-01  3.86810300E-01 -1.37884205E-01
  1.98855188E-04  3.10778378E-04 -3.67389362E-04 -3.52756481E-04  5.98521384E-05
 -1.71718341E-03 -2.51691832E-03  3.07435239E-03  3.21726289E-03 -4.41813883E-04
  1.54474350E-05  2.60007206E-05 -3.20604708E-02  2.69806303E-02 -9.91928530E-03
 -1.23997484E-04 -4.33496584E-02  3.64664457E-02 -1.34091859E-02  2.52329179E-04
 -1.00826064E-01  8.48391075E-02 -3.16274739E-02 -9.99328734E-03  5.58641946E-01
 -4.71139277E-01  1.68600460E-01  1.83459136E-04  1.14338458E-04 -4.86253784E-04
 -1.25378298E-03 -1.25016972E-04  2.52349056E-05 -6.08805940E-04 -6.11087706E-04
 -3.70320975E-03 -6.71494923E-04  1.46177647E-07  2.94550829E-07  5.03345735E-07
 -6.22233949E-06  3.50600692E-05 -1.09391259E-04 -3.97865630E-03  5.16012204E-01
 -4.35674982E-01  1.59888904E-01  3.13875825E-02 -2.64515917E-02  9.62235209E-03
 -1.11222345E-02  9.37291036E-03 -3.40820571E-03 -4.63907879E-02  3.90971194E-02
 -1.42352426E-02 -5.97733035E-02  5.03629726E-02 -1.82719448E-02 -2.33136681E-01
  1.96544477E-01 -7.12581958E-02  7.50462715E-04  1.57655262E-03 -6.37846181E-04
  2.14025450E-03  7.76965952E-04  3.50413463E-03  7.04136816E-03 -3.84813061E-03
  6.36077146E-03  3.08899248E-03  2.26937173E-06  6.55322105E-06 -1.38060777E-05
 -2.60579725E-05  4.41871317E-05  1.02940940E-04  4.61118523E-03  5.34519562E-01
 -4.48638070E-01  1.64725976E-01  2.95434985E-02 -2.48910878E-02  9.09609113E-03
 -1.04610742E-02  8.81443622E-03 -3.22092095E-03 -4.37056552E-02  3.68161938E-02
 -1.34559378E-02 -5.57603892E-02  4.70080320E-02 -1.71700479E-02 -2.26343180E-01
  1.90880902E-01 -6.96795882E-02 -5.27438152E-04 -1.24176513E-03  4.66492821E-04
 -1.79826253E-03 -6.52085358E-04 -2.24063950E-03 -5.20326268E-03  1.94711345E-03
 -7.60527223E-03 -2.69155801E-03  1.49121198E-05  2.53105482E-05 -1.27517022E-02
  1.07437978E-02 -3.88493005E-03 -9.54150802E-05 -2.23953601E-02  1.88663474E-02
 -6.83099495E-03 -1.24629439E-04 -2.16508890E-03  1.82784224E-03 -6.93779926E-04
 -1.34482888E-03 -5.89549434E-02  4.95454860E-02 -1.83664107E-02 -2.15952467E-04
 -3.96914033E-04  3.04436818E-04 -7.43852903E-05 -1.39975897E-04 -1.64885452E-03
 -3.04320610E-03  2.25019349E-03 -8.31594237E-04 -1.10858729E-03  1.86282971E-06
  5.32654083E-06 -1.07510542E-05 -2.33733296E-05  5.34142912E-05 -3.54217766E-06
  2.50673361E-03  3.30206108E-01 -2.79914509E-01  1.01801423E-01  2.92225048E-02
 -2.46315699E-02  8.99445305E-03 -1.02908714E-02  8.67380261E-03 -3.16687870E-03
 -4.37189522E-02  3.68524271E-02 -1.34607298E-02 -5.39596940E-02  4.54757870E-02
 -1.65862965E-02 -2.16403868E-01  1.82418259E-01 -6.66369207E-02  1.30332543E-03
  3.09785373E-03 -9.61432283E-04  5.19068653E-03  1.63185670E-03  3.92161711E-03
  9.39921218E-03 -2.83028824E-03  1.60612222E-02  4.99574405E-03 -5.61271883E-03
 -9.75689606E-03  1.59464200E-02  2.10668917E-02  5.84072701E-03  4.20437478E-02
  2.16046018E-02  2.53408521E-02 -8.14184380E-04  1.84609033E-02  1.58154971E-01
  2.07148472E-01  5.30472270E-02  2.20114530E+00  3.67657718E-01 -1.28285819E+00
 -4.68402044E+00 -5.35741246E-03  4.16767253E-03  3.27729101E-03 -2.05587422E-03
  4.70667324E-03  1.39784993E-03  1.03535151E-03  6.67552997E-03 -3.31163242E-03
  1.11875620E-02  3.10620451E-02  5.09472756E-02 -2.42442302E-02 -7.24997555E-03
  5.86154920E-02 -1.50965493E-01 -3.63062391E-02 -4.40969340E-03  1.05338060E-01
 -6.50426500E-01 -1.05433927E-01 -1.13198608E-01  3.24978493E-02 -2.41055556E+00
  1.64517638E+00  2.33558501E+00  1.04448657E+00  1.17342695E-02 -1.40853434E-03
  7.04989608E-03 -1.40150282E-03  1.89067776E-03  4.65975789E-02 -3.78991908E-03
  2.22085816E-02 -1.34902292E-03 -1.24510696E-02  2.96231737E-04  7.50045424E-04
 -6.67807553E-04 -7.02808417E-03  3.08401974E-02 -1.30403454E-01  5.13070430E+00
  2.20743867E-02 -5.46741601E-01 -1.56010052E+00  3.96135249E-03 -5.54152982E-03
 -2.78748868E-02 -1.78435441E-03  1.76061757E-03  1.05551754E-02 -2.70046684E-03
  9.61575337E-03  3.48825555E-02 -2.37869079E-02  3.73389622E-03  8.70270779E-02
  3.00811382E-02  7.30069973E-02  1.01377560E-01  3.79458002E-03 -1.09203487E-02
 -9.30372268E-03  2.81657330E-03  3.35901132E-03  7.35806411E-03 -3.19508595E-02
 -2.61931729E-02  6.50778223E-03  1.87973385E-02 -1.44934200E-03 -4.07570704E-03
  7.62583770E-03  2.05584158E-02 -5.78326922E-02  8.55680667E-02 -2.26430560E+00
 -9.87961488E-01 -1.16443872E+00  2.39697829E-02 -2.81218054E-02 -3.26140324E-02
  2.13260621E-03  1.02842633E-02  1.19931679E-02 -5.98492161E-04  3.85507467E-02
  4.40001104E-02 -4.86649391E-03  6.81544837E-02  8.25403378E-02  4.42241622E-03
  2.53943002E-01  3.12239116E-01  2.89252200E-02 -2.29250537E-03 -2.93366409E-04
 -1.65580155E-03  2.33848208E-04  6.59710516E-04 -1.34460294E-02  6.40106358E-03
  4.01183364E-03 -4.07270256E-03  1.35771647E-02 -1.74809520E-02 -2.92753738E-02
 -7.60076603E-03  1.53287216E-02  6.63193915E-02  1.00026242E-01 -1.35918903E-02
  1.87479567E-02  9.49971035E-02  1.73024820E-01 -1.33534460E-03  4.57571964E-02
  1.28947796E-01  1.71573605E-01 -4.92517434E-02 -6.96910166E-02 -3.06319255E-02
 -1.00488389E-03 -1.19456440E-04 -7.95887476E-04  1.49875857E-04  8.52627472E-05
 -1.89368306E-03 -2.45636398E-03 -3.24638348E-03  5.35813319E-04  2.55488935E-03
 -1.20379932E-03 -3.34009662E-03  5.83825223E-03  1.87479108E-02 -6.16521557E-02
  9.78739749E-02 -2.03612888E+00  8.92554460E-01  9.35399216E-01 -3.38705319E-01
  3.32612277E-02  4.01708285E-02  1.86218532E-03 -1.23016697E-02 -1.51054415E-02
 -1.36614625E-03 -4.43032353E-02 -5.13887710E-02  3.29864936E-03 -8.71695358E-02
 -1.14937171E-01 -3.12406899E-02 -3.53677586E-01 -4.05077267E-01  4.03732470E-02
  3.12440902E-04 -1.89262193E-02 -2.59314533E-02  9.07062350E-03 -8.03807270E-03
 -9.17580548E-03 -4.70253863E-02 -6.08925539E-02  1.74371469E-02  5.87085298E-03
 -1.90014202E-04 -2.27265005E-04 -5.53904955E-05  7.40223437E-03  2.03499252E-02
 -1.64299604E-02  1.19949990E-02  2.30723269E-02  2.40848723E-02  3.55031806E-01
  5.47136221E-02  3.79778599E-02 -7.33165744E-02 -8.52247885E+00 -5.59427110E+00
 -7.88515631E+00 -3.39189671E+00 -8.38991315E-03  2.64691163E-03 -4.42554585E-03
  1.22596243E-03 -4.78593870E-03 -1.48696626E-02 -4.57739752E-05 -1.11769400E-02
  2.49242734E-03 -2.47684764E-03  1.62819175E-02  2.68093493E-02 -3.59086915E-03
  3.75179282E-03  2.18229498E-02 -6.94921473E-02 -5.60488750E-03  1.23956661E-02
  5.18847928E-02 -5.89982199E-01  1.45705242E-01  1.68283764E-01 -1.27143710E-02
  1.70520100E+01  8.16099916E-01  3.15787582E+00  5.96088337E+00  2.35944790E-03
 -2.69827253E-04 -8.27580380E-04  1.10121268E-03 -5.28050873E-03 -1.53267108E-02
  2.13546397E-02 -4.89307915E-04  3.64484772E-03 -3.98366406E-02 -9.10844924E-04
 -2.75650698E-03  6.90448840E-03  6.14262761E-03  1.03396156E-02 -1.71228715E-01
  4.48249037E+00  1.02800361E+00  5.45679915E-01 -1.83787218E+00  1.86277267E-02
  4.67894265E-03 -4.74764243E-02 -6.73957359E-03 -1.58283345E-03  1.74767001E-02
 -2.64748396E-02 -7.85273377E-03  6.42009373E-02 -4.11071649E-02 -5.18319255E-03
  1.18772071E-01 -1.51806594E-01 -5.00886408E-02  3.54361715E-01 -3.05896746E-03
  4.81631924E-03  1.08412767E-03  2.12660674E-04 -6.68401317E-03 -1.83537876E-02
  2.07344368E-02  8.19192301E-04  1.74653832E-03 -2.95392069E-02 -6.56320968E-04
 -1.88368467E-03  3.87661564E-03  7.88801085E-03 -1.22758580E-02 -4.68508792E-02
 -7.80153798E+00 -3.99065468E-01 -8.86410194E-01 -1.12612838E+00  5.58414795E-03
  7.47446330E-03  2.20566078E-03 -1.84308375E-03 -2.53089674E-03 -9.00350157E-04
 -8.99341267E-03 -1.15716804E-02 -2.28925426E-03 -8.98044132E-03 -1.39343914E-02
 -8.76038975E-03 -1.69733560E-01 -2.10388391E-01 -2.34114967E-02 -2.38903012E-03
  9.50463852E-03  3.70147903E-03  5.18423869E-04 -1.54803102E-02 -8.01100313E-03
  2.62348140E-02  3.16460477E-03  5.35274342E-03 -5.79599428E-02 -1.27279250E-02
 -2.13266510E-02  3.19072971E-03  5.96330725E-03  5.94353612E-03  7.30655129E-02
  6.39909297E-03  8.04457458E-03  1.25411786E-03  1.51555995E-01 -8.51164228E-03
  2.26050655E-02  8.90791551E-02  2.49491078E-01  1.39988985E-02 -5.86025498E-02
 -2.04683032E-01 -1.29888298E-03  4.06656599E-04 -4.47271717E-04  4.27333183E-05
 -1.36059943E-04  2.71523252E-04  1.53513589E-03  9.50289820E-04  6.04179528E-05
 -2.73850894E-03 -2.08583446E-04 -6.15807028E-04  1.41052114E-03  1.98339429E-03
 -3.05237938E-03 -3.71388770E-02 -6.29128943E+00  6.16105892E-01  8.28334765E-01
  2.66841538E-01 -9.14080362E-03 -2.85201180E-03  2.18748768E-02  2.98218911E-03
  6.25097651E-04 -7.96972453E-03  1.58147565E-02  7.47706747E-03 -3.09086236E-02
  6.03220078E-03 -1.07041779E-02 -4.87819955E-02  1.62486998E-01  1.45554033E-01
 -1.29784337E-01 -5.93066141E-03 -6.80700641E-04 -1.00616517E-02  4.19090565E-03
 -1.29858849E-02 -1.95919583E-02  4.49675510E-03 -2.39252463E-02  1.06021932E-02
 -4.00431217E-02 -3.95636684E-06 -6.56028126E-06 -8.95351159E-03  7.52712737E-03
 -2.77357484E-03  2.51663102E-05 -1.17954073E-02  9.90170608E-03 -3.65633580E-03
 -9.80129936E-05 -3.34277260E-02  2.80841883E-02 -1.01749486E-02  1.11844419E-03
  3.62051002E-01 -2.97433946E-01  1.14307119E-01 -3.57196411E-04 -7.79123871E-04
  3.63947391E-04 -9.06591012E-04 -3.66143152E-04 -3.90896956E-03 -5.01991545E-03
  8.05115691E-03  1.24950007E-02 -1.40058025E-04 -2.21259991E-06 -3.79829117E-06
  8.84881945E-03 -7.44855544E-03  2.72838699E-03  1.07946448E-05  1.37017527E-02
 -1.15343164E-02  4.22410131E-03  2.05183257E-04  1.82147071E-02 -1.55876858E-02
  5.65355278E-03 -5.40266000E-03 -2.70611740E-01  2.24688501E-01 -8.58204461E-02
 -3.85900335E-04 -8.64950262E-04  3.52455366E-04 -1.16961926E-03 -4.25715193E-04
 -1.84241848E-03 -2.12968392E-03  4.11306828E-03  7.58497136E-03  2.35146255E-04
  5.31197546E-07  1.58064819E-06 -3.72900311E-06 -4.58851326E-06  2.58775847E-06
  6.03510745E-05 -3.76515273E-03 -2.07955396E-01  1.73947839E-01 -6.30599080E-02
 -7.34556686E-03  6.16302856E-03 -2.25721889E-03  2.62854276E-03 -2.20544020E-03
  8.07531432E-04  1.07578475E-02 -9.02537843E-03  3.30745188E-03  1.46348527E-02
 -1.22805007E-02  4.48968849E-03  6.60291292E-02 -5.54014529E-02  2.04251914E-02
  8.62902227E-04  3.12449093E-03  6.42719785E-04  1.03755624E-02  2.29095050E-03
  1.65061802E-03  8.41217537E-03  4.10913504E-03  3.56033727E-02  7.10327307E-03
 -6.79085552E-07 -2.01262031E-06  4.67785632E-06  6.14810026E-06 -5.07300343E-06
 -6.46173942E-05  5.74853305E-03 -9.15774728E-01  7.72612033E-01 -2.82585652E-01
 -4.00251782E-02  3.37177383E-02 -1.23716184E-02  1.40958646E-02 -1.18747790E-02
  4.35698421E-03  6.03779215E-02 -5.08612581E-02  1.86625137E-02  7.23225118E-02
 -6.09318976E-02  2.23548542E-02  3.53764455E-01 -2.97880411E-01  1.09311739E-01
 -1.05925402E-05  6.39425885E-04  7.95788000E-04  4.26468114E-03  7.40163025E-04
  3.90669985E-04  4.05030037E-03  3.40263114E-03  2.17196799E-02  4.00956290E-03
  3.80670655E-06  6.39987213E-06 -4.84594634E-03  4.07772281E-03 -1.49295297E-03
 -2.24393011E-05 -5.97079783E-03  5.02252922E-03 -1.83525997E-03 -4.79343605E-05
 -1.27808403E-02  1.07624632E-02 -3.97677423E-03 -1.74694395E-04  1.80992991E-02
 -1.52197909E-02  5.65153586E-03  4.23199860E-05  1.11103790E-04 -1.76667296E-05
  2.38257740E-04  6.55570645E-05  4.00430604E-04  1.10082749E-03 -1.24801618E-04
  2.52192491E-03  6.69992061E-04 -3.11891835E-07 -8.82756379E-07  1.70125696E-06
  4.25949133E-06 -1.17898467E-05  2.68654430E-05  2.89766095E-03  9.45457927E-01
 -7.96821947E-01  2.92069541E-01  4.06087741E-02 -3.42028138E-02  1.25419817E-02
 -1.42747586E-02  1.20227031E-02 -4.40846603E-03 -6.15928538E-02  5.18787298E-02
 -1.90250276E-02 -7.27557821E-02  6.12673494E-02 -2.24602850E-02 -3.61676688E-01
  3.04527218E-01 -1.11765781E-01  2.05764245E-04  1.11543868E-03  5.86139765E-04
  4.84497596E-03  9.60921804E-04  1.44571277E-03  6.04098148E-03  1.99070842E-03
  2.24315631E-02  4.73517040E-03  6.98039318E-03  1.17115057E-02  4.45417727E-02
  5.13348421E-02 -4.24639148E-03 -3.82469716E-02  5.38887607E-02  6.37961637E-02
 -5.50187819E-04 -3.10918293E-01  1.43957512E-01  1.98456181E-01  7.52164596E-02
 -5.80540515E+00 -2.60672035E+00 -2.12560740E+00  2.62980535E+00 -5.00709149E-04
 -3.55912210E-03 -1.24458591E-03 -6.96925406E-04  8.57501666E-03  1.46423008E-02
 -1.61674996E-02 -5.62860482E-03  1.87767019E-03  9.82445358E-03  1.13440684E-02
  1.84991726E-02 -4.42065179E-02 -3.78090019E-02  3.96712520E-02 -5.90296169E-02
 -5.46770614E-02 -4.77995676E-02  4.62801836E-02 -2.44348403E-01 -2.40965800E-01
 -2.13914247E-01  1.94947115E-01  6.02855098E+00 -1.18348925E+00 -1.37026708E+00
  1.07901542E-01  7.64120208E-03 -4.13559481E-03  2.22814718E-03 -6.43909115E-04
  5.08091000E-03  3.85404478E-02 -2.66268144E-02 -7.63080292E-04  2.05902235E-03
  1.29358676E-02  5.71949614E-04  1.71801476E-03 -4.18699128E-03 -4.40195045E-03
  3.33353598E-04  6.91889207E-02 -5.67315147E-01  8.10597911E-01  9.40774896E-01
 -7.24072447E-02  2.46578289E-02  3.20325402E-02  6.95147671E-03 -8.74845778E-03
 -1.13961511E-02 -2.55622724E-03 -3.68538037E-02 -4.76697593E-02 -9.79153207E-03
 -4.67128020E-02 -6.06186180E-02 -1.31772493E-02 -2.04377965E-01 -2.73373413E-01
 -7.80177701E-02 -2.54903491E-03  3.90379926E-04  1.89276628E-03 -1.74469383E-03
  7.80412115E-03 -8.55578829E-03  4.17234638E-03  1.11487051E-02 -7.74110912E-03
  2.94367297E-02  1.26244617E-03  3.78981920E-03 -9.23580515E-03 -9.60048321E-03
 -8.30600418E-03  2.15962523E-01 -9.18362989E-01  1.10397002E-01 -3.87323903E-01
 -1.40620965E+00 -1.42409667E-02 -3.39570394E-02 -4.63380836E-02  5.66214682E-03
  1.28224314E-02  1.65818322E-02  1.54597072E-02  4.31422986E-02  6.73457279E-02
  5.39173695E-02  9.89380075E-02  9.50341369E-02  1.50768464E-01  3.50959801E-01
  4.67160071E-01  1.51541086E-02 -4.97320752E-03 -2.16247256E-03  3.97387418E-03
 -1.63338647E-02  4.01190165E-02 -2.72883339E-03  1.29674709E-02  2.88493589E-03
 -2.82039487E-02 -5.94485525E-03 -9.93852606E-03  9.38988723E-03  2.59485843E-02
  3.99885508E-02  3.33899503E-02  1.44773029E-02  3.95104477E-02  6.02776700E-02
  6.63327543E-02  7.64896928E-03  2.92712718E-02  5.46997845E-02  1.82955735E-01
  6.31868045E-02  1.36227448E-01  1.65873457E-01 -9.11208160E-05 -8.24364756E-05
 -8.25336468E-05 -5.59008284E-06  1.94474330E-04 -1.15154131E-03 -1.40978098E-03
 -1.22448462E-03 -9.73487674E-05  3.12781051E-03  1.75196087E-03  5.15161835E-03
 -1.16579223E-02 -1.70555618E-02  1.29038644E-02  1.94705172E-01  1.52115657E+00
 -1.91689463E-01 -1.78363790E-02  5.70397658E-01  1.27097125E-02  3.01480096E-02
  4.11715835E-02 -4.85829666E-03 -1.12807242E-02 -1.50706992E-02 -1.52678036E-02
 -3.90894957E-02 -5.73287262E-02 -4.18338070E-02 -8.59649267E-02 -9.91786225E-02
 -1.76559837E-01 -3.32442961E-01 -3.35807124E-01  1.41288863E-02 -1.07484481E-02
 -7.56532731E-03  4.87602212E-03 -1.05540570E-02  3.61672180E-02 -2.19553065E-02
 -6.20689550E-03  6.45881151E-03 -1.10440309E-02 -1.52786093E-05 -2.59759267E-05
 -2.66403693E-03  2.04577123E-03 -7.70300967E-04  9.18360996E-05 -3.72524786E-03
  2.89577403E-03 -1.09599752E-03  7.11212768E-04  2.29389749E-02 -1.98761950E-02
  6.99438045E-03  1.81214191E-02 -5.26540101E-01  4.56134448E-01 -1.73756613E-01
  1.61514075E-03  2.80343535E-03 -2.45854568E-03 -4.99149624E-04  8.40041742E-04
 -4.32227438E-03 -5.65160648E-03  8.56728073E-03  1.24118877E-02 -3.98324791E-04
 -2.47930514E-05 -4.03110955E-05 -2.14403042E-02  1.82520228E-02 -6.75529695E-03
  1.25145469E-04 -2.50737564E-02  2.13615869E-02 -7.90126890E-03  4.69004332E-04
 -1.12108585E-01  9.55862793E-02 -3.53815951E-02 -2.09413152E-02  1.13882865E+00
 -9.52653732E-01  3.49958136E-01  2.32368232E-04  4.25012981E-04 -4.00053079E-04
 -1.63660597E-04  1.03172943E-04 -5.02020283E-03 -7.17776139E-03  9.02171539E-03
  9.73679185E-03 -1.24595893E-03 -2.25495569E-06 -6.72787032E-06  1.60216491E-05
  1.88840612E-05 -8.18760545E-06 -2.64541415E-04  3.05618144E-03 -1.02209700E+00
  8.57579982E-01 -3.15875181E-01 -4.14955072E-02  3.48484470E-02 -1.28436904E-02
  1.44417614E-02 -1.21269562E-02  4.47040769E-03  6.40860830E-02 -5.38308811E-02
  1.98328733E-02  6.82234361E-02 -5.72434284E-02  2.11237123E-02  4.04813247E-01
 -3.40262264E-01  1.25328268E-01 -4.35467265E-03 -7.48998791E-03  6.70490134E-03
  1.70632521E-03 -2.28156239E-03 -1.67983223E-02 -2.92125621E-02  2.54718048E-02
  4.48337662E-03 -9.15835656E-03 -3.17142101E-06 -9.49825809E-06  2.29540250E-05
  2.49818850E-05  1.25210847E-05 -5.04392657E-04  2.62291379E-03  4.46643131E-01
 -3.75958888E-01  1.42278645E-01  1.14080450E-02 -9.51561676E-03  3.63628036E-03
 -3.95012356E-03  3.29117695E-03 -1.25979839E-03 -1.77958024E-02  1.48774743E-02
 -5.66608217E-03 -1.78615067E-02  1.47406301E-02 -5.72112771E-03 -1.20124394E-01
  1.00279064E-01 -3.82123746E-02 -4.98634037E-03 -8.89365449E-03  7.13175653E-03
 -7.06054135E-04 -2.98556624E-03 -1.68076275E-02 -3.00559298E-02  2.40180544E-02
 -2.43506073E-03 -1.01421508E-02  1.38585041E-05  2.31706888E-05 -2.29695691E-02
  1.92681463E-02 -7.18645659E-03 -7.80689512E-05 -3.72664359E-02  3.12700476E-02
 -1.16496931E-02 -1.51594057E-04 -1.94810540E-02  1.63205208E-02 -6.14061008E-03
 -4.58375373E-04 -6.36842319E-02  5.31981539E-02 -2.00356373E-02 -1.91557917E-04
 -3.42690512E-04  2.78437642E-04 -1.50040607E-05 -1.15289376E-04 -1.96449226E-03
 -3.60600895E-03  2.74922380E-03 -7.46641090E-04 -1.28823202E-03 -4.56170974E-06
 -1.34090724E-05  3.03066943E-05  4.45718852E-05 -3.41975187E-05 -5.07924647E-04
 -3.17938445E-03 -1.74193464E-01  1.46786687E-01 -5.53671449E-02  5.33414640E-03
 -4.60058387E-03  1.56334302E-03 -1.87382820E-03  1.61876023E-03 -5.47916803E-04
 -8.05045018E-03  6.91841372E-03 -2.36890606E-03 -1.02124169E-02  8.91939503E-03
 -2.95179814E-03 -3.29735320E-02  2.90437136E-02 -9.55556671E-03 -3.93909324E-03
 -6.38606092E-03  6.37827480E-03  3.43280825E-03 -1.67051552E-03 -1.43060271E-02
 -2.38615981E-02  2.24953388E-02  8.83896049E-03 -6.78869329E-03  6.18992424E-03
  1.02094580E-02 -2.11365480E-02 -4.84650255E-02 -6.37235286E-02 -3.33243565E-02
 -3.23392944E-02 -7.43403911E-02 -9.79879120E-02 -1.26180062E-01 -6.75185006E-02
 -1.87931818E-01 -2.93796828E-01 -1.41265910E+01 -2.13822998E+00  1.51703765E+00
  1.10447508E+01 -4.21269795E-04 -1.70020014E-03 -2.82714775E-03  9.87263653E-04
 -1.19982038E-03 -7.10885930E-03 -6.21433305E-03 -1.19436758E-02  2.97061509E-03
  1.07240985E-03 -4.11917791E-03 -7.24848054E-03 -4.17170868E-03 -2.24712835E-03
  7.29348048E-03  3.46160694E-02 -3.82444630E-03 -2.64554237E-03  5.06630519E-03
 -2.75973236E-02 -1.01773338E-02 -7.88235917E-04  3.04809195E-02  1.65387288E+01
 -4.79455561E+00 -4.90702647E+00  2.13399056E+00 -2.36634516E-03  3.25790719E-03
  3.72803669E-03 -1.78796625E-03  3.49007090E-03  9.49141628E-03  2.39669086E-03
  8.29303572E-03 -1.42623961E-03 -2.71104737E-03 -2.16298257E-06  1.02472999E-04
 -1.15976533E-03  3.80961663E-03 -2.59335237E-02  9.64230000E-02 -8.31069788E+00
 -3.57844113E-01  2.25049837E-01  1.76949842E+00 -1.65224055E-02 -9.65933005E-03
  2.70724747E-02  6.07610225E-03  3.29708944E-03 -1.06501703E-02  2.30814098E-02
  1.58492108E-02 -3.14086968E-02  3.91206877E-02  1.26134289E-02 -9.20144161E-02
  1.27943450E-01  6.58588894E-02 -2.34105331E-01 -2.80402889E-02  1.19979370E-02
 -9.29203293E-03  1.88318749E-03 -1.18043378E-02 -5.89185309E-02  2.61124673E-02
 -2.42986546E-02  7.22642227E-03 -3.95082286E-02 -1.35756888E-03 -3.98728306E-03
  8.98367171E-03  1.34129634E-02 -1.19625370E-02 -1.37662787E-01  4.35453938E+00
  1.52911827E+00  1.15057280E+00 -1.81100336E+00  2.66834893E-02  2.44369790E-02
 -1.97126770E-02 -9.78150144E-03 -9.21330656E-03  6.53011610E-03 -3.69984013E-02
 -3.15413205E-02  3.37176209E-02 -6.38077762E-02 -6.89437117E-02  1.84900815E-02
 -2.62585229E-01 -2.26526013E-01  2.32138005E-01  2.58117355E-03  1.04209729E-02
  1.76902821E-02 -6.27603334E-03  8.25201156E-03  1.46788213E-02  2.81648267E-02
  4.76592504E-02 -1.45993161E-02  8.76424745E-03 -5.34248052E-03 -9.15340090E-03
  1.29533880E-02  1.40991337E-02 -3.49903391E-03  3.65886871E-02  2.11951017E-02
  2.38734918E-02 -3.53765922E-03  2.16782741E-02  8.58457875E-03  4.76974223E-03
 -1.47740236E-02  2.35077105E-01  7.94127473E-02  1.10735868E-01  4.48161962E-02
  2.80415832E-04 -1.27687571E-04  5.91818357E-05 -7.98673848E-07  5.57689407E-05
  1.55835780E-03 -9.22233221E-05  1.36994542E-03 -4.17517454E-04  1.04205258E-03
  1.37752655E-03  4.02531764E-03 -8.89033550E-03 -1.43732425E-02  1.63487070E-02
  1.57312409E-01  1.32340098E+00  8.76299247E-01  3.86923472E-01 -1.78038129E+00
  1.12926152E-02  7.39267570E-03 -1.64031264E-02 -4.02813892E-03 -2.80783875E-03
  5.38521463E-03 -1.62433896E-02 -8.85541517E-03  2.84441541E-02 -2.71592440E-02
 -2.80562183E-02  1.14223436E-02 -1.15500879E-01 -4.66866346E-02  2.46645157E-01
 -1.24629804E-02 -7.91881177E-03 -1.17475711E-02  6.45213266E-04  1.58816269E-02
 -4.11980969E-02 -2.42377653E-02 -3.80675436E-02  2.37294391E-03  4.85268230E-02
  1.98974283E-02  3.21921776E-02 -5.54996756E-03 -1.57208139E-02 -2.48889483E-02
 -7.01332448E-02 -5.07427480E-03 -1.71696849E-02 -3.03770077E-02 -4.92962732E-01
  4.53571990E-03 -8.86905651E-02 -2.56483570E-01  2.21554182E+01  1.27983110E+00
  5.70991158E-01 -2.57544484E+00 -1.71575737E-03 -3.36150146E-04  5.15297380E-04
 -9.40228591E-04  5.23633831E-03 -3.08895536E-02  3.29862131E-03 -1.43881254E-02
  9.68893298E-04  6.73856677E-03 -2.12990545E-02 -3.49887754E-02  2.14374319E-02
  3.76979849E-02  3.35724517E-02  9.36407594E-02  2.80570016E-02  5.03561840E-02
  4.67035375E-02  4.60771059E-01  1.93526465E-01  3.14127364E-01  2.30862479E-01
 -1.76471717E+01  2.96173476E+00  2.54795487E+00 -2.64334650E+00  2.16484897E-03
  1.39230885E-03  1.06282588E-03  4.94166688E-04 -5.26464038E-03 -9.62160005E-03
  2.04020998E-02  2.26210809E-02 -9.24153698E-03  1.11971316E-02  7.49203444E-04
  2.22291030E-03 -5.21249136E-03 -6.51658066E-03 -4.56655908E-03  1.18983084E-01
 -1.36307506E+00  8.16535647E-01  1.25950310E+00  7.88855670E-01  2.13453569E-02
  3.51532647E-02  2.67348988E-02 -7.27468949E-03 -1.24841302E-02 -1.04844579E-02
 -3.47551951E-02 -5.24898177E-02 -3.05878846E-02 -2.75523651E-02 -6.92186544E-02
 -9.95059889E-02 -2.28669235E-01 -4.01887044E-01 -3.55063610E-01 -2.12858595E-02
  1.26548813E-02 -2.39722588E-03 -1.30601494E-04 -8.07040676E-03 -2.67939116E-02
  3.39569354E-02  1.27478909E-02 -3.22677752E-03 -2.53957897E-02  2.53722764E-03
  7.45618490E-03 -1.68243489E-02 -2.50952872E-02  2.64040385E-02  2.56425513E-01
 -4.38642123E+00 -1.20939334E+00 -1.53212666E+00 -2.61535869E-01 -1.79328605E-02
 -2.10641698E-02  6.40279952E-04  6.73830972E-03  7.96560563E-03 -9.95977354E-05
  2.34997206E-02  2.71412592E-02 -2.12111193E-03  5.08598667E-02  6.19187633E-02
  4.23663193E-03  9.96431025E-02  1.07792694E-01 -2.92779208E-02 -9.16810193E-03
  6.58325245E-03  3.85819841E-03 -2.66071542E-03  5.35470734E-03 -2.85706536E-02
  2.09498117E-02  1.35997417E-02 -9.10595910E-03  1.93250058E-02 -3.12127057E-03
 -5.47415434E-03 -1.83605918E-02 -2.37436015E-02 -5.25014143E-03  2.47561283E-02
 -3.08166172E-02 -3.88871681E-02 -6.18130820E-03 -7.86589315E-03 -3.83891616E-03
 -9.20748546E-03 -1.26452420E-02  5.08732269E-01 -2.00927214E-01 -1.78285362E-01
  1.64221032E-01  6.59047049E-05 -1.63173026E-04 -1.34438492E-04  4.16157036E-05
  4.86208724E-05  8.55535196E-04 -4.93525661E-05  1.78991939E-04  1.20090000E-04
 -8.37836841E-04 -2.67254020E-03 -7.86232243E-03  1.78315262E-02  2.59897871E-02
 -1.71062611E-02 -3.16465016E-01  6.79522134E-01 -6.52968129E-01 -1.10899768E+00
 -9.03343540E-01 -2.81462777E-02 -4.26979575E-02 -2.52093197E-02  1.08815852E-02
  1.61840976E-02  8.86951719E-03  3.37538089E-02  5.40259130E-02  3.78789326E-02
  9.67970021E-02  1.33282044E-01  4.99535901E-02  3.34747408E-01  5.18651640E-01
  3.29265387E-01 -8.76487971E-03 -5.46698290E-03 -3.05050933E-03 -2.70551931E-03
  2.39278065E-02 -3.00524444E-03 -2.59027436E-02 -2.21743470E-02  3.24428132E-03
  2.82738664E-02  3.21886825E-06  4.94077689E-06 -1.60905939E-02  1.35657131E-02
 -4.97752110E-03 -6.94040400E-06 -2.02352498E-02  1.70562554E-02 -6.25080160E-03
 -9.47334591E-05 -3.65798564E-02  3.08524623E-02 -1.13857766E-02  2.06550219E-02
 -1.84485656E-01  1.57861906E-01 -5.81367004E-02  2.67636984E-04 -3.78713966E-04
 -1.41818190E-03 -5.55452363E-03 -7.95422321E-04 -4.05706928E-03 -7.56643579E-03
  5.46607759E-03 -2.44074346E-03 -2.78627936E-03 -8.34674841E-06 -1.36877087E-05
 -4.72584972E-02  3.98601143E-02 -1.45922976E-02  3.34471160E-05 -6.28892959E-02
  5.30462386E-02 -1.94274910E-02  1.68601582E-04 -1.82594189E-01  1.54168802E-01
 -5.63004990E-02 -1.92279651E-02  1.85802911E+00 -1.56352851E+00  5.69456962E-01
  3.85979389E-04  1.26106846E-03  1.38689244E-04  3.78577832E-03  8.74585493E-04
 -1.90960833E-03 -2.52481636E-03  3.85832523E-03  5.63754564E-03 -1.36030388E-04
 -1.21251179E-06 -3.56878807E-06  8.09144589E-06  1.18962857E-05 -1.49498496E-05
 -1.12964672E-04 -2.38647889E-03  3.50602092E-01 -2.93131110E-01  1.08304158E-01
  1.18189728E-02 -9.91999200E-03  3.64089476E-03 -4.11250530E-03  3.45171028E-03
 -1.26705080E-03 -1.84320883E-02  1.54706518E-02 -5.67644608E-03 -1.98169600E-02
  1.66331820E-02 -6.11601010E-03 -1.21079186E-01  1.01612439E-01 -3.72937961E-02
  1.79791428E-03  3.81055495E-03 -1.95090988E-03  3.77050095E-03  1.70274310E-03
  5.25335302E-03  1.11046855E-02 -5.70854423E-03  1.08980043E-02  4.95267146E-03
 -2.95572795E-07 -8.42831558E-07  1.67708056E-06  3.86773869E-06 -1.07730743E-05
  1.25337424E-05 -2.90249320E-03 -1.00466349E+00  8.44843521E-01 -3.09895519E-01
 -1.92174896E-02  1.61678263E-02 -5.91597933E-03  6.40175859E-03 -5.38462927E-03
  1.97039504E-03  3.23091223E-02 -2.71923811E-02  9.94890814E-03  1.93870311E-02
 -1.62575641E-02  5.95422574E-03  2.73944259E-01 -2.30729144E-01  8.43972095E-02
 -6.17050791E-04  1.67459652E-03  4.16971398E-03  1.78374211E-02  2.70840352E-03
 -2.19563447E-03  5.97357509E-03  1.48466762E-02  6.35511521E-02  9.65566879E-03
 -3.60398006E-06 -6.15836876E-06 -1.18085532E-02  9.92288586E-03 -3.63120437E-03
  2.38180917E-05 -2.16216284E-02  1.81746256E-02 -6.65039097E-03  2.65069439E-05
  1.16003895E-03 -9.93834095E-04  3.66475315E-04  3.94275892E-04 -7.22999637E-02
  6.07540858E-02 -2.20017179E-02 -3.14559182E-04 -5.67102529E-04  4.52212647E-04
 -5.02982458E-05 -1.92882265E-04 -2.57499992E-03 -4.66686542E-03  3.66932790E-03
 -5.80940272E-04 -1.60721387E-03 -9.16656446E-08 -3.01415756E-07  9.65695174E-07
 -3.25136458E-07  1.15214470E-05 -5.43644816E-05  3.57447532E-03 -1.50163400E+00
  1.26343029E+00 -4.64601089E-01 -2.05487962E-02  1.72832086E-02 -6.35985210E-03
  6.94431351E-03 -5.83889885E-03  2.14895062E-03  3.38854316E-02 -2.85167302E-02
  1.04898758E-02  2.38348360E-02 -1.99649862E-02  7.36596026E-03  2.99642378E-01
 -2.52157378E-01  9.28007824E-02 -1.09788763E-03 -4.04011135E-03 -8.49819146E-04
 -1.34365849E-02 -2.93449215E-03 -5.00622996E-03 -1.71553730E-02 -2.34509214E-03
 -5.29628926E-02 -1.20196451E-02  1.10956020E-02  1.84748902E-02 -2.71339025E-03
 -6.26692166E-03 -8.35046201E-03 -4.73846400E-02  7.50904795E-03  3.18886525E-03
 -1.56583506E-02 -2.09788284E-01 -7.92834743E-02 -1.06176483E-01 -3.29895666E-02
 -5.16733828E+00  2.91017070E-01 -8.86870779E-01 -3.35814274E+00  1.74892642E-03
  1.03763750E-03  4.61340640E-03 -1.94388723E-03  5.42008894E-03 -8.38207399E-03
  1.59509393E-02  1.89485346E-02 -8.24531983E-03  1.33379531E-02 -5.06647921E-03
 -8.42992108E-03  1.38926035E-03 -2.29463622E-03 -1.08823843E-02  2.67111952E-02
  4.64301760E-04 -7.72673519E-04 -3.79404585E-03  1.08718047E-01 -4.24490654E-02
 -6.21632930E-02 -3.26663340E-02  6.81039796E+00  1.47351275E+00  2.98923280E+00
  3.38501307E+00 -3.61739004E-03  1.56020956E-03 -3.39932492E-03  1.60125590E-03
 -7.06438212E-03 -1.39032346E-02  8.06277566E-03 -6.03556503E-03  2.59957401E-03
 -1.58478481E-02  2.65654965E-03  7.78704235E-03 -1.74046397E-02 -2.69878679E-02
  3.04557546E-02  2.64656054E-01  3.35067091E+00 -1.08292254E+00 -1.25936092E+00
  7.09355940E-02 -3.92044996E-03  5.24900290E-03  2.69765056E-02  1.33886906E-03
 -2.05217802E-03 -9.91903733E-03  6.20340235E-03 -6.18717316E-03 -3.69214759E-02
  6.71779776E-03 -1.75850650E-02 -6.95926236E-02  6.90696905E-02 -3.97315979E-02
 -3.31722703E-01  2.43073475E-03 -1.75812463E-02 -1.72650765E-02  4.86391306E-03
  5.96600684E-03  2.05356893E-02 -5.02832246E-02 -4.06195305E-02  1.25189554E-02
  1.58074226E-02  4.16825467E-03  1.21945039E-02 -2.70416375E-02 -4.32817069E-02
  5.99410471E-02  3.48018490E-01 -4.19195709E-01 -2.22909819E-01 -6.30822623E-01
 -1.00026613E+00 -7.16493119E-03 -2.18301142E-02 -3.63666434E-02  2.74626519E-03
  7.88283429E-03  1.26170360E-02  8.91626765E-03  3.15094671E-02  5.71080280E-02
  2.17192923E-02  4.64630260E-02  5.64546824E-02  1.74225288E-02  1.69083838E-01
  4.05011617E-01 -5.89220469E-04  8.62763780E-04  6.87434245E-03 -4.07037846E-03
  1.55924151E-02  6.41389188E-03  8.07933986E-04  2.29945172E-02 -1.19125119E-02
  4.41460707E-02  1.85481421E-03  3.10592933E-03  2.06342957E-04 -8.65421015E-03
 -2.42795175E-02 -1.02313164E-02 -1.44584538E-03 -1.66939615E-02 -4.08676452E-02
 -3.01346397E-02  1.27918572E-02  9.95705792E-03 -1.42408726E-02 -6.63011934E-02
 -7.56460173E-02 -1.67991271E-01 -2.13216182E-01 -2.82147147E-04  2.25845521E-04
 -9.94404033E-06  6.52483559E-06 -2.30314445E-04 -1.78380077E-04  1.98392047E-03
  1.00437683E-03  6.20359323E-05 -3.21515439E-03 -3.77675777E-03 -1.10246421E-02
  2.42413611E-02  4.00634181E-02 -5.63018538E-02 -3.39156672E-01 -4.66087255E+00
  9.89397241E-02  3.13358103E-01  5.28657076E-01 -1.71250770E-02 -1.95178526E-02
  2.12163667E-03  6.05322174E-03  6.98507104E-03 -5.15282495E-04  2.54635636E-02
  2.82135474E-02 -5.35347509E-03  3.58302128E-02  4.51166684E-02  7.20446859E-03
  1.92577650E-01  1.89975858E-01 -1.04233147E-01 -9.21099939E-03  8.87135162E-03
 -3.81639589E-03  2.89185867E-03 -2.07555576E-02 -3.10020105E-02  3.18952189E-02
 -7.75990208E-03  7.35566960E-03 -6.33153137E-02 -1.11676252E-02 -1.84936520E-02
 -1.83021505E-02 -2.29058708E-02 -3.26707041E-03  5.32019332E-02 -3.16641718E-02
 -3.51855547E-02  6.49368830E-03  2.80711990E-02 -1.91813661E-01 -1.90105226E-01
  1.01869637E-01  1.04831395E+00  3.23127855E+00  6.64386533E+00  7.65654417E+00
 -1.03793547E-02  2.77802226E-03 -1.79999218E-03 -9.21220643E-04  4.77951900E-03
 -2.42643685E-02  9.37504999E-03 -2.28337894E-03 -2.29440039E-03  7.28661061E-03
  1.33658890E-03  1.81809067E-03  1.53611344E-02  3.05168533E-02  3.35232389E-02
 -1.22251511E-02  2.96287875E-02  4.89517759E-02  3.76391677E-02  2.13208477E-01
 -1.00601383E-01 -4.23446302E-02  2.10185970E-01 -7.17782246E+00 -1.22350043E+00
 -3.26485182E+00 -4.94249849E+00  7.87610204E-03 -1.92370730E-03  2.04900088E-03
  3.48943029E-04 -2.48399787E-03  4.82449199E-02 -2.14995660E-02  5.29790975E-03
  3.01307411E-03 -3.86166567E-03 -5.44849293E-03 -1.59447769E-02  3.54002516E-02
  5.64699566E-02 -7.57257818E-02 -4.84156779E-01 -5.41092066E+00 -6.57742242E-01
 -9.28897972E-01 -4.05382782E-01  5.14447027E-03 -7.91484406E-03 -3.82209526E-02
 -1.89182808E-03  2.79999919E-03  1.37545204E-02 -7.21464422E-03  1.17578951E-02
  5.53907635E-02 -1.21642820E-02  1.62782056E-02  8.37551937E-02 -2.75402083E-02
  1.21175799E-01  4.19331616E-01 -2.18725101E-02  1.05181724E-03 -1.32732499E-02
  2.11392817E-03  9.09181820E-04 -6.92740220E-02  2.64816787E-03 -4.30410577E-02
  7.06096887E-03  2.43182977E-03  5.68338754E-04  1.61870804E-03 -3.21253272E-03
 -7.42503141E-03  1.77637326E-02  3.99460358E-02  7.12423181E+00  7.79128814E-01
  9.15938885E-01 -2.54282793E-02 -4.27662904E-03  4.07101713E-03  2.49260689E-02
  1.26168744E-03 -1.85939773E-03 -9.14730876E-03  8.55323094E-03 -2.76244210E-03
 -3.51958895E-02 -1.98866858E-04 -2.16177659E-02 -5.82503645E-02  4.58250255E-02
 -4.33340607E-02 -2.66268344E-01  1.06919657E-02  8.73747000E-03  2.56286074E-02
 -9.39774209E-03  1.94066237E-02  3.23352003E-02  1.55658477E-02  6.05080347E-02
 -2.19665877E-02  4.90804084E-02 -5.39482694E-03 -9.09530489E-03 -2.03352805E-02
 -9.08883281E-03  4.10061700E-02  3.25327162E-02 -3.33261694E-02 -1.44123698E-02
  6.85159665E-02  4.90114996E-02 -1.21023545E-02 -1.19086719E-02  6.71260455E-03
 -1.12525037E-02 -1.30433616E-01 -4.38778046E-02  3.02155752E-01  4.07398244E-04
  1.73684208E-04  4.85535341E-04 -1.15079103E-04 -5.65491438E-06 -1.07827074E-03
  6.27473337E-04  7.23743265E-04 -5.33181475E-04  1.75912528E-03 -3.77573261E-03
 -1.10344630E-02  2.43634248E-02  3.97511907E-02 -5.87958130E-02 -2.68659764E-01
  4.85777932E+00 -1.10336405E+00 -1.10488673E+00  5.59435578E-01 -2.50068759E-02
 -1.92115716E-02  2.85031272E-02  9.03191178E-03  7.03314065E-03 -1.00365462E-02
  3.65312503E-02  2.72270621E-02 -4.39307032E-02  5.12477608E-02  4.18705301E-02
 -5.15553462E-02  2.12578021E-01  1.28774918E-01 -3.36657257E-01  2.72753932E-03
 -7.52145870E-03 -4.94734400E-03  1.07853434E-03  5.78019531E-03  1.08979227E-02
 -1.34415653E-02 -4.19082822E-03  8.42566332E-04  1.16969786E-02 -9.97047414E-07
 -1.71654559E-06 -7.21865351E-02  6.08358800E-02 -2.23170500E-02  7.83619767E-07
 -9.07902829E-02  7.65237117E-02 -2.80702395E-02  1.75503440E-04 -3.72526310E-01
  3.14103220E-01 -1.15295079E-01 -1.04554715E-02  4.74914237E+00 -4.00275061E+00
  1.46990956E+00  5.17316739E-04  1.00723394E-03 -6.48008029E-04  5.87234198E-04
  3.99847988E-04  9.17279038E-03  1.47460725E-02 -1.52460694E-02 -9.87930332E-03
  3.67779916E-03  3.62026434E-06  5.87878850E-06  1.16352278E-02 -9.81532083E-03
  3.58324436E-03 -9.07981599E-06  1.33571855E-02 -1.12692769E-02  4.11312473E-03
 -3.05176632E-04  1.41172596E-01 -1.18887387E-01  4.34536328E-02  9.20853474E-03
 -2.81400124E+00  2.36873200E+00 -8.67877617E-01 -1.89191758E-03 -2.55364210E-03
  3.72413404E-03  5.19466317E-03 -2.14234585E-04  6.87230523E-03  1.10560905E-02
 -1.14917830E-02 -7.61381277E-03  2.70886030E-03 -4.22006194E-08 -1.47717987E-07
  5.33069820E-07 -3.87214921E-07  5.44898834E-06 -1.30267491E-05  7.81862964E-04
 -1.83313544E+00  1.54475123E+00 -5.67130050E-01 -8.42103753E-03  7.09091337E-03
 -2.60459268E-03  2.64122511E-03 -2.22332317E-03  8.16929966E-04  1.57709793E-02
 -1.32857529E-02  4.87753385E-03 -2.45645411E-04  2.37365301E-04 -7.48716370E-05
  2.10183600E-01 -1.77203128E-01  6.50726357E-02 -5.06373286E-03 -9.41023684E-03
  6.97658812E-03 -2.53829787E-03 -3.40473320E-03 -2.13034886E-02 -3.89422375E-02
  3.00464601E-02 -6.74605248E-03 -1.36400984E-02 -1.59317098E-06 -4.65848049E-06
  1.03071527E-05  1.66851854E-05 -2.18016581E-05 -1.63785186E-04  1.85136867E-03
 -1.27782084E+00  1.07729743E+00 -3.94967877E-01  1.05361598E-03 -8.92128555E-04
  3.23179253E-04 -4.52086951E-04  3.82478400E-04 -1.38798300E-04 -8.03500551E-04
  6.84086019E-04 -2.44976333E-04 -7.64336496E-03  6.44232042E-03 -2.35668265E-03
  6.35470793E-02 -5.34503538E-02  1.97087203E-02  2.58904509E-03  4.27926928E-03
 -4.16963185E-03 -1.99688125E-03  1.16499641E-03  1.12420275E-02  2.02475698E-02
 -1.61296042E-02  1.99697328E-03  6.90795192E-03  3.58925359E-06  6.13015984E-06
  1.33622994E-02 -1.12415388E-02  4.12204216E-03 -2.39244502E-05  2.11810556E-02
 -1.78195792E-02  6.53208268E-03 -2.04873973E-05  1.51317516E-02 -1.27351102E-02
  4.68129280E-03 -2.66415795E-04  1.59746830E-02 -1.34091956E-02  4.76382583E-03
  2.05974767E-04  3.40216164E-04 -3.33387886E-04 -1.69354802E-04  9.16245017E-05
  2.67335478E-03  4.56705034E-03 -4.13955032E-03 -1.19194404E-03  1.36076287E-03
  6.70753457E-07  1.94595875E-06 -4.18061403E-06 -7.50499276E-06  1.09606239E-05
  4.38180292E-05 -1.12246872E-03  6.52447894E-01 -5.48960413E-01  2.01339503E-01
  5.44624569E-03 -4.57961438E-03  1.68042779E-03 -2.06752503E-03  1.73843575E-03
 -6.37946157E-04 -7.25002569E-03  6.09770666E-03 -2.23684254E-03 -1.52485635E-02
  1.28152987E-02 -4.70532454E-03 -5.60501748E-02  4.71297618E-02 -1.72915586E-02
  4.18870744E-03  6.36418527E-03 -7.42255821E-03 -6.97106681E-03  1.24651137E-03
  1.51413827E-02  2.38040571E-02 -2.59068846E-02 -2.01162006E-02  5.39939007E-03
  4.78946684E-04 -4.60416446E-04  2.73979845E-02  2.30003572E-02 -2.59909541E-02
  3.02186029E-02  4.84169449E-02  4.16084213E-02 -4.32789616E-02  1.64370507E-01
  2.50370142E-01  1.83844733E-01 -3.08826120E-01  6.26879395E+01  6.95594296E+00
  5.56121169E+00 -7.32902036E+00 -1.66524766E-03  6.04276282E-03  5.60765321E-03
 -1.71470952E-03 -1.44742105E-03  8.23250857E-03  7.76982837E-03  4.38142135E-03
  2.57709765E-03 -2.66366409E-02  1.28319741E-02  2.09879524E-02  3.38291962E-03
  6.87737013E-03  7.83821308E-03 -4.84019293E-02 -8.06043911E-03 -1.06247187E-02
 -2.81926275E-03 -6.29567131E-01  2.67881200E-01  3.38002836E-01  5.49192034E-02
 -4.65091597E+01  1.02006005E+01  8.70023247E+00 -9.27847661E+00  1.99167284E-03
 -3.61179899E-03 -2.86098143E-04 -5.64278081E-04  6.83554463E-03  1.81747914E-02
  8.28368387E-03  2.47370158E-02 -6.81062214E-03  5.75936238E-03  3.70825520E-03
  1.08470420E-02 -2.40336869E-02 -3.87966848E-02  5.26639079E-02  3.45398484E-01
 -6.39510680E+00 -1.42172249E+00 -9.02525275E-01  2.13527454E+00 -4.22942790E-03
 -3.26319980E-03  4.75714798E-03  1.20158528E-03  5.48234809E-04 -2.38080280E-03
  8.78959129E-03  1.00426380E-02 -1.02415376E-03 -4.23502819E-03 -2.06783021E-02
 -4.25547399E-02  1.21952200E-01  1.66840581E-01  6.03714537E-02  5.93281140E-03
 -1.23279219E-02 -2.07629177E-02  9.96976921E-03 -2.47296231E-02  2.06316374E-02
 -3.70093858E-02 -6.27681089E-02  3.10240765E-02 -8.01483380E-02  3.88611766E-03
  1.13509714E-02 -2.50199201E-02 -4.11044018E-02  5.45618815E-02  3.65966616E-01
 -7.32115624E+00 -1.42371490E+00 -2.04624412E+00 -9.72619271E-01  4.41618316E-04
 -5.73502635E-03 -1.70498534E-02  2.41333085E-04  2.64984587E-03  6.43796119E-03
 -4.64964090E-03  2.65649305E-03  2.22684374E-02  2.08902749E-02  4.40207771E-02
  5.23726205E-02 -9.79362299E-02 -7.14205114E-02  1.22078773E-01 -2.76243466E-02
  9.89427600E-03 -7.88214835E-03  3.58632630E-04 -2.57031286E-03 -8.76161764E-02
  4.19092422E-02 -1.34360705E-02 -2.10236088E-03 -1.11338136E-02 -7.77218769E-03
 -1.31534171E-02 -1.57889723E-02 -1.01327653E-02  2.34421541E-02  4.85539675E-02
 -2.54602362E-02 -1.66383035E-02  3.69882795E-02  6.04750977E-02 -1.22331892E-02
 -4.37193650E-03  2.76290576E-02  6.14547478E-01 -1.61715947E-01 -5.92267376E-02
  3.61422176E-01  6.81614558E-05 -1.86887520E-04 -1.97224658E-04  7.24277228E-05
 -4.22015559E-05  1.27526126E-03 -2.59986353E-03 -1.94908369E-03  6.16882597E-04
  8.35181057E-04  4.85706819E-03  1.42694230E-02 -3.21436301E-02 -4.87940557E-02
  6.03830116E-02  4.53315150E-01 -3.79341578E+00 -1.06818241E-01  8.95462207E-01
  2.78494935E+00  7.95713108E-03  1.48586314E-02  1.47568057E-02 -2.92042151E-03
 -5.29280051E-03 -4.97843375E-03 -1.12282918E-02 -2.22612543E-02 -2.43500118E-02
 -1.71295913E-02 -2.62148484E-02 -1.60408737E-02  1.93613942E-02 -6.10400650E-02
 -2.28994464E-01  2.68018198E-03  8.59355393E-03  1.57753959E-02 -5.74787560E-03
  8.83805374E-03  1.44144585E-02  2.67168508E-02  4.86426591E-02 -1.58324262E-02
  1.60855852E-02 -2.91327743E-03 -4.57303133E-03 -9.22112885E-04 -2.88740234E-03
 -4.91440353E-03  1.02378049E-02 -1.35898637E-02 -1.17530611E-02  1.18690241E-02
 -1.13980412E-02 -9.81663298E-02 -1.43934281E-01 -7.48541166E-02  1.51664823E+01
 -4.25900835E+00 -9.47158466E+00 -1.20278238E+01  1.29955479E-03 -6.60013975E-03
 -5.58660314E-03  1.38966882E-03  3.82113081E-03 -8.88147315E-03 -1.48449649E-02
 -1.93502197E-02  3.82547968E-03  1.17900453E-02 -2.35051763E-02 -3.82651676E-02
 -2.00256462E-03 -4.55364699E-03 -5.95911591E-03  1.02046025E-01  1.00865502E-03
 -4.61646599E-03 -1.58903847E-02  7.23187001E-01  1.24092608E-02  9.66192001E-02
  2.22998025E-01 -8.65486626E+00  9.43055917E+00  1.18316638E+01  1.74117615E+00
 -3.74494952E-03 -1.96140917E-03 -3.36614764E-03  2.48716783E-04  3.91505548E-03
 -3.66443472E-02 -6.01248380E-03 -2.17766633E-02  4.04522998E-04  2.62935513E-02
 -8.92664932E-04 -2.64355909E-03  6.12685692E-03  8.33425769E-03 -9.88341431E-03
 -9.60067875E-02  1.08010842E+01  3.47528850E-01 -4.02218670E-01 -2.22090252E+00
 -2.42468202E-02 -2.62804652E-02  6.79079896E-03  8.44238066E-03  9.18069205E-03
 -2.28204789E-03  3.83276919E-02  4.14411162E-02 -1.10103847E-02  4.03757541E-02
  4.35079835E-02 -1.19993051E-02  3.62280509E-01  3.25661352E-01 -2.83996883E-01
 -8.13356899E-03  1.05763292E-02  1.37212065E-02 -6.92732855E-03  1.61290904E-02
 -1.09425137E-02  1.88304777E-02  3.76369587E-02 -1.93971956E-02  5.57112853E-02
 -2.69610153E-03 -7.92514290E-03  1.78919291E-02  2.69465121E-02 -3.02061392E-02
 -3.02922352E-01 -1.03663778E+01 -6.88160889E-02 -7.72358564E-01 -1.88049999E+00
  2.54432482E-03  6.14980225E-03  8.51847578E-03 -7.48042888E-04 -2.18024695E-03
 -3.51771698E-03 -4.99067696E-03 -9.08480778E-03 -8.60120860E-03  7.91162659E-04
 -1.39138164E-02 -4.04398691E-02 -1.44031244E-01 -1.72055231E-01 -2.94946735E-03
  1.55260765E-02  1.22416716E-02  1.67135532E-02 -1.21473248E-03 -2.17975179E-02
  5.02987690E-02  3.39287227E-02  4.77725317E-02 -2.12179908E-03 -6.91846137E-02
  2.11745781E-03  3.21374202E-03 -1.79416188E-02 -3.55998741E-02 -3.89560244E-02
 -2.79257213E-03 -2.98378223E-02 -5.73265230E-02 -5.96718519E-02 -8.60408751E-02
 -1.36640031E-02 -2.93747787E-02 -3.58253661E-02  9.58503404E-01 -1.48178644E-01
 -1.58256833E-01  4.79945117E-02  1.13175769E-04 -3.16165076E-04 -1.29315907E-04
 -3.35555252E-06  4.41650242E-04  2.31000679E-03 -2.59200514E-03 -1.93899408E-04
 -1.53674323E-04  3.43325926E-03 -2.20070135E-03 -6.46378431E-03  1.45597713E-02
  2.20931296E-02 -2.15223470E-02 -2.44442671E-01 -8.16666768E+00 -3.45162071E-01
  2.21377141E-01  1.71802047E+00 -3.53161372E-03 -1.04410982E-02 -1.69967401E-02
  1.52240805E-03  4.02589475E-03  6.03369370E-03  2.66126042E-03  1.25706956E-02
  2.56078460E-02  2.13387965E-02  3.80772049E-02  3.46258059E-02  1.22106067E-01
  2.23493140E-01  2.14013927E-01  1.19725268E-02  1.15873847E-02  2.18452254E-02
 -5.65244366E-03 -8.94678329E-04  5.63368360E-02  1.98414003E-02  5.42935173E-02
 -9.53356453E-03 -2.04163070E-02 -4.10763765E-03 -5.75232159E-03  3.32390162E-03
  6.89004350E-03  8.00444736E-03  3.50649507E-03  2.05067755E-02  2.25187189E-02
 -4.97324458E-03  5.95613534E-01 -1.93419300E-01 -1.06072701E-01  3.36162505E-01
 -5.47762024E+01 -1.73210629E+01 -1.24565330E+01  2.20627251E+01  3.14846938E-03
 -8.46446803E-03 -4.25324899E-03  4.29995206E-04  9.65056235E-03  1.22023737E-02
 -1.67808846E-02  3.01683069E-04 -2.74917749E-03  3.08147423E-02 -6.87299062E-03
 -1.13951267E-02 -3.29666264E-02 -2.55037659E-02  3.70956739E-02  4.18823135E-02
 -4.69075196E-02 -3.66144941E-02  5.18765126E-02  5.15218084E-01 -1.46488149E-01
 -1.50768237E-01  6.29060789E-02  8.13535914E+01 -7.36484281E+00 -4.87798214E+00
  1.05150301E+01  1.86636220E-03 -5.32865590E-04  1.07553535E-03 -3.07934704E-04
  1.12110982E-03  8.48978439E-03  1.48835661E-02  2.32607955E-02 -6.34094558E-03
 -1.38086440E-03  4.60482472E-03  1.35853215E-02 -3.10726352E-02 -4.47308034E-02
  4.95726322E-02  5.38225434E-01 -1.39300147E+01  1.59586969E+00  2.73490260E+00
  2.29072794E+00 -1.16706071E-02 -1.51743813E-02 -3.63607889E-03  4.41863050E-03
  5.75705324E-03  1.40988749E-03  1.57058172E-02  2.01760247E-02  4.21841290E-03
  3.49935921E-02  4.72357178E-02  1.56675407E-02  3.67419803E-02  1.38630918E-01
  2.58922919E-01  1.21612762E-02  1.46606577E-02  2.68591270E-02 -7.53570605E-03
  2.02133747E-03  7.60511907E-03  4.60785690E-02  6.41907143E-02 -2.02394217E-02
  7.95540222E-03  4.44813668E-03  1.31372644E-02 -3.01738976E-02 -4.26472325E-02
  4.24256327E-02  5.44190037E-01 -3.29885050E+00  8.07244009E-01 -6.22110087E-02
 -2.77827635E+00 -1.16543350E-02 -6.82421042E-03  1.90912068E-02  4.07903223E-03
  2.32895064E-03 -6.84351048E-03  1.84050616E-02  1.13198207E-02 -2.86761993E-02
  1.90760049E-02  7.11939478E-03 -4.22602999E-02  1.81908888E-01  1.10143334E-01
 -2.88134056E-01  2.02650285E-02  2.99309644E-04  1.76314658E-02 -4.76385522E-03
  8.58792622E-03  6.40573645E-02 -1.45137940E-02  3.61793611E-02 -8.71602822E-03
  2.50734528E-02 -5.62928137E-03 -9.14102864E-03  3.75678542E-03  9.91308231E-03
  1.48794725E-02  2.46035931E-02 -1.47180902E-03  7.54242501E-03  2.53297273E-02
  1.38147278E-01  4.78160945E-02  5.88455139E-02  5.77746569E-03 -7.73153840E-01
 -2.74295641E-01 -3.39170230E-01 -3.72385202E-02  5.29994309E-04 -1.79041521E-04
 -1.42958941E-04  1.77674540E-04 -7.19443192E-04  1.86884720E-03 -3.03576837E-04
 -8.44025268E-04  9.53034317E-04 -4.37634367E-03  5.31352665E-03  1.55846409E-02
 -3.48844597E-02 -5.46741721E-02  7.14584169E-02  5.23335657E-01 -1.15698219E+01
  2.24498502E+00  2.62442190E+00 -1.08439818E-01  3.09952040E-03 -1.03380042E-03
 -1.28440756E-02 -1.28359146E-03  1.41627038E-04  4.53879312E-03 -3.11322605E-03
  3.67199954E-03  2.00741837E-02 -1.49577987E-02 -8.43560418E-03  2.54163109E-02
  1.89713813E-02  7.14968235E-02  1.33395873E-01 -2.51400717E-02  1.10113303E-02
 -5.95190958E-03  3.10449277E-04 -5.35186575E-03 -7.66707025E-02  3.82837255E-02
 -1.43406908E-02  3.25630402E-04 -2.10146253E-02  7.56913718E-04  1.02151285E-03
 -3.07506347E-02 -6.38981303E-02 -7.46344690E-02  3.76092704E-03 -5.38565132E-02
 -1.06120593E-01 -1.14959957E-01 -3.90571669E-01 -2.24628420E-01 -5.13675251E-01
 -6.72993831E-01 -6.24402764E+00 -1.60031159E+00 -8.76322163E+00 -1.86983290E+01
 -9.35776842E-03  2.49185906E-03 -1.27180015E-03 -1.05303863E-03  5.24237234E-03
 -2.01555041E-02  3.27690448E-03  3.09476974E-03 -6.62319257E-03  3.23038900E-02
  2.12497618E-02  3.57855272E-02  5.40032055E-03  5.72274348E-02  1.38363368E-01
 -1.32576698E-01  1.13713112E-03  7.68590739E-02  2.05562962E-01 -1.58679895E-01
  9.44336744E-02  4.28224673E-01  8.61066687E-01  4.88399452E+00  6.34931720E+00
  8.93972743E+00  3.82768822E+00  9.24131429E-03  2.80907660E-03  9.72066848E-03
 -2.22493997E-03  4.25277128E-05  4.77211660E-02  3.12203365E-03  3.52711205E-02
 -6.50614256E-03 -2.57277745E-03 -1.82287887E-03 -5.31948630E-03  1.16675807E-02
  1.98148107E-02 -3.25558701E-02 -2.97046828E-01  2.46739393E+01  7.81079102E-01
 -9.37578465E-01 -5.07985480E+00 -5.62331907E-03  4.10705240E-03  2.93971748E-02
  1.66029912E-03 -1.75940411E-03 -1.01728624E-02  1.16804718E-02 -3.58254756E-03
 -4.75503504E-02 -7.74274271E-03 -2.14101045E-02 -3.34322358E-02  2.94120028E-01
 -9.06273761E-02 -1.19768173E+00 -5.07854640E-02  1.34334987E-02 -1.29766335E-02
 -1.99621855E-03  1.33969132E-02 -8.12065720E-02  8.70279078E-03 -2.27457451E-02
 -6.63401943E-03  5.51106872E-02 -2.57039569E-03 -7.54027332E-03  1.69095174E-02
  2.62550880E-02 -2.66902957E-02 -2.45743682E-01 -9.71171265E+00 -1.13465760E+00
 -1.17499095E+00  4.68995833E-01  1.37789244E-02  1.98025565E-02  9.37834707E-03
 -4.87185945E-03 -7.18685247E-03 -3.82020035E-03 -2.06324936E-02 -2.82135631E-02
 -1.01253017E-02 -2.74401485E-02 -4.69747363E-02 -3.92047319E-02 -5.14558773E-01
 -6.24705707E-01 -3.79600139E-02 -1.11828645E-02  1.27447087E-02  2.05789177E-02
 -1.12631151E-02  3.19537797E-02 -1.18762878E-02  3.06891485E-02  5.00923836E-02
 -2.30427103E-02  5.26321446E-02 -1.94440797E-02 -3.17899356E-02 -2.57527575E-03
  2.77192464E-02  8.38658318E-02  8.90960498E-02 -3.92386827E-03  4.09852602E-02
  1.24363015E-01  4.54537184E-01 -7.46478059E-03  5.44930463E-02  1.72703842E-01
 -4.52153999E-01 -1.46331559E-02  7.63853623E-02  2.54963104E-01 -2.08917520E-03
  3.17116232E-04 -1.08384353E-03  1.68876682E-04 -1.09870765E-04 -1.25371171E-02
  3.47034538E-03 -6.75692211E-03  1.74585999E-03 -6.04201626E-03  1.98421957E-03
  5.89243810E-03 -1.38034892E-02 -1.80390171E-02  1.34170787E-02  2.90343274E-01
 -1.30002899E+01  1.30349304E+00  2.15945227E+00  1.66645414E+00 -1.81528672E-02
 -1.34350594E-02  2.21176298E-02  6.56551517E-03  4.74999351E-03 -8.29934569E-03
  2.71102846E-02  2.09164133E-02 -3.06910880E-02  3.90461066E-02  2.41971329E-02
 -6.04854764E-02  3.82285697E-01  4.51859033E-01 -4.89413768E-03 -2.31540473E-02
 -1.97779482E-02 -2.26296922E-02 -1.76259985E-04  4.28808992E-02 -3.93702570E-02
 -7.18394025E-02 -7.23777843E-02  6.47015872E-03  1.03996156E-01 -5.14848700E-03
 -8.48607454E-03 -2.20806643E-02 -4.33558105E-02 -4.67374248E-02  4.47218819E-02
 -5.38351371E-02 -8.97174388E-02 -7.04076933E-02 -6.44097859E-01 -5.08727447E-01
 -5.17638264E-01  2.34415504E-01  1.38207420E+01 -7.13628473E+00 -7.14183687E+00
  3.61958814E+00 -1.52917690E-03  1.57583375E-03  3.02307895E-03 -1.72732409E-03
  5.40052559E-03 -4.79101147E-02  3.98252571E-02  1.39962946E-02 -8.04123711E-03
 -3.93257867E-03  7.83594940E-03  1.32706832E-02  7.63932285E-03  3.12624434E-02
  6.04369304E-02 -7.71649672E-02  2.49174784E-02  6.60077348E-02  9.91765113E-02
  6.24904867E-01 -5.78787011E-01 -4.53468439E-01  6.35795137E-01 -1.06502611E+01
 -7.35429814E+00 -9.71406209E+00 -2.68628448E+00  5.48064087E-03  1.23591855E-03
  3.50957107E-03 -9.20793151E-05 -4.31782243E-03  1.99359314E-02 -3.15793231E-02
  6.39594796E-04 -6.14113490E-03  6.33864415E-02  5.06363871E-03  1.49935809E-02
 -3.47817124E-02 -4.73845312E-02  2.97299192E-02  7.24102901E-01 -8.51362181E+00
  4.93982433E-01  1.48083449E+00  2.43606992E+00  9.72735113E-03  1.09836484E-02
 -1.53373524E-03 -4.05987610E-03 -4.72306661E-03  2.61739894E-04 -1.03093547E-02
 -9.88425673E-03  6.41161314E-03 -4.50995203E-02 -6.01243278E-02 -1.79551755E-02
  2.27435162E-01  2.23138521E-01 -1.27430976E-01 -7.87644310E-03 -4.30124081E-03
 -5.89419576E-03 -2.62439697E-04  1.17131428E-02 -7.05063630E-03 -3.42335499E-02
 -2.91860835E-02  3.32220743E-03  4.27404584E-02  3.16734072E-03  9.34683504E-03
 -2.13995426E-02 -3.08615557E-02  3.03398539E-02  5.12268675E-01 -1.89531785E+01
 -2.40556604E+00 -3.31409999E+00 -1.25040825E+00  1.85801701E-02  2.55196023E-02
  9.44663623E-03 -6.38358705E-03 -8.80073274E-03 -3.33576711E-03 -3.07447332E-02
 -4.18695087E-02 -1.46533821E-02 -2.01839409E-02 -2.91026562E-02 -1.40416891E-02
 -4.17489955E-01 -6.31833988E-01 -3.71209797E-01 -2.59212074E-02  1.89130264E-02
  1.60020261E-02 -1.05003485E-02  2.69060715E-02 -8.32321822E-02  4.13753978E-02
  1.47045364E-02 -1.82856214E-02  5.32837326E-02 -9.03278325E-03 -1.49106162E-02
 -1.53163356E-02 -2.15398660E-03  4.36648951E-02  4.52072028E-02 -1.97063626E-02
  9.07756768E-04  6.61978942E-02  1.88114949E-01 -3.02813053E-02 -1.07756087E-02
  6.86116267E-02 -2.39136302E-01  2.16815596E-01  2.74564042E-01  4.67909647E-02
 -5.60309001E-04 -6.48565173E-05 -3.63714856E-04  3.50351518E-05  2.42325532E-04
 -4.50438500E-03  4.33558291E-03  1.40467688E-03 -5.95004154E-04 -1.94344274E-03
 -8.09712386E-03 -2.38815406E-02  5.45972955E-02  7.91944494E-02 -7.47065937E-02
 -1.10065020E+00  2.41588542E+01 -3.88886473E+00 -5.05639023E+00 -1.20058242E+00
  9.30877987E-03  1.21643740E-02  3.05172195E-03 -3.12490915E-03 -4.15203824E-03
 -1.21279970E-03 -1.70324681E-02 -2.16924958E-02 -4.03010313E-03 -3.39160163E-03
 -7.97421542E-03 -1.08393250E-02 -2.56994467E-01 -3.44416904E-01 -1.07189444E-01
 -2.66717329E-03 -1.18002247E-02 -1.76822935E-02  5.74000473E-03 -3.89150505E-03
 -6.05022597E-03 -3.70565254E-02 -4.73618841E-02  1.36850942E-02  4.27220162E-03
  1.71342119E-03  2.16657335E-03 -2.27873964E-02 -4.39113652E-02 -4.59414808E-02
  1.79336227E-02 -5.02320049E-02 -1.00450130E-01 -1.11199716E-01 -3.87211994E-01
 -7.08145038E-02 -1.70811860E-02  1.82346827E-01  7.37214694E+00  8.41333476E+00
  1.47656933E+01  1.30229278E+01 -5.58499021E-04 -7.00834462E-04 -9.46806077E-04
  1.60649544E-04  7.03932446E-04 -7.70756385E-02  3.74390519E-02  6.76537429E-03
 -1.30486188E-02  3.48916950E-02  7.19600294E-03  1.23873436E-02  1.18713730E-02
  4.38821180E-02  8.11891532E-02 -6.36430772E-02  1.22110391E-02  6.61346476E-02
  1.40764254E-01  5.18982315E-01 -3.86370041E-02  2.37542673E-03  1.31294203E-01
 -1.00254907E+01  9.88815206E-01 -6.43155364E-01 -4.94986189E+00  8.18801328E-03
  7.05101803E-04  5.77931052E-03 -8.86939306E-04 -1.65101508E-03 -1.40008848E-02
  3.25825252E-02  4.80753344E-02 -2.16708135E-02  4.53682016E-02  6.94271708E-03
  2.05685874E-02 -4.78034147E-02 -6.46831209E-02  4.14298452E-02  1.03284011E+00
 -2.04264393E+01 -1.77286157E+00 -1.09158995E-01  5.43479988E+00  4.55327058E-04
 -2.96501944E-03 -9.55892537E-03 -1.41236645E-04  1.00535928E-03  3.19987319E-03
 -8.08739754E-04  5.82876589E-03  1.84993752E-02 -3.24471762E-04 -9.74302029E-05
  8.48843426E-04 -6.91348234E-02 -3.25806260E-02  1.34652323E-01 -7.00542328E-03
  2.27661347E-03  2.87269874E-03 -2.99954139E-03  1.22643391E-02 -1.46776051E-02
  1.40765765E-02  2.12321439E-02 -1.22359958E-02  3.55841435E-02 -8.97930242E-03
 -2.65380399E-02  6.11307544E-02  8.59159173E-02 -7.26878426E-02 -1.24529338E+00
  2.45768226E+01  3.73209276E+00  5.00929525E+00  1.57760227E+00 -4.43009032E-03
 -6.28462581E-03 -2.78827401E-03  1.71440710E-03  2.25891784E-03  6.06908172E-04
  6.60466478E-03  1.09745693E-02  8.53351192E-03  1.05569419E-02  6.67328743E-03
 -1.59945102E-02  9.30652099E-02  1.19597100E-01  2.49515700E-02 -9.15597564E-03
  4.20657112E-03 -2.08012383E-03  1.39712430E-04 -2.33717232E-03 -3.60157116E-02
  7.73324222E-03 -1.42455055E-02  1.03233373E-03  2.36344689E-03 -1.41761876E-02
 -2.36641660E-02  8.27352626E-03  2.97567155E-02  5.42604246E-02  7.76051518E-02
  5.46838308E-03  3.84084668E-02  8.68861368E-02  2.53545581E-01  5.94648791E-02
  9.92630902E-02  7.79947933E-02 -4.19264529E-01 -1.96253835E-01 -2.85620287E-01
 -1.43108265E-01 -4.06212920E-04 -4.50827251E-04 -6.27550449E-04  1.00533705E-04
  4.90280898E-04 -3.53470561E-03  4.05598684E-03  3.52520610E-03 -1.71529220E-03
  2.55541667E-03 -1.06597115E-03 -3.16136314E-03  7.38638294E-03  9.69468128E-03
  3.21102647E-03 -2.03218785E-01 -1.02877681E+00 -1.18112664E-01  7.32820882E-03
  4.02943750E-01 -1.18193634E-02 -8.59236444E-03  1.47741577E-02  4.21324630E-03
  3.24637453E-03 -4.76407814E-03  1.71671066E-02  1.01787206E-02 -2.77468193E-02
  3.05743172E-02  3.59239738E-02 -8.06111024E-04  2.85308546E-01  2.31975181E-01
 -2.90692738E-01 -3.48193481E-02 -2.59279726E-03 -2.11276638E-02  1.80896736E-03
  1.43841099E-02 -9.77198157E-02 -8.97048433E-03 -7.03479912E-02  1.12587078E-02
  1.78008887E-02 -3.25252029E-02 -5.32398897E-02  3.60251975E-02  2.56224259E-02
 -4.66282245E-02  4.98430682E-02  8.42863074E-02  6.79441732E-02 -8.73143727E-02
  4.94440622E+00  1.94139592E+00  1.49341686E+00 -2.20760721E+00 -2.85294441E+01
 -7.62574999E+00 -5.85607627E+00  8.69714125E+00  2.35916274E-03  2.14879393E-02
  2.32412769E-02 -5.69486500E-03 -1.10149459E-02  1.57971739E-02 -4.87633897E-02
 -3.24061104E-03 -1.12663113E-02  1.12859065E-01  3.20626619E-02  5.31439242E-02
  8.27255753E-02  9.46977809E-02 -9.49521724E-03 -7.88202291E-02  1.99616457E-01
  2.07527296E-01 -8.00723525E-02 -5.10769194E+00  1.93086958E+00  1.82818576E+00
 -1.26147684E+00  3.42329374E+01 -2.33978802E+00 -9.75880983E-01  4.90520681E+00
  2.22774172E-03 -1.41750035E-02 -1.08484639E-02  2.11457118E-03  1.20354936E-02
 -3.78462427E-02  7.97116350E-02  5.74401661E-02 -1.71482916E-02 -3.32980728E-02
  7.04138871E-04  2.02775693E-03 -4.22697900E-03 -8.56724566E-03  1.31312847E-02
  2.85279741E-01 -2.27455193E+00  1.30256641E+00  1.48548099E+00 -1.63672028E-01
  9.77696848E-03  1.22604320E-02  1.79936926E-03 -3.28680479E-03 -4.36990871E-03
 -1.28165236E-03 -1.71462875E-02 -1.89884254E-02  3.69538615E-03 -7.32637089E-03
 -2.85307102E-02 -5.40685476E-02 -3.97115046E-01 -4.83218804E-01 -3.26018269E-02
  2.19024693E-02 -4.92811335E-02 -5.14885603E-02  1.99713668E-02 -1.68225731E-02
  4.55876465E-02 -1.07205567E-01 -1.24256301E-01  5.03805480E-02 -6.37678175E-02
 -1.77372638E-03 -5.24455432E-03  1.21070188E-02  1.69576558E-02 -1.06845442E-02
 -9.46208616E-02  1.27002337E+00  1.37130409E+00  1.07925099E+00 -1.49238523E+00
  6.15834400E-03 -1.47477903E-03 -2.39265499E-02 -1.88427194E-03  9.77148749E-04
  8.75366417E-03 -1.20356054E-02 -1.15570336E-03  3.57591855E-02  3.75832090E-03
  2.67117139E-02  6.06215197E-02 -4.00197156E-01 -3.06812522E-01  4.57923932E-01
 -5.07975638E-02 -2.96360973E-02 -4.88556629E-02  4.19708868E-03  5.43061861E-02
 -1.10368566E-01 -8.88233008E-02 -1.39386721E-01  2.05572116E-02  1.08898228E-01
 -2.37712247E-03 -3.90212275E-03 -1.21918610E-02 -8.12299012E-03  1.73441683E-02
  1.12995179E-02 -1.65788082E-02 -1.18503098E-02  2.13762700E-02  3.28506718E-02
 -2.93365393E-02  5.35247196E-04  9.65213135E-02  7.33673176E-01 -5.72374865E-01
 -4.06761359E-01  7.41374014E-01 -2.75992339E-03  1.89011768E-03  5.80200995E-04
 -4.72913231E-04  4.30433324E-04 -1.10704072E-02  1.01557997E-02  8.95685396E-03
 -5.02473557E-03  1.05207301E-02 -1.63608687E-03 -4.83152857E-03  1.11061819E-02
  1.58501259E-02 -1.17923946E-02 -3.29608786E-01 -5.44361498E+00  8.03477912E-01
  6.93743012E-01 -7.08072637E-01 -3.11267573E-03 -9.01329114E-03 -1.44807031E-02
  1.08412193E-03  3.03990349E-03  4.77247509E-03  4.15229837E-03  1.44417243E-02
  2.59048955E-02  1.04911842E-02  1.67038677E-02  1.15511627E-02  1.71111745E-01
  4.63903875E-01  7.10204004E-01  1.94019978E-02  2.56332283E-02  4.91593778E-02
 -1.50980446E-02  1.21960886E-02  5.81386882E-02  4.75186660E-02  1.13755396E-01
 -3.53905700E-02  4.14351975E-02  2.86508312E-06  4.93783390E-06  2.71640254E-02
 -2.28893564E-02  8.41166268E-03 -1.01472210E-05  5.06204772E-02 -4.26605865E-02
  1.56857950E-02 -1.96641633E-04 -8.01273944E-02  6.74797179E-02 -2.47341491E-02
  7.15319310E-03 -2.13642703E+00  1.80526835E+00 -6.65667153E-01  2.37506788E-03
  5.24208751E-03 -2.26611545E-03  6.62315092E-03  2.52952965E-03  5.01329004E-02
  9.72518408E-02 -6.38561497E-02  5.26960882E-02  3.84434433E-02 -8.87119223E-06
 -1.32792462E-05 -1.82667683E-02  1.53764153E-02 -5.68186352E-03  9.42658992E-06
 -7.40189512E-02  6.23345156E-02 -2.29164406E-02  1.16030181E-03  3.27155965E-01
 -2.75816494E-01  1.00805824E-01 -1.08369241E-02  2.51829827E+00 -2.11827827E+00
  7.77942550E-01  1.77905753E-03  3.70196269E-03 -1.96833808E-03  3.48766059E-03
  1.64344418E-03  4.12822912E-02  7.63093511E-02 -5.70080504E-02  1.91611858E-02
  2.74866927E-02 -2.45654228E-07 -7.05881483E-07  1.45619818E-06  3.07123075E-06
 -7.20026612E-06 -7.60482618E-06  1.91739478E-03  4.22498308E-01 -3.56882533E-01
  1.30631872E-01  8.47340615E-03 -7.13736133E-03  2.62035541E-03 -3.59332993E-03
  3.02693832E-03 -1.11146378E-03 -8.48587262E-03  7.14640161E-03 -2.62215535E-03
 -4.06514966E-02  3.42474165E-02 -1.25828501E-02  2.69214728E-02 -2.26979790E-02
  8.35460844E-03 -1.49779716E-02 -2.16429755E-02  2.78987869E-02  3.22610341E-02
 -3.22760562E-03 -5.19212083E-02 -7.02025166E-02  1.02440166E-01  1.43054078E-01
 -5.81911377E-03 -3.45731148E-07 -1.03335936E-06  2.47992627E-06  2.92429401E-06
  9.01920938E-07 -1.19375971E-04  2.56401739E-03  4.78866429E-01 -4.02988440E-01
  1.48805277E-01 -1.41897867E-02  1.19494701E-02 -4.39026602E-03  5.93546207E-03
 -4.99894530E-03  1.83665175E-03  1.49994239E-02 -1.26260396E-02  4.63868097E-03
  6.61585852E-02 -5.57438398E-02  2.04817727E-02 -4.72310832E-03  4.18437750E-03
 -1.54107955E-03 -5.14421820E-04 -9.36470036E-03 -9.28550471E-03 -5.46757467E-02
 -9.72687616E-03  5.03646430E-03 -1.90350818E-02 -4.06499299E-02 -1.81094717E-01
 -2.82536576E-02  3.85943854E-06  6.57319113E-06  8.48424437E-02 -7.14730324E-02
  2.62513392E-02 -2.54532624E-05  8.61849833E-02 -7.26012147E-02  2.66584840E-02
 -2.29666322E-05  3.57747579E-01 -3.01392434E-01  1.10723190E-01 -7.55856660E-04
 -1.36679235E+00  1.15136793E+00 -4.23988761E-01  1.33902202E-04  2.32273510E-04
 -1.95026390E-04 -1.24686930E-05  7.53765151E-05  4.09592562E-03  8.07163747E-03
 -5.01778559E-03  5.27426419E-03  3.30167167E-03  5.60757173E-07  1.63805784E-06
 -3.60831564E-06 -6.14322578E-06  1.15110253E-05  2.57620362E-05 -5.07920137E-04
 -7.23700941E-01  6.09764865E-01 -2.23827253E-01 -1.44205489E-03  1.21492256E-03
 -4.39339424E-04  3.13569370E-04 -2.63774428E-04  9.48175735E-05  4.05868907E-03
 -3.42302595E-03  1.24301899E-03 -5.51420644E-03  4.66654293E-03 -1.70881926E-03
 -5.45825446E-02  4.58590799E-02 -1.70241285E-02  1.13609224E-02  1.38761061E-02
 -2.41977992E-02 -4.09171223E-02 -3.86356065E-04  4.98109869E-02  6.87980317E-02
 -9.65905641E-02 -1.27807870E-01  7.18373034E-03  6.60377412E-03  1.14088589E-02
 -5.50878383E-03  3.38576779E-03  2.70904422E-02 -3.05198672E-02 -1.18785873E-02
  1.16883081E-02  7.03648468E-02 -1.94505551E+00 -9.61898198E-01 -1.11971610E+00
  5.91264921E-02 -1.23013251E+01  3.14991368E-01  6.09570718E+00  1.55818221E+01
 -5.96763110E-03 -5.65447826E-04 -2.85158630E-03 -2.06106695E-04  4.76482189E-03
 -3.07183603E-03  1.56869167E-02  3.22821958E-03  2.88771774E-03 -3.42657957E-02
  1.80225332E-02  2.80342513E-02 -1.91004304E-02  1.57871566E-03  6.60468474E-02
 -4.27953474E-02 -4.02400070E-02 -3.30051844E-02  4.01327435E-02 -1.82426858E+00
 -9.21082652E-01 -1.72670513E-02  2.93070112E+00  1.28785251E+01 -5.99234666E+00
 -7.61090147E+00 -1.35739403E+00 -1.28494032E-03  6.30970606E-03  4.02236832E-03
 -5.33219843E-04 -6.86874289E-03 -1.04925445E-02 -7.08771515E-02 -1.06246564E-01
  3.61248818E-02 -3.29832363E-02  2.84474355E-03  8.56225606E-03 -2.10359645E-02
 -2.22816973E-02 -1.58418957E-02  7.19643090E-01 -1.51301998E+01 -6.16508754E-01
  5.02897868E-01  3.36452857E+00  7.48418221E-03 -4.68307039E-03 -3.69547307E-02
 -2.81922604E-03  1.85958333E-03  1.41815144E-02 -1.09718325E-02  5.57198534E-03
  5.06455006E-02 -1.81732658E-02  1.90593356E-02  1.10712288E-01  1.58656629E-01
  5.24502264E-02 -3.70059124E-01 -3.66722410E-03  7.61448413E-03  9.40003168E-03
 -4.04277483E-03  6.70878082E-03  2.95376403E-02 -6.93971564E-03  1.80168250E-02
 -4.88502676E-03  1.57656240E-02 -2.02176207E-03 -6.01910965E-03  1.42449168E-02
  1.80646501E-02 -1.57253488E-03 -5.08924661E-01  9.94061865E+00  1.49476268E+00
  1.72517582E+00 -1.33423513E-01 -6.32567859E-03 -1.14977059E-02 -1.08835675E-02
  1.86365151E-03  3.90589535E-03  4.62084099E-03  1.37970404E-02  2.04520247E-02
  1.11195418E-02 -1.40016186E-02  2.12685693E-03  5.11406208E-02 -1.10054493E-01
 -2.26502338E-01 -2.61070285E-01  2.18437240E-02 -4.42562888E-03  1.08058034E-02
 -1.84576866E-03  3.12923411E-03  8.07289649E-02 -2.46575563E-02  2.37148245E-02
  1.06055393E-04 -3.85806446E-03  9.52733926E-03  1.55479164E-02 -3.44772360E-02
 -3.57198972E-02  1.42906791E-02 -4.36049493E-02 -3.58835781E-02 -4.02685302E-02
  6.44988203E-03 -2.57510699E-01 -1.61663148E-01 -1.24908104E-01  1.82927052E-01
  4.97770399E+00  4.72196106E-01  1.57238580E+00  2.75412613E+00 -5.07849013E-03
  4.67939938E-04 -2.96605283E-03  5.02147013E-04 -1.74620809E-04 -1.55862881E-02
 -5.28075245E-03 -1.73883622E-02  4.16019861E-03 -8.89511374E-04 -2.00816190E-03
 -5.65974427E-03  1.07055948E-02  2.91881586E-02 -8.93751413E-02  1.25542677E-01
  3.42230628E+00  1.93477548E-01  1.32328898E-01 -2.65211527E-01  3.72665365E-03
 -6.82246674E-03 -3.06568902E-02 -1.99744789E-03  1.95290197E-03  1.17881846E-02
  6.27865696E-04  1.62539023E-02  4.22668713E-02 -4.19418959E-02 -1.44965930E-02
  9.62501789E-02  2.44637526E-01  1.90655111E-01 -2.71720763E-01  4.33504111E-02
 -2.36296386E-02  5.84013691E-03  4.54777043E-04  1.23665874E-02  1.64281911E-01
 -4.93842059E-02  6.87436654E-02 -1.21643019E-02  4.17306153E-02  5.50770995E-03
  7.28846415E-03 -5.63575255E-03  5.31124123E-03  3.27098168E-02  3.82641808E-02
  3.66642175E-02  6.46695111E-02  5.76996237E-02 -6.60744251E-01 -4.55748357E-01
 -3.92539459E-01  4.03951087E-01  4.27454593E+01  6.99977651E+00  8.22423874E+00
 -2.25535048E-01  8.80069914E-03 -9.21726622E-03 -5.37409805E-03  2.50284101E-03
 -5.17754015E-04  2.74337264E-02 -2.57707043E-02 -4.03349128E-02  2.33502931E-02
 -6.95663945E-02  5.46171185E-03  7.51216839E-03 -2.08196093E-02 -5.25106806E-03
  5.30225944E-02 -2.75948476E-02 -3.58460788E-02 -1.93022800E-02  6.33593807E-02
 -3.12562020E-01  3.58121558E-02  3.79577818E-01  9.18280902E-01 -4.25212124E+01
  4.55362125E+00  1.34048087E+00 -1.10648138E+01 -2.47922923E-03  3.23992625E-03
  1.47846857E-03 -4.47209807E-04 -1.88972591E-03 -4.51848966E-02  5.19212540E-02
  5.83204089E-02 -3.00321805E-02  6.56341118E-02 -9.18615668E-05 -4.50924903E-04
  2.54338447E-03 -5.13545753E-03  3.36502556E-02 -1.19922581E-01 -7.24821464E+00
 -9.75893178E-01 -6.29628605E-01  1.44029417E+00 -1.15215366E-02 -1.31192911E-02
  1.50264256E-03  4.37155734E-03  4.77365723E-03 -1.12573792E-03  1.58283855E-02
  2.00343507E-02  3.41035429E-03  3.86686892E-02  2.99406445E-02 -4.34069437E-02
  9.05562374E-02  2.56198672E-01  4.05085208E-01  1.53937901E-02  3.74545129E-02
  4.79258414E-02 -1.11672511E-02 -1.99058890E-02  3.80106218E-02  1.23066398E-01
  1.42941144E-01 -3.14614486E-02 -8.03244190E-02 -1.31047363E-03 -3.54238133E-03
  5.36143186E-03  2.43324216E-02 -9.44460068E-02  2.05125843E-01 -3.57354040E-01
 -6.46541564E-01 -8.09129845E-01 -1.14065809E-01  1.65316753E-02  1.87480488E-02
 -2.40337433E-03 -5.91638001E-03 -7.08177257E-03 -1.51032007E-04 -2.70198097E-02
 -2.73990098E-02  1.27394866E-02 -3.44333929E-02 -6.00049830E-02 -5.19507179E-02
 -3.45495652E-02  3.24439453E-02  1.99764281E-01  3.82108693E-02 -5.22184353E-02
 -3.18235706E-02  1.15863742E-02  1.35416752E-02  1.26576415E-01 -1.68261579E-01
 -8.79197640E-02  2.93488232E-02  7.43894451E-02 -1.10746240E-02 -1.88048042E-02
  5.93469127E-02  5.47830474E-02 -4.25339486E-02  7.12008201E-02  6.34877131E-02
  6.36795719E-02 -3.16874858E-02  1.12731322E-01  2.51472865E-01  2.11188622E-01
 -2.37273785E-01  1.20134576E+00 -1.18418795E+00 -5.56489693E-01  2.31045396E+00
 -2.50102734E-03  6.50988335E-04 -8.95947365E-04  5.45709526E-05  5.35479681E-05
 -1.95668053E-02  7.33506525E-03 -3.61941752E-03 -8.30078911E-04  2.10171207E-03
 -6.65959933E-04 -2.37686153E-03  8.93483821E-03 -7.70923310E-03  1.01626732E-01
 -6.87019483E-01  7.39784400E+00 -1.93747006E+00 -1.94222484E+00  9.72620824E-01
  2.59424166E-02  3.33230245E-02  6.89258302E-03 -9.85910172E-03 -1.25016039E-02
 -2.17671365E-03 -3.74829532E-02 -4.97299198E-02 -1.42745516E-02 -7.33814126E-02
 -8.29862747E-02  1.12295086E-02  4.42725507E-01  4.85450938E-01 -1.09097355E-01
 -2.56595988E-02  9.92722339E-03 -4.98043132E-03 -8.33124432E-04  1.21169972E-03
 -5.57668901E-02  4.76312354E-02 -1.11171379E-02  7.94795528E-03 -7.71587883E-02
  9.23477091E-03  1.72668403E-02 -3.87779958E-02 -3.26271919E-02  3.64545133E-02
 -9.16204154E-02 -9.49296549E-02 -7.35732516E-02  1.06384870E-01 -9.19430409E-01
 -4.49541470E-01 -4.90209530E-01  1.18055804E-01  2.39995256E+01 -2.90370476E+00
 -7.43242589E+00 -1.08532890E+01  3.82534600E-03  3.63834215E-03  6.53317820E-03
 -1.55518688E-03 -1.20211474E-03  6.49168206E-02 -1.23381355E-02  4.16307758E-02
 -1.10372996E-02  3.09542644E-02 -9.95107082E-04  1.18853804E-03  4.49271190E-03
  5.19909616E-03 -4.17420529E-04 -3.10186707E-02  2.34690035E-02  3.28747782E-02
  1.35794403E-02 -1.68972500E-01 -6.86230791E-01 -1.20533739E-01  1.88946253E+00
 -1.24801256E+01  7.65804258E+00  9.79151305E+00  1.91161950E+00  2.51413676E-03
  1.16521689E-02  1.36924268E-02 -3.39367977E-03 -5.35875029E-03 -8.72345379E-02
  2.07251973E-02 -2.41353830E-02 -3.16992541E-03  2.56473729E-02 -1.18896693E-03
 -3.51090633E-03  8.07788692E-03  1.15770886E-02 -4.56816822E-03 -1.48557876E-01
  6.14896964E+00  3.49538976E-01 -7.19026860E-02 -1.32692234E+00 -2.09386416E-03
  1.85624174E-04  7.27770489E-03  9.81849240E-04 -8.50124863E-05 -3.40623879E-03
  1.63904243E-03 -1.94103716E-04 -5.83674206E-03  1.43608810E-02 -2.96158347E-03
 -5.44711868E-02  7.02467417E-02  1.57213715E-01  2.00922450E-01  2.39779151E-02
 -1.23700991E-02  5.20987278E-04  2.19641722E-03 -2.17104211E-03  5.95488906E-02
 -4.71510776E-02 -2.04053475E-02  1.27682827E-02 -9.93203646E-03 -1.37588490E-03
 -3.82651416E-03  6.79671172E-03  2.16743745E-02 -6.58577935E-02  1.34266979E-01
 -1.36921622E+01 -1.42991011E+00 -2.18965905E+00 -1.34145121E+00  2.05061767E-02
  1.30519938E-02 -3.07242935E-02 -7.53833238E-03 -4.34493340E-03  1.25274391E-02
 -3.07373254E-02 -2.32402766E-02  3.60523089E-02 -5.31376166E-02 -1.22502708E-02
  1.38298288E-01 -2.28953752E-01 -3.96661318E-01 -3.39920012E-01  6.25107458E-03
 -3.27771051E-02 -1.59831798E-02 -3.96951252E-04  4.87297952E-02  4.18680831E-02
 -1.39047519E-01 -7.99666128E-02  1.03101801E-02  1.50101141E-01  2.46081794E-02
  4.08743894E-02  3.43699131E-02  5.84295537E-02  4.79419895E-02 -1.34186099E-01
  4.35959788E-02  5.95733790E-02  2.12379929E-02 -4.62408902E-01  1.02246535E-01
  2.97071020E-01  4.78163283E-01  4.50114903E+00 -4.94687406E-01 -6.28752589E-01
 -1.11305877E-01 -1.82652030E-03 -5.49331689E-05 -1.22653406E-03  1.97291100E-04
  2.11020642E-04  1.65702876E-02 -6.67856354E-03  4.59026818E-03 -4.01791360E-04
  3.44292676E-03  7.22498235E-04  2.21649313E-03 -5.79220467E-03 -4.30831989E-03
 -8.92425857E-03  1.64090313E-01 -6.83812788E+00  2.27156012E-02  6.65655129E-01
  1.73951032E+00 -1.00097559E-03 -6.51715770E-03 -1.44943483E-02 -2.53352605E-04
  2.42779646E-03  7.42179114E-03  6.22613138E-03  8.84317570E-03  3.94639024E-03
 -2.21379209E-02  2.63102532E-02  1.43074022E-01  2.06832979E-01 -6.93423152E-02
 -8.57125417E-01 -3.37199745E-02 -3.86730751E-02 -5.59149935E-02  1.02373619E-02
  3.48860786E-02 -6.56382850E-02 -1.01625627E-01 -1.27240943E-01  2.15448780E-02
  1.01757220E-01  9.95618247E-06  1.82402273E-05  2.48938558E-02 -2.10315124E-02
  7.72231737E-03 -8.92408500E-05  6.12159468E-02 -5.17808242E-02  1.89903475E-02
 -8.99842984E-04 -1.47996017E-01  1.24668811E-01 -4.48739647E-02  7.77800875E-03
 -2.83429477E-01  2.38362774E-01 -9.04396889E-02 -5.67612050E-03 -1.01083184E-02
  8.31273559E-03 -1.24082281E-04 -3.34931273E-03 -1.08638638E-01 -1.98174545E-01
  1.53470802E-01 -3.25794820E-02 -6.92898354E-02 -1.06247040E-05 -1.66915381E-05
  3.49695660E-02 -2.94643660E-02  1.07834184E-02  6.98611179E-06  5.89724048E-02
 -4.96407777E-02  1.81593364E-02  1.01249171E-03  3.19596970E-02 -2.84371644E-02
  1.03673807E-02 -7.25622195E-03  7.84801397E-01 -6.57904938E-01  2.41126612E-01
  2.47181558E-04 -1.08691310E-03 -2.18142545E-03 -9.94101396E-03 -1.57173005E-03
 -1.97848213E-02 -6.51327084E-02 -6.52178928E-03 -1.93534149E-01 -4.48835194E-02
 -1.51951559E-06 -4.54944890E-06  1.09872071E-05  1.27731932E-05  8.28829997E-06
 -3.85971695E-04  1.40056489E-03 -2.07499913E-01  1.74702937E-01 -6.47798497E-02
 -8.74569214E-03  7.37980301E-03 -2.68352796E-03  3.28976857E-03 -2.77604236E-03
  1.00870612E-03  1.24518663E-02 -1.05062540E-02  3.82551471E-03  1.89934105E-02
 -1.60443537E-02  5.78544333E-03  2.20323440E-01 -1.85486859E-01  6.88084130E-02
  4.90021190E-02  9.04748703E-02 -6.77887642E-02  2.22174733E-02  3.25393314E-02
  1.53199429E-01  2.85637876E-01 -2.08831814E-01  8.69059978E-02  1.04780978E-01
 -2.97539991E-07 -8.61785499E-07  1.82800593E-06  3.64550430E-06 -1.74324316E-05
  1.79339783E-04 -2.08705449E-03  1.72018901E-01 -1.45326339E-01  5.30966277E-02
 -1.62013877E-03  1.37104061E-03 -5.06556554E-04  1.26253970E-03 -1.06441443E-03
  3.92064362E-04 -3.15266562E-03  2.63240270E-03 -9.63495897E-04  3.80597903E-02
 -3.19763402E-02  1.17697539E-02 -1.44266644E-01  1.21550428E-01 -4.46001782E-02
 -1.69667214E-02 -1.95394238E-02  3.73923494E-02  6.83629934E-02  1.85975805E-03
 -7.72813298E-02 -9.82391066E-02  1.59356364E-01  2.51634619E-01 -1.83301930E-03
  2.28256260E-06  3.87233016E-06  2.65841192E-02 -2.23797244E-02  8.18987015E-03
 -1.34167733E-05  2.49857111E-02 -2.10298353E-02  7.68439847E-03 -3.14918523E-05
  1.17846359E-01 -9.92168486E-02  3.63389789E-02 -1.61881109E-04 -5.90649510E-01
  4.97705259E-01 -1.82728051E-01  7.18902946E-04  1.26669586E-03 -1.06144143E-03
 -5.00797072E-05  4.11549479E-04  4.37898314E-03  6.00423818E-03 -8.51648355E-03
 -1.14252867E-02  5.94183741E-04  4.21625973E-07  1.42656654E-06 -4.81035576E-06
  2.06315355E-06 -4.04123083E-05  3.86065775E-04  1.23056494E-04 -2.87486371E-01
  2.42059693E-01 -8.83843913E-02 -1.17668172E-02  9.88944516E-03 -3.62699365E-03
  5.05326111E-03 -4.24828362E-03  1.55796203E-03  1.16212548E-02 -9.75589829E-03
  3.57932932E-03  5.91871956E-02 -4.98028474E-02  1.82494137E-02  3.57040530E-02
 -3.06961573E-02  1.09571228E-02  1.93024526E-02  4.55704879E-02 -1.49762056E-02
  7.28594059E-02  2.38727338E-02  6.92169446E-02  1.57972934E-01 -6.01560079E-02
  2.26030453E-01  7.95625928E-02  9.85522004E-03  1.81945458E-02 -5.43550272E-02
 -4.27540334E-02  5.92516800E-02 -9.04226556E-02 -1.51248178E-01 -1.45675652E-01
  9.20408364E-02 -7.26017075E-01  1.99339692E-01  2.91688252E-01  1.50004711E-01
  1.90308028E+01  6.08217515E-01  1.64382648E+00  2.51528790E+00 -7.28213608E-04
  7.84212831E-03  8.52200596E-03 -2.56968551E-03 -1.18216712E-03 -4.26277159E-02
 -1.90350103E-02 -3.37988885E-02  1.34452048E-03  4.63427445E-02 -2.43879586E-02
 -4.04344011E-02  2.40638877E-02 -4.81345098E-03 -9.09545591E-02  1.04318019E-01
  7.08158490E-02 -1.53495562E-02 -2.70922595E-01 -5.01232553E-01 -7.00124647E-01
 -8.30553562E-01  4.82162092E-04 -1.45691965E+01  9.06328318E-01 -7.85191995E-01
 -5.07089932E+00 -3.06173482E-03  1.25304703E-02  6.30198919E-03 -1.70561660E-04
 -1.70038276E-02  4.41577872E-02 -5.24603233E-02 -7.91932467E-02  4.22813277E-02
 -1.14202047E-01 -3.52768124E-04 -7.26239145E-04 -1.00698394E-03  1.45077308E-02
 -8.22572777E-02  3.45988477E-01 -6.39195111E+00  9.28876971E-03  5.97665228E-01
  1.59847818E+00  1.35802735E-02  2.53922534E-03 -3.69526384E-02 -4.90788970E-03
 -6.01144592E-04  1.42164033E-02 -2.13459275E-02 -6.53108974E-03  5.11686207E-02
 -3.44097637E-02  6.13873087E-03  1.27878729E-01  2.18091387E-03 -8.07624323E-02
 -2.27457488E-01  8.46367143E-03 -5.24749580E-02 -3.20371595E-02  2.97196315E-03
  6.42818323E-02  4.96223355E-02 -1.97810943E-01 -9.94105828E-02  3.29001169E-03
  2.65652392E-01 -1.62569249E-04 -5.03534152E-04  1.34685156E-03  9.26010959E-04
 -8.24772856E-03  2.56948381E-01 -2.68981221E+00 -2.85309715E-01 -5.06767806E-01
 -4.59999307E-01  1.45279225E-03  4.46817893E-03  7.50243241E-03  2.82117251E-04
 -7.67504964E-04 -3.01802678E-03 -1.01541432E-02 -1.54255212E-02 -9.19186428E-03
  5.56545807E-02  5.63732946E-02 -2.67099733E-02 -1.57106542E-01 -1.40629489E-01
  1.26272467E-01  5.52685642E-03 -2.83439422E-03  1.19479962E-02 -6.79773188E-03
  2.88859806E-02  2.27260048E-02  7.15260295E-03  5.66753970E-02 -2.56247810E-02
  8.07395804E-02  3.60828029E-03  6.35286662E-03  3.17563336E-02  1.80499383E-04
 -1.02251044E-01 -2.57230487E-02  3.18714368E-02 -1.02823334E-02 -1.31122878E-01
  2.50561211E-02  1.41653972E-01  3.78361442E-02 -3.55173345E-01 -3.73185415E-01
 -4.34669484E-01 -1.74105150E-01  9.32946495E-01  2.53522206E-03  1.61891525E-04
  1.87134168E-03 -3.44667920E-04 -1.40705307E-04 -1.47592611E-03  2.06080150E-03
 -1.04646121E-03  9.67978873E-04 -6.36610591E-03  1.20640220E-03  4.09254467E-03
 -1.38878539E-02  6.42305674E-03 -1.24611981E-01  8.42079512E-01  4.84047114E+00
 -2.60179164E-01 -1.96049622E-01  3.06280790E-01 -5.79795155E-02 -6.22536852E-02
  1.79740610E-02  2.42986690E-02  2.57556211E-02 -8.45085325E-03  6.36533638E-02
  7.15183617E-02 -1.10269043E-02  2.93626092E-01  2.95818497E-01 -1.44369752E-01
 -1.25724967E+00 -1.50857236E+00 -4.24518467E-02  2.37136623E-02 -4.02589982E-02
 -3.73170685E-02  1.51008170E-02 -1.16364744E-02  2.85387710E-02 -1.24054635E-01
 -9.34294103E-02  2.01623082E-02  9.42667452E-02  4.32868888E-06  7.48121283E-06
  9.40078001E-03 -7.86286347E-03  2.87433104E-03 -3.23802081E-05 -2.24615519E-03
  2.06439068E-03 -7.22553304E-04 -2.09591277E-04 -5.94274087E-02  4.86113132E-02
 -1.77419293E-02 -8.00100932E-03  8.09851793E-01 -6.77608876E-01  2.51668822E-01
  1.43292022E-03  3.59987261E-03 -8.33596472E-04  6.89915386E-03  2.02570433E-03
  8.22563117E-03  5.40175678E-02  3.49936940E-02  2.55246802E-01  4.86590864E-02
  1.06100021E-05  1.79326095E-05 -6.40990774E-03  5.36542432E-03 -1.93508304E-03
 -8.27526620E-05 -5.15775068E-02  4.33699220E-02 -1.58177669E-02  1.55877518E-03
 -1.47058672E-01  1.24090088E-01 -4.49272571E-02  2.91983520E-03 -7.43357656E-01
  6.24100731E-01 -2.29343334E-01  7.58314161E-05 -8.04255502E-04 -1.22911931E-03
 -6.07073301E-03 -9.91625185E-04  3.44270421E-02  4.24509016E-02 -7.27006106E-02
 -1.21141590E-01 -5.81441849E-04 -4.56243612E-07 -1.68399225E-06  6.72022131E-06
 -7.17780672E-06  7.83229663E-05 -4.16065562E-04 -9.92130330E-05 -5.89894123E-02
  4.86283090E-02 -1.86299864E-02  6.17417207E-03 -5.19052552E-03  1.95586843E-03
 -2.31085457E-03  1.94161539E-03 -7.33563159E-04 -9.05752362E-03  7.62382843E-03
 -2.85626784E-03 -1.80647387E-02  1.51339262E-02 -5.80598253E-03 -1.56680179E-02
  1.36685798E-02 -4.06895439E-03 -1.50808215E-02 -1.39981819E-02  3.73667207E-02
  8.28009618E-02  5.36643850E-03 -5.66153272E-02 -4.64127534E-02  1.47288215E-01
  3.49878827E-01  2.68791923E-02 -6.97543965E-07 -2.20188475E-06  6.26880521E-06
  1.89116235E-06  3.78360001E-05 -5.42457608E-04  5.83639160E-03 -4.74655280E-01
  4.01677787E-01 -1.46518304E-01  8.94175812E-03 -7.56987064E-03  2.75928645E-03
 -4.47977667E-03  3.78777600E-03 -1.38345970E-03 -3.64402498E-03  3.12590983E-03
 -1.11577445E-03 -8.75888980E-02  7.38648642E-02 -2.70875362E-02  3.63891967E-01
 -3.06967809E-01  1.12406552E-01 -3.55837039E-02 -7.41851165E-02  3.90777027E-02
 -7.10729977E-02 -3.30954960E-02 -1.34278006E-01 -2.68324343E-01  1.61251764E-01
 -1.92961219E-01 -1.11941850E-01 -6.64038638E-06 -1.11346094E-05 -2.35070293E-02
  1.97939910E-02 -7.23660418E-03  3.72451345E-05 -2.47327549E-02  2.08361300E-02
 -7.60279096E-03  1.13747333E-04 -8.56534113E-02  7.20606407E-02 -2.63991383E-02
 -1.46933139E-04  5.28814390E-01 -4.44998953E-01  1.63385804E-01 -7.71958652E-04
 -1.42742480E-03  1.06337809E-03 -3.64184934E-04 -5.14733595E-04 -1.16729126E-03
 -3.14688521E-03  4.38575738E-04 -6.90169456E-03 -1.87092373E-03 -1.00457127E-06
 -3.31721129E-06  1.05948095E-05 -2.27034767E-06  8.37934823E-05 -5.93888482E-04
 -5.18443998E-04 -2.45687879E-01  2.06600766E-01 -7.61597278E-02  2.17720749E-02
 -1.82655223E-02  6.72806932E-03 -1.09184241E-02  9.16721265E-03 -3.37458156E-03
 -8.59937210E-03  7.15203136E-03 -2.65283826E-03 -1.97933482E-01  1.66411495E-01
 -6.11903684E-02  5.54939550E-01 -4.65805941E-01  1.71550770E-01  2.84256615E-02
  5.82395975E-02 -3.26070705E-02  4.95245583E-02  2.51977018E-02  1.14048102E-01
  2.23409996E-01 -1.42810205E-01  1.33177209E-01  8.96764150E-02 -1.80188207E-02
 -3.25102571E-02  3.29241833E-02  3.22841196E-02 -1.84424753E-02  1.60120736E-01
  1.18593860E-01  1.03459036E-01 -1.01495844E-01  8.44713233E-01  3.15538029E-01
  1.06173696E-01 -7.31010069E-01  1.78471278E+01  5.21017363E-01 -3.32242327E+00
 -1.07320556E+01 -1.17078580E-02  3.90105882E-04 -6.50835310E-03  7.06505064E-04
  2.49430073E-03 -2.19375644E-01  3.28284783E-02 -9.57017175E-02  6.52474869E-03
  3.49761338E-02  1.08687994E-02  1.72711313E-02  1.81456757E-02  3.29203659E-02
  3.10466271E-02  6.08854622E-03 -1.74532280E-02  1.62115141E-02  1.00572091E-01
 -1.14736181E+00  8.84599845E-01  7.36635484E-01 -8.53306818E-01 -1.56343954E+01
  4.01865523E+00  4.79832254E+00  8.00275815E-02  7.16936879E-03 -1.56513212E-02
 -1.20590293E-02  3.76222028E-03  5.04595115E-03 -4.71445188E-02  6.66151619E-03
 -3.01729040E-02  7.02515317E-03 -1.51949280E-02  1.13045111E-03  3.69502696E-03
 -1.15147007E-02  1.27122776E-03 -8.62351916E-02  4.90424846E-01  7.49438555E+00
  4.17706236E-01  3.82656805E-01 -3.09376446E-01 -8.20281486E-03 -3.40648016E-02
 -6.62443726E-02  4.19921930E-03  1.54313051E-02  2.84447341E-02  1.83879013E-03
  2.70260016E-02  6.76609653E-02  8.32380708E-02  2.36061577E-01  3.73666298E-01
 -1.15463332E-01 -7.78323866E-01 -1.74607367E+00 -6.04837062E-02  1.30442288E-02
 -3.52995112E-02  8.72892530E-03 -2.45878325E-02 -6.81290385E-02  3.71105384E-02
 -3.97956760E-02  1.81566834E-02 -9.55546051E-02 -4.60925140E-04 -1.22545629E-03
  1.66883222E-03  9.26489313E-03 -3.15259786E-02  1.18172463E-01 -8.96901567E+00
 -1.73720329E+00 -1.80423663E+00  7.01746414E-01  1.55602809E-02  1.08264649E-02
 -2.08087664E-02 -7.02963632E-03 -4.39008597E-03  1.07656151E-02 -1.21600709E-02
 -1.23231113E-02  5.73721533E-03 -1.13476056E-01 -5.98805810E-02  2.03722744E-01
  2.90657912E-02 -2.00192638E-01 -6.39074356E-01  6.25465346E-02  6.94215308E-03
  5.02300753E-02 -9.91681244E-03 -2.19430133E-03  2.29053569E-01 -3.46179699E-03
  1.45051899E-01 -2.30070195E-02 -1.78309723E-02  3.15703234E-03  4.84354847E-03
  5.18211167E-03  2.28387036E-02  4.54377983E-02 -7.48557190E-03 -3.60740410E-03
  1.78002938E-02  6.01225206E-02 -1.62380717E-01  6.74553929E-02  1.39729506E-01
  1.62502764E-01  3.65634182E-01 -6.21625658E-01 -9.24009337E-01 -5.07037745E-01
 -2.05004984E-03  1.69846072E-03  8.38419970E-04 -4.93418207E-04  4.45298061E-04
 -3.52750382E-03  1.45070066E-02  1.77778864E-02 -6.63515133E-03  6.53016641E-03
  1.13113731E-03  3.25481121E-03 -6.75445977E-03 -1.42162250E-02  3.56363332E-02
 -1.41260597E-01 -9.93477253E-01 -7.57228101E-04 -2.90310359E-02 -7.83658281E-02
 -1.06872348E-02 -1.28111634E-02 -2.79850540E-04  5.41366708E-03  6.34442249E-03
 -2.52473233E-04  2.79367429E-03  4.34963101E-03  2.78414353E-03  1.14489919E-01
  1.32883432E-01 -8.74498289E-03 -3.70863602E-01 -3.47635735E-01  2.53630700E-01
  3.02292348E-02  3.23218764E-02  4.46883693E-02 -6.69066619E-03 -3.76084649E-02
  8.74196946E-02  1.02284150E-01  1.44639148E-01 -2.56003716E-02 -9.67769665E-02
 -2.30854158E-02 -4.07532430E-02 -8.81697937E-03 -1.63531856E-02 -1.60329566E-02
  2.10082500E-01 -3.13207087E-02 -3.97498518E-02 -7.03966041E-03 -9.78603302E-01
  8.11000509E-01  8.04709985E-01 -4.29658047E-01 -1.11972818E+01 -6.67182504E-01
 -3.83223544E-01  1.11261015E+00  4.04692161E-03  4.43127651E-03  3.50267130E-03
  6.64696827E-04 -1.15783671E-02 -1.86526344E-02 -7.33494235E-02 -1.54898698E-01
  6.27995788E-02 -1.33475315E-01  1.50797808E-02  2.70774437E-02  3.72991611E-02
  4.39516969E-02 -8.38959827E-04 -1.43301166E-01  8.89927485E-02  1.20052799E-01
  3.93191122E-02 -1.36384734E-01  1.89259945E-01 -5.18298236E-02 -7.53064699E-01
  1.49990167E+01  8.66850122E-01  2.47495095E+00  3.93753667E+00 -2.26086344E-03
  5.00696722E-04  1.76707519E-03 -1.56750337E-03  6.76281053E-03  7.94647042E-02
 -7.16164248E-02 -2.27763583E-03 -1.58948892E-03  7.59052973E-02 -1.01419097E-04
  8.05749456E-05 -3.41770097E-03  1.44010953E-02 -1.05190754E-01  5.43710233E-01
  2.05919079E-01 -5.95006701E-01 -5.12423714E-01  5.28486446E-01  2.60520383E-02
  1.41627178E-02 -4.57155307E-02 -1.23056110E-02 -8.01672063E-03  1.79792612E-02
 -1.65914771E-02  2.91873592E-03  6.16319524E-02 -2.06728576E-01 -1.82847236E-01
  1.70816342E-01  4.69510950E-01  2.51067257E-01 -8.35274341E-01 -1.91220408E-02
  2.10801621E-02  3.48268456E-02 -1.92373273E-02  5.58292014E-02  4.10662134E-03
  4.35080690E-02  1.42772945E-01 -7.04006426E-02  2.18283133E-01  1.01964241E-03
  3.57853300E-03 -1.30370211E-02  9.73007403E-03 -1.44062247E-01  8.44261796E-01
  3.97302343E+00  3.05607628E-01 -5.35029428E-03 -1.00191856E+00  4.99167235E-02
  7.63639351E-02  4.65612911E-02 -2.02025288E-02 -3.15792740E-02 -2.06727191E-02
 -6.19045882E-02 -8.84821884E-02 -4.08380951E-02 -2.15960928E-01 -3.65858396E-01
 -2.97860427E-01  1.10032484E+00  1.78012986E+00  1.29044357E+00 -7.79888906E-03
 -3.02829533E-02 -5.03011650E-02  1.75145962E-02 -2.08415974E-02 -6.84584252E-02
 -4.06966322E-02 -6.93221399E-02  7.62600752E-03  6.63646979E-02  4.74169008E-04
  4.75704942E-04 -4.15777163E-03  6.43851694E-03  3.09531851E-02  7.13226294E-03
 -4.86632102E-03  7.24097454E-03  3.54279767E-02 -1.83411431E-01 -1.80817538E-02
 -4.32674206E-03  4.65694658E-02 -3.51955385E-01  1.01155075E-01 -1.48574647E-01
 -7.31147884E-01 -4.12319140E-04  2.91847326E-04  1.82607681E-04 -1.25978478E-04
  2.74892710E-04 -2.87306061E-03 -9.97882780E-04 -3.12955353E-04 -1.01986713E-03
  7.14630878E-03  2.57103045E-04  6.98164798E-04 -1.10251057E-03 -4.50092503E-03
  5.52192589E-03  2.13032645E-01 -7.86828828E+00  1.17378424E+00  1.33583674E+00
 -1.56013865E-01 -8.36498640E-03 -7.14757596E-04  2.50845632E-02  2.70563230E-03
 -8.48109751E-04 -1.10526281E-02  1.69416701E-02  1.18282085E-02 -2.25361897E-02
 -1.19035573E-02 -7.43854840E-02 -1.64094985E-01  1.24009903E-01  3.04788790E-01
  4.29383995E-01  3.61230738E-02 -2.23330147E-02  2.07842992E-02 -1.03623158E-02
  5.81615602E-02  1.45911748E-01 -1.08858591E-01  4.82780909E-02 -2.67984940E-02
  2.02192418E-01  7.10376812E-03  1.30116871E-02  2.63262702E-02  2.94795861E-02
 -4.76900179E-03 -8.96490883E-02  8.12711108E-02  8.95542033E-02 -1.85853017E-02
  9.07292550E-01 -8.43379064E-01 -8.64255286E-01  3.72687322E-01  4.32435843E+00
 -1.03929366E+00 -6.47436974E-01  1.59725019E+00  3.40167315E-03 -4.26412830E-03
 -4.78969730E-04 -2.70465599E-04  5.92570260E-03  2.78151717E-02 -3.77208745E-02
  5.19818365E-02 -3.76473835E-02  1.97158660E-01 -3.24483078E-03 -5.36252267E-03
 -3.53684269E-02 -3.57185834E-02  1.71193411E-02  2.04086871E-03 -9.52167083E-02
 -9.25613298E-02  5.59410900E-02  8.75199442E-01  3.75755185E-01  4.30242370E-01
 -4.29303721E-02  2.43604864E+00  3.28830326E-01  6.08937921E-01  5.95013903E-01
 -3.07900357E-04 -1.34673819E-03 -2.88598870E-04 -4.09083927E-04  3.88917890E-03
  1.46861375E-02 -5.92294677E-02 -1.20459495E-02 -9.97187521E-03  1.24066408E-01
  1.72489986E-04  3.63716020E-04  3.98682035E-04 -6.83436426E-03  4.34195739E-02
 -2.05192011E-01 -3.75678041E+00 -3.45947685E-01 -1.86456603E-01  6.12993013E-01
  3.47256710E-02  5.07559925E-02  2.57488958E-02 -1.53057541E-02 -2.22458095E-02
 -1.09991393E-02 -3.15124884E-02 -4.73604640E-02 -2.69772055E-02 -2.20470423E-01
 -3.12537192E-01 -1.36684571E-01  5.75464505E-01  9.50707434E-01  7.25072818E-01
  1.63970789E-02 -5.39807088E-03  2.34539713E-02 -1.15729403E-02  4.69978886E-02
  7.69728476E-03 -5.85665986E-02  1.39028007E-02 -2.78084203E-02  1.99024940E-01
 -5.84042034E-05 -5.25497468E-04  4.21789657E-03 -1.19849101E-02  1.10251306E-01
 -6.94949207E-01 -2.36804246E+00 -9.08290426E-03  2.77447680E-02  1.04520473E-01
 -1.87417699E-02 -4.21185770E-02 -5.41581100E-02  6.98652001E-03  1.66695647E-02
  2.28284042E-02  2.97429999E-02  5.72434128E-02  5.97929031E-02  3.28002199E-02
  1.39488949E-01  2.74028765E-01 -5.39994563E-01 -1.03801112E+00 -1.08174204E+00
  1.74001313E-02  9.26219267E-03  3.02065598E-02 -1.00143330E-02  1.76504267E-02
  8.73385269E-02 -3.30877274E-02  1.81467316E-02  2.48379762E-03 -3.95847315E-03
  2.04065600E-03  3.09254563E-03  1.58101737E-02  2.10247811E-02  6.17765376E-03
 -1.89044855E-03  2.05936459E-02  2.56781184E-02  3.39040939E-03 -1.78642375E-01
  2.73302908E-02  4.06343996E-02  2.23434543E-02  3.80240527E-01 -2.86202662E-01
 -3.32800847E-01  1.80979111E-02 -5.88414312E-04  7.21579077E-04  3.99951970E-04
 -1.54380283E-04 -1.77061020E-04  3.13029711E-03 -2.80733510E-03 -1.02122415E-03
  5.14822149E-04  6.18491755E-04 -3.92741587E-04 -1.21730319E-03  3.28969221E-03
  1.80594179E-03  2.39978194E-02 -3.24482184E-01 -1.72442380E+00  3.06545107E-01
  9.55783913E-02 -7.29611807E-01  6.23634647E-04  2.56092778E-02  6.76148197E-02
  4.77368118E-04 -1.06126425E-02 -3.03924070E-02 -7.98553283E-03 -3.03255910E-02
 -5.66976875E-02  5.16881178E-02 -1.05791748E-01 -4.54340020E-01  1.47054481E-01
  6.37587656E-01  1.25937412E+00  5.61341532E-02 -7.20344998E-03  3.97364555E-02
 -1.05156054E-02  2.52681521E-02  2.35116752E-01 -9.11549659E-02  7.90164429E-02
 -1.27393507E-02  7.20108629E-02  2.64151892E-06  4.88819029E-06 -1.52200951E-02
  1.28487787E-02 -4.70217127E-03 -2.49542987E-05 -8.50330915E-02  7.17148342E-02
 -2.62783122E-02 -1.16258248E-04 -2.02584824E-02  1.60387390E-02 -6.03439913E-03
  2.45771948E-03  1.76342863E-01 -1.47728989E-01  5.63487710E-02 -1.32785457E-04
 -1.35962481E-03 -1.12484148E-03 -7.21711202E-03 -1.32073937E-03 -2.02801969E-02
 -4.79102497E-02  1.57775779E-02 -7.64031017E-02 -2.49864593E-02 -6.93303757E-08
  7.75108435E-07 -6.67502375E-02  5.62067472E-02 -2.06594297E-02 -4.56904648E-05
 -1.91020568E-01  1.60856018E-01 -5.91078979E-02  8.96582339E-04  2.30269068E-01
 -1.93760705E-01  7.14857661E-02  8.43367583E-04 -6.32650425E-01  5.33441206E-01
 -1.95987619E-01 -2.16899736E-04  1.13602261E-03  2.11393791E-03  9.79312189E-03
  1.56132008E-03  6.92832604E-02  1.33413371E-01 -8.92554474E-02  6.71168759E-02
  5.22107303E-02  5.29836062E-08  1.86626001E-07 -6.87538000E-07  5.35713905E-07
 -6.88206873E-06  7.42342407E-05 -2.99990812E-03 -7.13430886E-01  6.00695953E-01
 -2.19924607E-01  5.03405595E-02 -4.23787857E-02  1.55656457E-02 -2.42036180E-02
  2.03772999E-02 -7.48482326E-03 -2.89528689E-02  2.43597214E-02 -8.94461247E-03
 -4.09831518E-01  3.45087102E-01 -1.26767844E-01  9.68988663E-01 -8.15742683E-01
  2.99769128E-01  2.11931291E-02  4.27206011E-02 -2.50221691E-02  3.28566279E-02
  1.80940451E-02  6.35335874E-02  1.35069835E-01 -6.66953897E-02  1.43983892E-01
  6.21038777E-02 -4.61407097E-07 -1.46963729E-06  4.29460297E-06  7.43627921E-07
  3.29952294E-05 -3.63007813E-04  3.92006914E-04  2.38523273E-01 -2.00551342E-01
  7.37051569E-02  8.55600311E-03 -7.23430903E-03  2.62958157E-03 -3.17692922E-03
  2.68651925E-03 -9.75580111E-04 -1.27682382E-02  1.07948733E-02 -3.93050596E-03
 -2.32345933E-02  1.96417979E-02 -7.10230057E-03 -6.51941910E-02  5.42772272E-02
 -2.04869376E-02  1.21122425E-02  2.92851217E-02 -8.52023939E-03  5.02556316E-02
  1.57493311E-02  4.31824888E-02  1.02349673E-01 -3.27829289E-02  1.66158917E-01
  5.38738052E-02  4.64108556E-07  7.17486387E-07 -2.22724283E-03  1.89615455E-03
 -7.01916152E-04 -4.60174585E-08  2.72779393E-03 -2.27227592E-03  8.23326833E-04
 -4.58888116E-05 -2.04290625E-02  1.72355362E-02 -6.35850455E-03  1.34777068E-04
  2.55697383E-01 -2.15632583E-01  7.92519764E-02 -1.16037335E-03 -2.06317640E-03
  1.70207487E-03 -3.66622426E-06 -6.80722367E-04 -2.17323756E-03 -3.87108602E-03
  3.18422335E-03 -1.13779040E-05 -1.27719045E-03 -3.33845517E-07 -1.04878932E-06
  2.94914586E-06  1.03701529E-06  2.19440810E-05 -2.32221394E-04 -1.16412459E-03
  3.72765857E-01 -3.13915328E-01  1.14959926E-01  1.23505025E-02 -1.03815787E-02
  3.85811307E-03 -5.31617278E-03  4.46961269E-03 -1.66151374E-03 -1.23040268E-02
  1.03333669E-02 -3.83649200E-03 -6.75626544E-02  5.68473374E-02 -2.11613433E-02
 -4.09097040E-02  3.51673338E-02 -1.20619568E-02  3.12005179E-02  3.73618718E-02
 -6.71045217E-02 -1.16565777E-01 -1.78093753E-03  1.33910417E-01  1.75803313E-01
 -2.69637903E-01 -4.00088429E-01  9.55211427E-03 -1.90000660E-06 -3.68237344E-06
 -1.46197839E-03  1.24093580E-03 -4.57853349E-04  1.95272121E-05 -1.06658213E-02
  9.01868471E-03 -3.30516452E-03  4.62824605E-04 -1.44523249E-01  1.21845926E-01
 -4.49190007E-02 -4.45942130E-03 -3.14948402E-01  2.63990596E-01 -9.48094822E-02
 -8.00883193E-04 -7.10236522E-04  2.02817620E-03  4.63724083E-03  3.28590746E-04
  1.72114540E-02  2.70272555E-02 -2.92328261E-02 -2.21778056E-02  6.31518024E-03
  1.87997538E-06  3.33911900E-06  4.24275611E-02 -3.57741945E-02  1.31442263E-02
 -1.48058520E-05  1.38441289E-01 -1.16697509E-01  4.28793387E-02 -1.65891115E-04
 -1.79431271E-01  1.51811763E-01 -5.58032677E-02  7.70454091E-03  9.19142327E-01
 -7.75166213E-01  2.86203566E-01 -2.50774987E-04 -1.36741708E-03 -7.26442227E-04
 -5.96039519E-03 -1.16884842E-03 -7.85650535E-03 -3.24347909E-02 -1.03304178E-02
 -1.19197511E-01 -2.50820683E-02  3.55383042E-07  1.04770288E-06 -2.39243232E-06
 -3.65379383E-06  8.03590242E-06  5.89050201E-05 -2.20515150E-03 -3.86005755E-01
  3.25178289E-01 -1.18927042E-01  4.33996813E-02 -3.65502584E-02  1.34268675E-02
 -2.05299894E-02  1.72900517E-02 -6.35167663E-03 -2.79124278E-02  2.35060912E-02
 -8.63480546E-03 -3.35252666E-01  2.82346015E-01 -1.03720909E-01  7.44628687E-01
 -6.27100194E-01  2.30462339E-01  1.23859259E-02  1.08978378E-02 -3.13034159E-02
 -7.17547115E-02 -5.06137783E-03  4.26956435E-02  3.01081080E-02 -1.16824515E-01
 -2.95740699E-01 -2.57424427E-02  3.53291856E-07  1.04665038E-06 -2.42567790E-06
 -3.53845201E-06  1.13580355E-05 -5.54208392E-05  5.63431733E-04 -3.84156336E-01
  3.24023121E-01 -1.19259780E-01  2.73084048E-02 -2.30140164E-02  8.44977138E-03
 -1.32548401E-02  1.11698092E-02 -4.10132970E-03 -1.46838134E-02  1.23815748E-02
 -4.54263819E-03 -2.27801809E-01  1.91929443E-01 -7.04936583E-02  5.64957867E-01
 -4.76057761E-01  1.74838038E-01  3.42054263E-02  4.89060784E-02 -6.42136194E-02
 -7.66323093E-02  6.85152253E-03  1.43887807E-01  2.11948873E-01 -2.62687601E-01
 -2.81973337E-01  3.57600632E-02  1.03264218E-06  1.57257775E-06 -1.65367839E-03
  1.39595710E-03 -4.96663171E-04 -1.43736575E-06 -8.00476147E-03  6.75169770E-03
 -2.46157202E-03 -9.29196789E-05  3.48637203E-02 -2.94089148E-02  1.08513491E-02
  2.44372830E-04 -1.78491921E-01  1.50380751E-01 -5.53811597E-02  3.52385863E-04
  5.75346855E-04 -5.79054187E-04 -3.35143219E-04  1.48962132E-04  2.61861549E-03
  4.86309395E-03 -3.58110167E-03  1.40658436E-03  1.77561755E-03 -2.83352509E-07
 -8.93041912E-07  2.52834903E-06  8.69862579E-07  1.40023671E-05 -1.53501437E-04
 -2.03556564E-03 -7.55377703E-01  6.37022035E-01 -2.34242266E-01  3.43337770E-02
 -2.89096156E-02  1.06435003E-02 -1.60361937E-02  1.35035198E-02 -4.97092468E-03
 -2.40158291E-02  2.02148403E-02 -7.44707004E-03 -2.60815971E-01  2.19658216E-01
 -8.08414214E-02  6.97778451E-01 -5.87332652E-01  2.16318324E-01  1.07597661E-02
  3.12145115E-02 -1.32800014E-03  7.84480135E-02  1.98164418E-02  3.37980932E-02
  9.74287508E-02 -4.81345147E-03  2.42868572E-01  6.16133588E-02 -6.31886489E-03
 -1.10412900E-02 -9.24180102E-03 -7.28304449E-03  1.02531524E-02  8.48129121E-02
 -7.92474468E-02 -6.84519461E-02  7.02768336E-02 -1.35263379E+00  2.82479481E-01
  2.81925322E-01 -1.47196853E-01 -1.13346861E+01 -9.93189714E-01 -5.78514280E-01
  1.63651073E+00  8.03901778E-04  4.56012999E-03  4.84632845E-03 -1.06274247E-03
 -3.07543528E-03 -3.29523331E-02  2.62131537E-02 -2.33627911E-03  1.43015577E-03
 -2.91066651E-02  5.66490641E-03  1.36305120E-02 -2.75191910E-02 -7.81230815E-02
 -1.23930953E-01 -1.91141948E-01 -6.46202853E-02 -1.85762532E-01 -2.97331557E-01
  1.49110478E+00  3.23642575E-01  7.41184892E-01  9.73705641E-01  1.21739105E+01
 -3.92396597E-01  2.37385616E-01  1.91301486E+00 -3.35647712E-03  6.46321107E-03
  4.94495273E-03 -1.65253861E-03 -1.48773450E-03 -1.33665976E-01  2.35964422E-02
  4.61017703E-02 -5.89691488E-02  2.72122407E-01 -5.34917312E-04 -1.27510106E-03
  3.52408769E-04  1.59311467E-02 -8.17721078E-02  2.95704983E-01  5.44639475E-01
  7.99828743E-01  9.69955426E-01  5.58979154E-02 -2.65316643E-02 -4.14447531E-02
 -2.71071816E-02  1.28678034E-02  1.90864815E-02  1.03865056E-02  1.39563470E-02
  3.07335739E-02  3.85725791E-02  2.30507643E-01  3.06788656E-01  9.04673835E-02
 -6.59361415E-01 -9.81464614E-01 -5.41502357E-01  1.53158021E-02 -6.82799530E-02
 -5.86291395E-02  1.53544525E-02  3.42754265E-02  9.53523035E-02 -2.27805158E-01
 -1.52089123E-01  3.74475945E-02  1.47710900E-01 -6.04566327E-04 -1.48472430E-03
  8.50957694E-04  1.66635647E-02 -8.91292923E-02  3.33597773E-01  3.23707533E+00
  2.67689867E-01  4.53410373E-01  3.64874407E-01  1.18903308E-02  1.51702095E-02
  3.21115448E-03 -4.71599736E-03 -5.47302483E-03  1.82797510E-04 -1.58780561E-02
 -2.52346318E-02 -1.76188001E-02 -4.74395480E-02 -3.01825382E-02  6.85890940E-02
  4.80102906E-01  5.55229510E-01 -3.34739756E-02  5.58730018E-02  2.12302851E-03
  3.53583693E-02 -4.51540018E-03 -1.36873897E-02  1.80176760E-01  1.78844965E-02
  1.49485807E-01 -3.22373494E-02  1.09734621E-02  3.49382974E-03  6.41220328E-03
  1.57527131E-02  5.06469874E-04 -4.95174154E-02 -3.56193897E-02  2.85533640E-02
  7.98624183E-03 -7.05025722E-02  2.19355026E-01 -8.26516140E-03 -2.87138114E-02
 -5.15090348E-02  2.06680230E-02  1.27913997E-01  2.19234049E-01  1.83551149E-01
  3.13081110E-03 -1.88159483E-03  7.53413353E-05  1.82391106E-04  5.50951847E-04
  1.30538977E-02 -8.61126066E-03 -4.34414583E-03  3.33318715E-03 -7.04772684E-03
  2.01891258E-04  1.15921416E-04  3.84538413E-03 -1.93780392E-02  1.67933715E-01
 -9.31473474E-01 -4.75195340E+00  1.77373356E-01  7.42140666E-02 -3.67153475E-01
  5.84446966E-02  7.88276699E-02  2.54432678E-02 -2.33342922E-02 -3.16541517E-02
 -1.06310099E-02 -7.81761110E-02 -1.03755517E-01 -2.96573723E-02 -2.10862216E-01
 -2.94941889E-01 -1.19195266E-01  1.41632658E+00  1.89803700E+00  5.85376050E-01
 -1.83436007E-02 -1.37431553E-02 -7.71273312E-03 -5.73851464E-03  5.36796012E-02
  3.39454734E-02 -1.09501576E-01 -9.94721178E-02  3.07468241E-02  2.51910803E-02
  3.86997478E-06  6.39989517E-06  3.48043592E-02 -2.93190622E-02  1.07312164E-02
 -4.69643216E-05  8.53151352E-02 -7.17816312E-02  2.62554623E-02  8.48195580E-04
 -3.16390590E-01  2.66387942E-01 -9.73219785E-02  1.95967115E-02  3.74905647E-01
 -3.11670966E-01  1.12535567E-01 -6.50173189E-04 -6.99348545E-04  1.48455410E-03
  2.95190573E-03  1.31845794E-04 -1.24292705E-03  8.78350779E-04  5.63576320E-03
  2.04126919E-02  2.79311897E-03  1.67214453E-07 -3.63582732E-06 -2.00425026E-02
  1.70119584E-02 -6.05900255E-03  1.55359668E-04 -4.56019308E-02  3.87113335E-02
 -1.37629302E-02 -1.60271004E-03  2.19939817E-01 -1.86791218E-01  6.72267370E-02
 -2.09641167E-02 -1.96953602E-01  1.66189996E-01 -6.42652175E-02  6.64510626E-04
  1.07543230E-03 -1.08031253E-03 -5.77814347E-04  2.88663198E-04  2.10037316E-02
  3.29394558E-02 -3.56151064E-02 -2.66955077E-02  7.39841672E-03 -4.92497597E-07
 -1.62517073E-06  5.18370236E-06 -1.04437123E-06  4.33591460E-05 -3.51795533E-04
 -1.60356803E-03 -1.51831796E-01  1.26433806E-01 -4.64702362E-02  4.76903293E-03
 -3.99171054E-03  1.50624165E-03 -2.02575992E-03  1.69377682E-03 -6.38733366E-04
 -5.10991843E-03  4.29333610E-03 -1.62357354E-03 -2.66608899E-02  2.22230051E-02
 -8.35021180E-03  1.34224578E-01 -1.12193057E-01  4.22412073E-02  1.10165670E-02
  7.87911486E-03 -3.01455468E-02 -7.63387217E-02 -6.67330524E-03  3.17558477E-02
  9.30475519E-03 -1.03112648E-01 -3.07832874E-01 -3.43225931E-02  3.28616296E-07
  8.95018205E-07 -1.40824051E-06 -6.02107377E-06  2.93982348E-05 -5.18740329E-05
 -3.58705166E-03 -8.41832531E-01  7.07949659E-01 -2.60658612E-01  6.09383768E-02
 -5.13454815E-02  1.88746618E-02 -2.87393869E-02  2.42154154E-02 -8.90237229E-03
 -4.01081869E-02  3.37944545E-02 -1.24145183E-02 -4.71241217E-01  3.97058788E-01
 -1.46014399E-01  1.13613420E+00 -9.57745314E-01  3.52001052E-01 -3.11823608E-02
 -6.19357944E-02  3.78342522E-02 -4.25166953E-02 -2.55417279E-02 -1.15251108E-01
 -2.21986553E-01  1.48140452E-01 -1.12071126E-01 -8.66901696E-02 -4.99697926E-06
 -9.18849625E-06  5.47115302E-03 -4.62677870E-03  1.76879479E-03  5.07697451E-05
  9.34516181E-03 -7.91161369E-03  3.00049478E-03 -2.65934586E-04  4.51359534E-03
 -3.75421188E-03  1.50973484E-03  2.82721927E-04 -3.72821022E-02  3.11883344E-02
 -1.17062089E-02 -1.62667902E-04 -2.82322271E-04  2.28390364E-04 -1.84823335E-05
 -9.65139763E-05 -5.46804068E-04 -2.35941804E-03 -9.03816723E-04 -9.20760033E-03
 -1.88777897E-03  1.84221478E-07  1.02737571E-06 -6.49655887E-06  1.55761290E-05
 -1.63606626E-04  1.01971341E-03  6.76351400E-03  6.85752168E-01 -5.78473758E-01
  2.12409365E-01 -5.41750398E-02  4.55086947E-02 -1.67665324E-02  2.55360832E-02
 -2.14602785E-02  7.90245877E-03  3.59284849E-02 -3.00953795E-02  1.11249746E-02
  4.18245734E-01 -3.51864797E-01  1.29410616E-01 -9.84831523E-01  8.26282471E-01
 -3.04735025E-01  7.79532396E-03  6.97119318E-03 -1.95621138E-02 -4.45115152E-02
 -3.16485219E-03  3.24762948E-02  3.64534225E-02 -7.31225326E-02 -1.39239457E-01
 -4.93860770E-03 -2.27398433E-03 -3.92215290E-03 -1.85388105E-02 -8.64077697E-03
  3.63906528E-02  8.45197149E-03 -3.62322941E-02 -3.08274303E-02  3.31124722E-02
  5.05512933E-01  3.21699030E-01  2.85507339E-01 -2.62478602E-01 -1.96424213E+01
 -2.91435829E+00 -3.31746762E+00  3.83029179E-01  3.77864550E-03  4.38358902E-03
  5.95702785E-03 -9.38057345E-04 -4.83819501E-03 -7.06105447E-02 -3.02746034E-02
 -1.05564641E-01  3.29625351E-02 -5.18336633E-02 -1.34711665E-02 -2.35826703E-02
  5.80255500E-03 -2.49326488E-02 -8.66290646E-02  9.72886511E-02  2.35065598E-02
 -4.25794949E-02 -1.91792400E-01  2.50280931E-01  3.77183723E-01  2.81440641E-01
 -4.52640050E-01  1.97023425E+01  5.17901597E-01  1.61149059E+00  2.71522784E+00
 -1.57172796E-03  2.88758701E-03  2.25600549E-03 -7.88270345E-04 -4.28412145E-04
 -1.35272849E-02  6.27945996E-02  5.57802473E-02 -1.52285897E-02 -2.76677265E-02
  1.95388934E-03  5.53157951E-03 -1.06995058E-02 -2.77233836E-02  6.64692255E-02
  2.88085257E-02  4.71160689E+00  1.55129214E-02 -3.58568290E-01 -1.02658235E+00
  4.15545385E-02  3.89513958E-02 -2.82534700E-02 -1.92635858E-02 -1.79539988E-02
  1.33769197E-02 -3.00540712E-02 -2.85659096E-02  1.93660842E-02 -3.09906648E-01
 -2.90866235E-01  2.09657784E-01  7.21792178E-01  5.43396619E-01 -8.53419139E-01
  4.67824743E-03  1.15697001E-02 -2.10934480E-02  1.85310198E-02 -9.58930074E-02
  7.27097556E-02  1.38711493E-02 -8.31401461E-02  7.73173447E-02 -3.74323248E-01
  1.44890300E-03  3.98771069E-03 -6.71469697E-03 -2.43956265E-02  6.71961861E-02
  3.53333570E-02  2.01043061E+00  3.47661246E-01  5.96719515E-01  5.00341768E-01
  2.44183675E-02  6.56578250E-03 -6.09371974E-02 -1.16135499E-02 -3.55748618E-03
  2.77971019E-02 -1.64169766E-02 -2.21889284E-03  4.69621368E-02 -1.80801126E-01
 -5.10982982E-02  4.44338140E-01  5.76750682E-01  3.67485365E-01 -8.61369065E-01
 -3.13490545E-02  3.33705253E-02 -5.39716315E-04  3.37224132E-03 -4.90925437E-02
 -1.66595056E-01  1.34326486E-01 -1.42040140E-02  9.09902098E-03 -1.58742769E-01
  3.04707178E-03  5.96758367E-03  2.12098413E-02  2.20611083E-03 -6.25584621E-02
 -4.05291071E-02  2.67242072E-02  2.37135488E-03 -7.99378231E-02  2.02223476E-01
  6.35033155E-02  2.64221626E-03 -1.98063988E-01 -1.50435071E+00 -2.18808656E-01
 -2.99664501E-01 -1.08914737E-01  2.66819024E-03 -8.45450046E-04  9.23942861E-04
 -9.44407436E-05  3.22637065E-04  1.91474248E-03  2.43679423E-03  4.89631502E-03
 -1.55536197E-03  1.60309391E-03 -1.68200533E-04 -5.41994740E-04  1.61979533E-03
  2.27473342E-04  6.24391583E-03 -3.93695962E-02 -6.29949620E+00  5.07448153E-01
  9.32560495E-01  9.00077473E-01  9.85895338E-03  7.49005213E-03 -1.15454128E-02
 -5.30341046E-03 -3.69971047E-03  7.10316663E-03 -8.35200650E-04 -3.51266090E-03
 -6.82125627E-03 -1.07250268E-01 -6.38683598E-02  1.73343769E-01  4.52177028E-01
  4.12078526E-01 -3.40631817E-01  1.84126407E-02 -4.95393862E-02 -3.19404695E-02
  6.80433333E-03  3.90241643E-02  9.61475608E-02 -1.87239729E-01 -1.14950351E-01
  2.99698887E-02  1.16623689E-01 -9.73211853E-07 -1.61565232E-06  3.06268273E-02
 -2.58118561E-02  9.48594198E-03  1.93510006E-06  1.02519619E-01 -8.63992015E-02
  3.17314575E-02  1.19048530E-04 -2.60509553E-01  2.19724218E-01 -8.07504472E-02
 -2.62109673E-03  4.75153565E-01 -4.00834176E-01  1.47275103E-01 -1.14590901E-04
 -4.01707767E-04 -6.28669533E-05 -1.27297645E-03 -2.88602347E-04 -2.43033062E-02
 -3.42963319E-02  4.61916176E-02  5.76632717E-02 -4.31504175E-03 -2.25011229E-06
 -3.96638517E-06 -5.66779391E-02  4.77613095E-02 -1.75427549E-02  1.96362223E-05
 -1.90341894E-01  1.60410372E-01 -5.89064694E-02 -1.72201020E-04  3.26167401E-01
 -2.74811287E-01  1.00663962E-01  2.82238106E-03 -2.24865717E-01  1.89860550E-01
 -6.92232123E-02  1.01524369E-03  2.15494538E-03 -1.07432940E-03  2.25665901E-03
  9.83883718E-04 -3.99991254E-02 -6.20552697E-02  6.94336980E-02  5.85520045E-02
 -1.33900468E-02  3.80375509E-07  1.09294745E-06 -2.25623020E-06 -4.84075780E-06
  8.70830295E-06  4.48031030E-05  4.18435370E-04 -4.91093345E-01  4.13498382E-01
 -1.51893489E-01  3.77843212E-02 -3.18194396E-02  1.16751440E-02 -1.70350892E-02
  1.43454939E-02 -5.26370689E-03 -3.16611472E-02  2.66659568E-02 -9.78318109E-03
 -2.58160240E-01  2.17385260E-01 -7.97721539E-02  6.30909067E-01 -5.31285340E-01
  1.94879645E-01  1.55505605E-02  3.98627524E-02 -8.30488450E-03  7.89915985E-02
  2.26898572E-02  4.25861274E-02  1.22713700E-01 -6.62227269E-03  3.04059957E-01
  7.72114055E-02  2.78231086E-07  7.84035380E-07 -1.48716645E-06 -4.03796779E-06
  7.20138017E-06  4.34969859E-05  5.46640938E-04 -3.49173328E-01  2.94358047E-01
 -1.08058119E-01  3.12207481E-02 -2.62966931E-02  9.65098064E-03 -1.40267798E-02
  1.18145787E-02 -4.33591086E-03 -2.66855941E-02  2.24755954E-02 -8.24958529E-03
 -2.09025467E-01  1.76070452E-01 -6.46102884E-02  4.98082081E-01 -4.19443766E-01
  1.54021947E-01 -9.91298695E-03 -1.93750246E-02  1.24003739E-02 -1.15108074E-02
 -7.79081781E-03 -3.43157965E-02 -6.27964213E-02  4.79556017E-02 -1.23896566E-02
 -2.22302169E-02  2.26896156E-07  5.01978818E-07  1.21557508E-02 -1.02395446E-02
  3.75174527E-03 -4.41001500E-06  1.84503861E-02 -1.55431191E-02  5.69695207E-03
  1.74145521E-05 -4.50707742E-03  3.80137862E-03 -1.43237659E-03 -3.37783440E-04
 -2.09564399E-01  1.76490006E-01 -6.48860115E-02  5.68853983E-04  1.03368151E-03
 -8.06003700E-04  1.50277155E-04  3.58999013E-04 -3.00930626E-03 -4.62432786E-03
  5.26976082E-03  4.66894922E-03 -9.57543979E-04 -6.38636484E-08 -1.63460989E-07
  1.53974723E-07  1.64013840E-06 -1.45823490E-05  9.99131474E-05 -1.00626471E-03
 -8.86160532E-03  7.77556179E-03 -2.60232065E-03  1.02145560E-02 -8.61404798E-03
  3.15872934E-03 -5.01885678E-03  4.23102901E-03 -1.55164782E-03 -5.01254907E-03
  4.24039534E-03 -1.55358377E-03 -8.76356757E-02  7.38249206E-02 -2.70801552E-02
  9.35816952E-02 -7.89331842E-02  2.88717294E-02 -6.35911165E-02 -1.11707311E-01
  9.48297478E-02  8.53201569E-03 -3.57826596E-02 -2.44920659E-01 -4.24908363E-01
  3.71536094E-01  6.72064189E-02 -1.31888428E-01  1.20150000E-04  4.37063823E-04
  2.99456531E-02  7.28938090E-02  1.01828265E-01 -9.33121438E-03  7.25652745E-02
  1.78593957E-01  2.52123643E-01  5.13056903E-01 -1.12001977E-01 -9.25379921E-01
 -2.15875415E+00  8.23954615E+00 -1.61987396E+00 -6.99036051E+00 -1.38022963E+01
  4.45078818E-03 -3.26510417E-03 -2.25927770E-03  1.49874100E-03 -3.36027067E-03
 -1.23287918E-01  3.37891386E-02  2.80929272E-03 -2.55006951E-02  1.14742199E-01
 -1.88683215E-02 -3.25744960E-02 -1.35279881E-02 -4.68473572E-02 -8.38363873E-02
  1.34245211E-01 -8.87999739E-03 -7.30671356E-02 -1.70191736E-01  2.95153502E-01
  5.54560248E-01  5.88045501E-01 -1.91049353E-01 -6.40640091E+00  4.74277976E+00
  6.58004554E+00  2.59121778E+00 -3.06552707E-04 -1.36757622E-03 -2.68237276E-03
  1.05283887E-03 -2.04505319E-03  5.76349997E-02  1.78306034E-03  4.47745318E-02
 -9.95322834E-03  8.28429160E-03 -6.48787229E-04 -1.41715757E-03 -9.90535599E-04
  2.41903696E-02 -1.55198198E-01  8.35349469E-01  1.44489906E+01  6.05147581E-02
 -6.81361158E-01 -2.05228842E+00  1.25045820E-02 -1.21701427E-02 -7.36603379E-02
 -5.90695745E-03  3.81101656E-03  2.95155448E-02 -8.28197344E-03  2.58545339E-02
  9.72690693E-02 -9.59420078E-02 -1.36941427E-02  2.73441077E-01  5.68136800E-01
 -1.47715843E-01 -2.24019380E+00 -9.85541130E-03  3.68196078E-02  2.73801137E-02
 -6.18938530E-03 -2.62283493E-02  1.13365416E-01  8.54109030E-02  1.38689930E-01
 -2.05220223E-02 -1.05068147E-01  2.23820796E-04  3.72538103E-04  1.61820573E-03
 -1.27525396E-02  1.06522093E-01 -6.72561006E-01 -1.17093421E+01 -7.71480278E-01
 -1.28343191E+00 -1.00171702E+00 -7.04134653E-02 -6.63137641E-02  4.70534449E-02
  2.99392401E-02  2.72928781E-02 -2.24676894E-02  7.68771411E-02  8.12978045E-02
 -2.71313927E-02  3.65999554E-01  2.85381772E-01 -4.06176604E-01 -1.67721984E+00
 -1.71629533E+00  7.48060228E-01 -8.64783988E-03 -2.94168307E-02 -2.68339908E-02
  3.11490466E-03  3.68868239E-02  6.33376058E-02 -1.37069330E-01 -1.19209248E-01
  4.14134556E-02  9.51203561E-03  4.96016758E-03  8.64073515E-03  1.44429307E-03
 -9.99705370E-03 -3.19286987E-02 -3.60918998E-02 -8.69295642E-04 -2.09160253E-02
 -5.41979815E-02  1.81384652E-02  2.87830374E-02  1.36931046E-02 -5.58522079E-02
 -7.38950793E-01 -1.30032124E-01 -4.64331514E-01 -8.43775568E-01  3.59113149E-03
 -5.15271150E-04  1.76600739E-03 -2.19289438E-04 -1.46459473E-04  1.89504192E-02
 -5.18835234E-04  9.26441174E-03 -3.16995597E-04 -7.58506243E-03  6.58308711E-05
  1.09632131E-04  4.69273622E-04 -3.66644643E-03  2.51735141E-02 -2.39617103E-01
 -4.71880306E+00 -2.57572302E-02  2.69339613E-01  8.17060014E-01  1.97500990E-02
  2.07974818E-02 -7.29617350E-03 -8.59335380E-03 -8.61241574E-03  4.36602223E-03
 -1.96333473E-02 -2.44817131E-02 -3.13651041E-03 -1.12287970E-01 -9.44865618E-02
  1.06329733E-01  4.19395818E-01  4.27082070E-01 -1.93958984E-01  3.81741359E-02
 -3.80484167E-02 -1.39328403E-02  5.79973238E-03  1.54035211E-02  1.66414847E-01
 -1.47399673E-01 -4.90679914E-02  2.48964767E-02  4.03184241E-02  5.47306155E-07
  6.31436402E-07  5.00308791E-02 -4.21766242E-02  1.54615379E-02  4.74532738E-06
  1.55899142E-01 -1.31404587E-01  4.81879946E-02 -4.41165650E-05 -2.16964942E-01
  1.82978335E-01 -6.67648032E-02 -1.78614096E-03  1.09038007E+00 -9.18142265E-01
  3.40169778E-01 -1.69960164E-03 -2.24218449E-03  3.41458966E-03  5.02018645E-03
 -1.30197849E-04 -8.87126297E-03 -6.13446311E-03  2.45339230E-02  6.25936589E-02
  5.54681015E-03  1.03324323E-06  1.44633455E-06  3.47044663E-02 -2.92312405E-02
  1.07532259E-02  1.98719755E-06  1.34281249E-01 -1.13134508E-01  4.15775176E-02
 -9.08552568E-05 -2.19434846E-01  1.84760845E-01 -6.78940664E-02  2.41721398E-03
 -8.47657938E-01  7.12038181E-01 -2.62303376E-01 -4.32954434E-04 -2.28615818E-03
 -1.16659291E-03 -9.81019712E-03 -1.94109016E-03  3.49933330E-02  6.32020905E-02
 -5.01068728E-02  6.65361062E-03  2.16379265E-02  2.73863002E-07  6.96005861E-07
 -6.41495699E-07 -6.72705479E-06  3.42297578E-05 -1.45017017E-04 -2.86466762E-03
 -4.49174638E-01  3.78701453E-01 -1.38566220E-01 -1.08776545E-03  9.20753922E-04
 -3.21490791E-04  1.59161761E-04 -1.35595163E-04  4.31386577E-05  3.71169768E-03
 -3.13466443E-03  1.12941707E-03 -9.17702891E-03  7.72472178E-03 -2.90239241E-03
  1.18522727E-01 -9.98640786E-02  3.70964588E-02  1.66278516E-02  4.44743607E-02
 -6.66512743E-03  9.65667848E-02  2.63650800E-02  5.18040643E-02  1.48749689E-01
 -8.77097222E-03  3.66445308E-01  9.34492943E-02  1.35348778E-07  4.15386818E-07
 -1.09166525E-06 -7.47518664E-07 -8.73703591E-06  1.13098775E-04  1.37255571E-03
 -2.07208917E-01  1.74748755E-01 -6.39682746E-02 -9.67531400E-03  8.17544228E-03
 -3.01107540E-03  4.69956499E-03 -3.96967631E-03  1.46214738E-03  5.15671786E-03
 -4.37044224E-03  1.60851738E-03  8.10575590E-02 -6.84140044E-02  2.52111282E-02
 -9.82753702E-02  8.33452432E-02 -3.07284705E-02  4.08333681E-02  6.10493868E-02
 -7.35641339E-02 -7.45315754E-02  1.10845921E-02  1.63398553E-01  2.50059562E-01
 -2.87589954E-01 -2.61172162E-01  5.07712998E-02 -1.34263732E-06 -2.23348090E-06
 -1.66409947E-02  1.40242487E-02 -5.14572881E-03  7.06387455E-06 -2.10514982E-02
  1.77414582E-02 -6.50727209E-03  1.96397863E-05 -3.63864140E-02  3.06584693E-02
 -1.12599310E-02 -4.74649494E-05  4.03796666E-01 -3.40217638E-01  1.25069690E-01
 -6.95149997E-04 -1.27566519E-03  9.68808889E-04 -2.69967113E-04 -4.53254012E-04
 -1.27589059E-04 -8.85377947E-04 -6.11018950E-04 -4.30993371E-03 -8.12654736E-04
 -3.08132275E-08 -7.31252897E-08  1.42394784E-08  9.76764012E-07 -7.20897748E-06
  4.27295773E-05  9.09374442E-04  7.70335231E-01 -6.49075835E-01  2.38152084E-01
 -6.21377138E-02  5.23439165E-02 -1.92207749E-02  2.83799284E-02 -2.39072079E-02
  8.77853947E-03  4.93549761E-02 -4.15722682E-02  1.52675689E-02  4.46930195E-01
 -3.76510679E-01  1.38241464E-01 -9.30585166E-01  7.83849282E-01 -2.87819887E-01
  2.94148624E-03  7.80070422E-03 -1.26498443E-03  1.65884143E-02  4.57635921E-03
  1.22507721E-02  3.19266588E-02 -5.95715359E-03  6.53955225E-02  1.84400999E-02
  6.60118345E-04  1.97424240E-03  1.58636259E-03  2.67860092E-02  6.78836965E-02
 -6.28869044E-03  3.71080556E-02  1.35247641E-01  2.48604538E-01 -4.23142636E-01
 -7.32640573E-01 -1.40089222E+00 -1.44773173E+00 -5.95130848E+00 -3.92710499E+00
 -5.19087903E+00 -1.44458819E+00  7.10756068E-04  2.04035525E-03  1.74151808E-03
 -1.10683584E-04 -3.04481696E-03 -1.24781988E-01  1.21048432E-01  2.46448726E-02
 -7.35949301E-03 -9.25646734E-02  2.13022239E-02  4.00703923E-02 -8.50920794E-03
 -1.98608387E-02 -2.65931665E-02 -2.68555574E-01 -7.66448044E-02 -1.30947802E-01
 -1.08902256E-01  6.30503719E-01  3.89954924E-01  1.06439720E+00  1.63855289E+00
  9.81594181E+00  1.14412188E+00  2.25505654E+00  2.44379101E+00  2.27868086E-03
  4.33995577E-03  5.03794290E-03 -8.32149549E-04 -4.43981900E-03 -5.90720554E-02
  3.61152880E-02 -1.96605397E-02  7.98274745E-03 -5.79932527E-02 -1.39350063E-03
 -3.75789772E-03  5.57256871E-03  2.70354355E-02 -1.41529226E-01  7.53020371E-01
  4.89866502E+00  4.86038545E-01  2.77400154E-01 -8.15354650E-01  2.73142314E-02
  1.40934979E-02 -4.99502782E-02 -1.10588693E-02 -6.23397637E-03  1.87877356E-02
 -3.44965252E-02 -1.17263567E-02  7.96100205E-02 -1.20359015E-01 -1.10381029E-01
  8.86951765E-02  5.56949370E-01  1.40957637E-01 -1.41716148E+00 -2.22955616E-02
 -1.55916531E-03 -3.43263973E-03 -5.03511211E-03  3.42409406E-02  2.22676147E-02
 -5.05853089E-02 -2.86536449E-03 -1.03683297E-02  1.08448360E-01 -7.34894050E-04
 -2.14408127E-03  4.73983494E-03  7.90139032E-03  1.80190600E-02 -5.57224814E-01
 -5.53888732E+00 -2.52160862E-01 -6.80156953E-01 -1.03730181E+00 -5.99706218E-03
 -9.83370028E-03 -7.35240727E-03  1.41450111E-03  2.58661654E-03  2.45186599E-03
  1.86710491E-02  2.76406275E-02  1.48922590E-02 -5.76869164E-02 -7.33682249E-02
 -1.36698516E-02 -5.03269246E-01 -6.57659649E-01 -1.63539176E-01 -6.73641628E-02
  2.57661879E-02 -2.75786616E-02  6.61599781E-03 -3.21635623E-02 -2.09177017E-01
  9.07883799E-02 -1.07906778E-01  3.81888411E-02 -1.88297934E-01  8.07451254E-03
  1.28655329E-02  1.27408875E-02  2.10000427E-02  1.60192872E-02 -2.80570545E-02
  2.37406586E-02  3.64989403E-02  2.26792752E-02 -2.21714370E-01 -2.09691649E-02
  4.09939478E-03  7.89525144E-02  2.64693007E+00 -1.57278274E-01  1.17453593E-01
  8.28177009E-01  5.23097923E-05 -4.83273344E-05  2.99978315E-05 -2.09895537E-05
  1.33376424E-04 -2.82325712E-03 -5.09705728E-03 -1.45074476E-02  6.21216226E-03
 -1.60380582E-02 -2.96781931E-04 -9.83766065E-04  3.19380610E-03 -1.06592149E-03
  4.76618970E-02 -5.16346912E-01 -4.85950941E+00  6.13387302E-01  5.97196009E-01
 -3.56482664E-01  3.48888740E-03  2.56181487E-02  5.84773015E-02  4.14069534E-04
 -9.27086403E-03 -2.65800130E-02 -2.16033106E-02 -4.31052299E-02 -4.75558582E-02
  9.84359409E-02 -3.55744216E-02 -4.14942508E-01  4.19924070E-01  9.28789383E-01
  1.17190310E+00 -1.03987390E-01  5.61077531E-02 -2.74880648E-02  6.96130058E-03
 -6.15281177E-02 -3.51659867E-01  1.99039550E-01 -1.23874858E-01  4.59620742E-02
 -3.13699753E-01  1.10914437E-06  1.15913837E-06  9.29279760E-02 -7.83010972E-02
  2.87644807E-02  1.44610491E-05  2.78949648E-01 -2.35009003E-01  8.63279762E-02
  3.41642969E-04 -3.99047036E-01  3.36201428E-01 -1.23949131E-01 -1.07695117E-04
  1.51322405E+00 -1.27740692E+00  4.67587044E-01  1.95681066E-03  5.39967800E-03
 -5.82825086E-04  1.24492909E-02  3.28977168E-03 -3.89589389E-03 -2.01870225E-03
  1.14985094E-02  3.16683641E-02  3.20515447E-03 -4.03054855E-06 -7.43565753E-06
 -1.01141625E-02  8.50184669E-03 -3.12584853E-03  4.30777484E-05  1.77201800E-02
 -1.49867266E-02  5.47688387E-03 -3.28512510E-04 -1.11679466E-01  9.47392696E-02
 -3.47156047E-02  2.41156278E-03 -1.09940087E+00  9.27839013E-01 -3.39546707E-01
  1.86222954E-03  3.05666009E-03 -3.03148043E-03 -1.63095782E-03  8.10688410E-04
  5.56304881E-02  1.02339728E-01 -7.73541581E-02  2.27387208E-02  3.64726247E-02
  2.71400896E-07  7.91990558E-07 -1.75140595E-06 -2.93808733E-06 -3.72026706E-06
  1.44940873E-04  1.13949391E-03 -9.31396323E-01  7.84899019E-01 -2.88326617E-01
  4.01818042E-02 -3.38549324E-02  1.24217005E-02 -1.80779559E-02  1.52313601E-02
 -5.58926006E-03 -3.47157281E-02  2.92508271E-02 -1.07249871E-02 -2.79277535E-01
  2.35292478E-01 -8.63830112E-02  7.39925805E-01 -6.23384217E-01  2.28576130E-01
  1.45311411E-02  1.43322934E-02 -3.49428459E-02 -7.42859370E-02 -4.27675715E-03
  3.63682834E-02  2.14520454E-02 -1.04461206E-01 -2.78790044E-01 -2.67059834E-02
  2.24128930E-07  5.95175356E-07 -7.98224096E-07 -4.64640076E-06  2.28332196E-05
 -9.12082500E-05 -2.03946195E-03  2.56102861E-01 -2.16141914E-01  7.89504012E-02
 -6.79037396E-02  5.72026460E-02 -2.10003774E-02  3.12008867E-02 -2.62845436E-02
  9.64940502E-03  5.28180792E-02 -4.44875061E-02  1.63347570E-02  4.99368266E-01
 -4.20716593E-01  1.54438325E-01 -9.86415622E-01  8.30761022E-01 -3.05021962E-01
 -3.15665014E-02 -6.61157033E-02  3.43327319E-02 -6.50219548E-02 -2.96847599E-02
 -1.13481973E-01 -2.34746488E-01  1.26948371E-01 -2.14640026E-01 -1.03452264E-01
  1.82180183E-06  3.03617605E-06  1.02255884E-03 -8.55942273E-04  3.13270263E-04
 -9.44464904E-06  6.57580549E-03 -5.53558449E-03  2.02864718E-03 -4.83956297E-05
 -1.03785451E-02  8.76395770E-03 -3.22336334E-03  1.31985992E-04  3.09770744E-01
 -2.61296709E-01  9.58856774E-02 -9.35887755E-04 -1.72520821E-03  1.29994626E-03
 -3.99519706E-04 -6.17121298E-04 -2.84328465E-03 -3.76073800E-03  5.70240114E-03
  8.34410223E-03 -2.31862722E-04 -1.27140630E-07 -3.93027273E-07  1.05237668E-06
  6.88132660E-07  3.60688760E-06 -1.08113490E-04 -1.64341586E-03  3.38578459E-01
 -2.84931390E-01  1.04793206E-01 -1.47160429E-04  1.28103667E-04 -4.52691592E-05
  1.29205176E-04 -1.10454241E-04  3.99478441E-05 -4.26225650E-04  3.53265658E-04
 -1.32814664E-04  5.93687579E-03 -5.00990704E-03  1.83995315E-03 -3.46433482E-02
  2.94162053E-02 -1.06876647E-02 -1.12916381E-02 -2.26103180E-02  1.35702925E-02
 -1.63281124E-02 -9.43004463E-03 -4.38390356E-02 -8.52715165E-02  5.56713045E-02
 -4.71317403E-02 -3.38153757E-02 -7.41202294E-07 -2.33351918E-06  1.10385111E-01
 -9.30254037E-02  3.41426881E-02  3.88404521E-05  3.03051383E-01 -2.55379644E-01
  9.37270801E-02 -8.97783782E-05 -5.59152470E-01  4.71482803E-01 -1.72946902E-01
 -3.18678185E-04  9.22293879E-01 -7.74809156E-01  2.86456850E-01 -5.14924381E-03
 -8.83333590E-03  7.93292927E-03  2.06622102E-03 -2.66130314E-03  2.73826043E-02
  3.50700493E-02 -5.61821431E-02 -8.74168462E-02  9.95919471E-04 -1.36707124E-06
 -2.94792764E-06 -8.58686088E-02  7.23547669E-02 -2.65538952E-02  3.04058323E-05
 -2.22420886E-01  1.87416047E-01 -6.87864561E-02 -2.61844510E-04  4.38245072E-01
 -3.69285516E-01  1.35409544E-01 -7.68375518E-04 -5.85630196E-01  4.91876460E-01
 -1.81573850E-01  1.99573930E-03  4.29115936E-03 -2.04834473E-03  4.79966206E-03
  1.99766773E-03  4.02027635E-02  5.47774550E-02 -7.86995058E-02 -1.07653690E-01
  5.02983192E-03  4.52341822E-07  1.24829514E-06 -2.12817179E-06 -7.63643373E-06
  2.72712576E-05 -4.83733228E-05 -1.61152468E-03  2.84032934E-01 -2.39314696E-01
  8.81616782E-02 -5.87252787E-02  4.94720013E-02 -1.81592023E-02  2.68742449E-02
 -2.26396708E-02  8.31039635E-03  4.69938977E-02 -3.95894148E-02  1.45289413E-02
  4.31324517E-01 -3.63359702E-01  1.33393600E-01 -8.32022488E-01  7.00823073E-01
 -2.57205678E-01  4.09870664E-02  7.05248118E-02 -6.28421332E-02 -1.48805189E-02
  2.14525520E-02  1.40736753E-01  2.42755156E-01 -2.15091273E-01 -4.73152441E-02
  7.43162198E-02 -2.07549283E-07 -5.39115632E-07  6.10179769E-07  4.72873982E-06
 -2.43066103E-05  1.06255360E-04  2.07061387E-03 -4.30771607E-01  3.63260247E-01
 -1.33048994E-01  1.29845230E-02 -1.09243604E-02  4.01298580E-03 -5.49611074E-03
  4.62439442E-03 -1.69827543E-03 -1.42339625E-02  1.19723092E-02 -4.40213862E-03
 -7.38757445E-02  6.21788798E-02 -2.28134226E-02  2.82810872E-01 -2.37847469E-01
  8.74242350E-02  1.54123540E-02  1.89695185E-02 -3.26000632E-02 -5.44579500E-02
 -3.50491620E-04  5.99171976E-02  8.05985163E-02 -1.18640617E-01 -1.67568696E-01
  6.26276876E-03 -1.05070008E-06 -1.65538682E-06  6.93284374E-04 -5.87970407E-04
  2.13609001E-04  3.13040797E-06  5.43769866E-03 -4.58559441E-03  1.68081360E-03
  3.54656642E-05 -2.92634895E-02  2.46382195E-02 -9.06032104E-03 -2.49197438E-04
  6.52239228E-02 -5.48511323E-02  2.01743750E-02 -2.91506529E-04 -6.21161864E-04
  3.04106171E-04 -6.69414030E-04 -2.85727608E-04 -4.88561413E-03 -7.72244215E-03
  8.29431739E-03  6.17398270E-03 -1.79584721E-03 -6.40042615E-08 -1.72080202E-07
  2.51312404E-07  1.25657580E-06 -5.52549245E-06  2.64300797E-05  9.54982374E-04
 -2.97957848E-01  2.50924897E-01 -9.22037291E-02  3.95519585E-02 -3.33297593E-02
  1.22267589E-02 -1.82090429E-02  1.53441057E-02 -5.62910004E-03 -3.09075753E-02
  2.60481683E-02 -9.55369026E-03 -2.96582811E-01  2.49907386E-01 -9.16869566E-02
  5.77972621E-01 -4.87099924E-01  1.78659108E-01  2.64191217E-03 -5.24761057E-03
 -1.56773982E-02 -6.42964952E-02 -9.51587332E-03  5.67525337E-03 -2.35074733E-02
 -4.82256088E-02 -2.17324722E-01 -3.40606330E-02 -9.78333329E-04 -1.64404190E-03
  2.75186611E-02  3.23485829E-02 -9.14996586E-04 -2.14089449E-02  1.25666277E-01
  1.52984875E-01  1.02796135E-02  1.54112567E+00 -1.93100534E-01 -6.30933391E-01
 -1.09375946E+00  1.30637209E+01  1.51816828E+00  1.52046412E+00 -7.66280337E-01
  3.47817027E-03 -7.17521475E-03 -6.84239060E-03  2.58867964E-03 -1.29826037E-03
 -3.90537951E-02  4.26519637E-03  4.58762735E-03 -1.27072240E-02  6.51467989E-02
 -3.37924889E-03 -9.34691977E-03 -6.37383415E-03 -3.22450969E-03  1.18540700E-02
  1.63258801E-01 -4.05738048E-02 -6.43533999E-02 -4.40561268E-02 -1.72312309E+00
  8.09523341E-01  1.11729972E+00  4.26311004E-01 -1.00067910E+01  2.35353344E+00
  1.84010887E+00 -2.59499408E+00 -6.26996604E-03 -5.22165310E-03 -6.97799026E-03
  5.28113432E-04  9.07167645E-03  8.48529874E-02 -1.95008602E-03  1.77459914E-02
  1.33238114E-02 -9.46136004E-02  1.09767273E-03  2.99958165E-03 -4.86760743E-03
 -1.92654057E-02  4.96824907E-02  1.65642598E-01 -8.06693021E-01 -3.30531088E-02
 -6.85848058E-02 -7.95458105E-02 -2.66759865E-02 -2.61340841E-02  1.50490510E-02
  1.19443877E-02  1.15020740E-02 -7.28226684E-03  2.33934708E-02  2.58159977E-02
 -5.30338013E-03  1.85749535E-01  1.57812424E-01 -1.70614346E-01 -2.77333904E-01
 -3.33234238E-01 -1.13402733E-02 -1.19551566E-02 -6.73734345E-03  2.21056750E-02
 -1.95631012E-02  9.61714393E-02 -1.71085230E-02 -5.61111047E-02  6.45976701E-02
 -6.53142724E-02  3.61117374E-01 -1.08460826E-03 -3.03400605E-03  5.58836398E-03
  1.62819032E-02 -1.27486325E-02 -3.55798588E-01 -2.30771083E+00 -4.76392364E-01
 -6.39028034E-01 -2.00730550E-01 -6.11822893E-03 -7.71149646E-03 -1.19299614E-03
  1.44649176E-03  1.75561486E-03  9.09631235E-05  1.92927053E-02  2.55185793E-02
  7.11065008E-03 -5.30683133E-02 -7.85401668E-02 -4.25988772E-02 -4.93345404E-01
 -6.17232869E-01 -8.58134594E-02 -9.42904976E-02  8.27395134E-02  4.35390685E-03
  3.71410450E-05 -7.91205546E-02 -3.08416355E-01  3.06606476E-01  7.45103734E-03
  1.75220387E-02 -3.84910444E-01  4.97080981E-03  8.57415392E-03  1.88203135E-02
  2.12016976E-02 -3.08773179E-03 -3.37518420E-02  1.21097996E-02  1.03512654E-02
 -1.09488548E-02 -6.92731528E-02  1.12998459E-01  1.38352092E-01  1.15576816E-02
  1.35386632E+00 -9.63178823E-01 -8.60496975E-01  7.69593351E-01 -6.75343455E-04
  1.33177942E-03  1.38589983E-03 -5.60835689E-04  5.84084765E-04 -1.12135471E-02
  1.50058608E-02  1.07487928E-02 -4.38700519E-03  5.35534550E-04  9.94026739E-04
  2.70661910E-03 -4.29450222E-03 -1.78822925E-02  5.84525291E-02 -3.32426790E-01
 -6.76967210E-01 -3.18619635E-01 -6.58309059E-02  8.50404561E-01  2.33924138E-02
  7.51689565E-03 -5.51404502E-02 -9.92781545E-03 -2.86048378E-03  2.43000676E-02
 -2.48322179E-02 -1.00063053E-02  5.30116796E-02 -1.28792928E-01 -1.85002530E-02
  3.65931948E-01  4.16626117E-01  1.85339475E-01 -8.41910850E-01  4.03512118E-02
 -2.35889153E-02  5.70819143E-03 -3.17664645E-04  1.69795102E-02  1.62495180E-01
 -7.79681059E-02  5.38417179E-02 -1.39883471E-02  9.39663313E-02  2.49877130E-02
  4.30958135E-02 -1.00483738E-01 -1.03619594E-01  4.25323236E-02 -1.96905272E-01
 -1.09975780E-01 -1.60502836E-01 -8.18030299E-02  4.32997738E+00  2.02563451E+00
  2.03263543E+00 -1.01097627E+00 -6.10426645E+00 -1.91556016E+00 -3.46128872E-01
  5.24841719E+00 -4.25295939E-03 -7.83974445E-03 -7.16346494E-03  2.70936943E-04
  1.31042883E-02  3.95071972E-02 -2.20796837E-01 -1.91068735E-01  4.79195645E-02
  1.23979074E-01 -1.32574239E-02 -2.31528765E-02 -9.45949607E-02 -6.72938360E-02
  1.22446367E-01  1.24665350E-01 -1.18827319E-01 -8.26613415E-02  1.58819322E-01
 -4.19628844E+00  2.02917616E+00  1.74769106E+00 -1.79851625E+00  1.03022949E+01
 -1.54895201E-01  3.97505185E-01  1.58291114E+00  4.43966378E-03  5.85426616E-03
  5.90875841E-03 -1.74828046E-04 -1.05451363E-02 -3.02878527E-02  2.86214683E-01
  2.34423429E-01 -4.78105973E-02 -2.29575642E-01  4.40069102E-04  1.37613387E-03
 -3.80817939E-03 -2.01476770E-03  4.20995170E-03  7.86884756E-02 -5.22454545E+00
  4.37701274E-01  8.88569537E-01  1.00621809E+00 -2.92334531E-02 -2.81128759E-02
  1.79095099E-02  1.25446484E-02  1.21330670E-02 -7.49640482E-03  3.13814270E-02
  2.89606773E-02 -2.25449224E-02  1.65398398E-01  1.69857569E-01 -7.18935903E-02
 -6.47349560E-01 -5.45354353E-01  6.06823140E-01  1.70513664E-02  6.03211195E-03
 -1.80580136E-02  1.83292750E-02 -9.26257472E-02  1.12016625E-03  5.80633501E-02
 -6.01170613E-02  5.86284887E-02 -3.28572115E-01  2.42004613E-04  7.85123875E-04
 -2.42858039E-03  2.95824460E-04 -3.61715003E-02  5.12497429E-01  3.14995670E+00
  8.03498848E-01  5.89905750E-01 -9.90509287E-01 -8.66276966E-03  1.05493101E-02
  5.67439774E-02  4.79737402E-03 -3.50267320E-03 -2.50518584E-02 -1.77946133E-03
 -2.22964378E-02 -5.49803108E-02  1.27918430E-01  2.32232464E-02 -3.50333088E-01
  4.33295228E-02  5.03910446E-01  1.23239431E+00 -3.49111366E-02  4.55199556E-02
  1.88688001E-02 -5.12959387E-03 -3.12115220E-02 -1.41050116E-01  1.87962186E-01
  9.32544846E-02 -2.96944666E-02 -9.58105031E-02  5.37201989E-03  7.90446841E-03
  1.88591525E-02  3.30880568E-02  2.91635968E-02  1.57309651E-03  2.58822028E-02
  4.52918470E-02  3.97068405E-02 -5.02973996E-01  5.75294104E-02  8.17770121E-02
  3.67590135E-02  1.41130304E+00 -6.20109493E-01 -5.50256383E-01  5.05591536E-01
 -1.78214497E-03 -5.96026652E-04 -2.21997074E-03  6.21428883E-04 -7.07176905E-04
 -9.26308475E-03  6.87370275E-03 -3.60593671E-03  2.01945928E-03 -1.40655832E-02
 -1.27910226E-03 -3.74474709E-03  8.33919565E-03  1.41807276E-02 -2.06033863E-02
 -3.29393225E-01 -3.22990921E+00  6.18552859E-01  4.13075533E-01 -8.74348783E-01
 -1.57197830E-02  5.59271717E-03  6.60454370E-02  7.29960318E-03 -2.12957346E-03
 -2.93960323E-02  1.16871265E-02 -8.35364500E-03 -6.05254264E-02  1.25821634E-01
 -1.25174078E-02 -4.40829077E-01 -9.59898195E-02  4.11740378E-01  1.43161572E+00
  5.47478897E-02 -3.93996103E-02 -5.58860198E-03  5.03907436E-03  1.20783740E-02
  1.92623384E-01 -1.52033130E-01 -3.82318515E-02  2.42135430E-02  3.67014455E-02
 -5.00459357E-03 -1.73954159E-03  6.29772704E-02  2.05607730E-02 -1.47474603E-01
 -1.74589314E-01  1.02519252E-01 -3.56478062E-02 -4.28152595E-01  2.68970805E-01
 -9.97828196E-01 -2.91318017E-01  2.43141902E+00  1.64388842E+01  6.97578705E-01
  2.13077750E+00  3.55145804E+00 -2.74688277E-02  1.15007468E-02 -3.89365781E-03
 -1.45267517E-03  2.25061252E-03  1.56837923E-01  1.61086323E-01  1.87187868E-01
 -9.79384337E-03 -2.87620258E-01  2.86576824E-02  5.30030140E-02  5.03236757E-02
  1.54392449E-02 -1.20579179E-01 -2.74640226E-01 -5.10940505E-02 -1.40864162E-01
 -2.18342056E-01  1.53639967E+00  1.60002217E-01  9.42858053E-01  2.05025314E+00
 -5.58622534E+00  4.24233517E+00  4.10856820E+00 -2.52369514E+00  1.46093436E-02
 -1.73955285E-02 -1.42323308E-02  6.64805648E-03 -7.79910976E-03 -1.21996742E-01
 -8.41768222E-02 -1.56724785E-01  2.95325918E-02  7.12518147E-02 -3.74274950E-03
 -1.04483071E-02  1.89808968E-02  5.83698461E-02 -1.08129817E-01 -6.97693924E-01
 -9.45783443E+00 -7.72142024E-01 -2.32210077E-01  1.86341314E+00  2.78087124E-02
  4.33308838E-02  2.81377305E-02 -1.32420070E-02 -1.91894854E-02 -9.46467744E-03
 -1.70029722E-02 -4.34155939E-02 -6.33079397E-02 -2.47894659E-01 -2.63436259E-01
  8.38089218E-02  4.95976486E-01  1.23245935E+00  1.75406315E+00 -3.52082251E-02
 -3.15682624E-03 -3.07360519E-02  7.38525030E-03 -7.26355036E-03 -2.86879656E-01
  2.35644463E-02 -1.71709110E-01  2.99038836E-02 -1.16902177E-02 -5.47618951E-04
 -1.57553759E-03  3.26744514E-03  7.16942032E-03 -3.11137888E-02  8.64099643E-02
  1.64252272E+00  6.14475315E-01  3.38352284E-01 -1.06559461E+00 -1.52061655E-02
 -2.03374396E-03  4.36355956E-02  7.49174940E-03  1.12273481E-03 -2.11682492E-02
  6.24372030E-03 -2.39715610E-03 -2.67319604E-02  1.65440748E-01  5.62304532E-02
 -3.81779831E-01 -1.20342076E-01  1.12774903E-01  6.96625194E-01  4.76156947E-02
  7.27159828E-03  3.41624545E-02 -4.33166534E-03 -1.78026284E-02  1.45940574E-01
  2.10357035E-02  1.11674299E-01 -1.80143733E-02 -3.33104167E-02  6.24351357E-03
  1.01268896E-02 -1.40101321E-02 -1.77193584E-02 -2.96393773E-03 -2.77428114E-02
 -2.58596405E-02 -3.28835451E-02 -5.95827858E-03 -1.06162007E-01 -2.84055193E-03
  4.17082810E-02  1.22824170E-01  3.15474732E+00 -8.47786885E-01 -4.95010803E-01
  1.39221524E+00 -9.38611163E-04  3.16361014E-03  3.21277273E-03 -1.08756258E-03
  4.84556851E-05  7.37216862E-03  1.83837299E-02  2.23856744E-02 -4.83352077E-03
 -1.23066662E-02 -3.30671558E-03 -9.23776252E-03  1.68177063E-02  5.17050532E-02
 -1.13182605E-01 -4.87325272E-01 -5.84652757E+00  2.61530770E-01  8.55716601E-01
  1.48502782E+00  1.21545077E-02  6.37982938E-03 -2.18891612E-02 -4.23619760E-03
 -1.39872816E-03  9.87335731E-03 -2.56597063E-02 -2.40699054E-02  1.73642489E-02
  2.67120034E-02  9.70784431E-02  1.77893121E-01  7.71894734E-01  8.27182336E-01
 -2.41755275E-01 -1.86513088E-03 -1.89090051E-02 -3.24456983E-02  1.24337823E-02
 -2.06792612E-02  5.07830121E-02 -9.38051917E-02 -1.40251865E-01  6.66056164E-02
 -1.53241185E-01 -1.62241010E-06 -2.23458001E-06 -5.75861660E-02  4.85274937E-02
 -1.78264871E-02 -5.08623582E-06 -2.69695251E-01  2.27258947E-01 -8.34790358E-02
 -4.23582533E-05  3.21700097E-01 -2.71327753E-01  9.99178711E-02  2.74806335E-03
 -8.54256221E-01  7.21289936E-01 -2.64146476E-01 -1.97611965E-03 -1.86612036E-03
  4.83738155E-03  1.05944283E-02  6.68574271E-04  9.94993521E-03  6.33382238E-03
 -2.79554093E-02 -7.31567754E-02 -6.78860664E-03  3.16693047E-06  5.75576787E-06
 -1.19034275E-01  1.00300116E-01 -3.68349107E-02 -2.71784324E-05 -4.90813239E-01
  4.13535581E-01 -1.51851133E-01  2.41347056E-04  1.33841608E+00 -1.12777232E+00
  4.14318124E-01 -2.64652396E-03 -1.86878999E-01  1.58013855E-01 -5.87124680E-02
 -5.53138233E-04 -2.55283428E-03 -1.04933524E-03 -1.01298951E-02 -2.06897515E-03
 -2.74759039E-02 -7.57203085E-02  8.34508023E-03 -1.73863141E-01 -4.60169541E-02
 -5.80286706E-07 -1.64588329E-06  3.22094644E-06  8.21054972E-06 -1.26560554E-05
 -1.23432845E-04 -1.05460580E-03  2.67851985E-01 -2.25917764E-01  8.31129279E-02
 -5.66742524E-04  4.84536405E-04 -1.75848909E-04  1.48075337E-04 -1.27853707E-04
  4.65140893E-05  1.60639651E-03 -1.36057065E-03  4.91749409E-04 -8.03731401E-04
  6.32433814E-04 -2.02680433E-04 -9.64442371E-02  8.14622689E-02 -2.96747735E-02
  5.49748156E-03  4.81176128E-03 -1.39701507E-02 -3.21011055E-02 -2.29537522E-03
  3.45525229E-02  4.46524061E-02 -7.07281575E-02 -1.08712029E-01  1.57257917E-03
 -4.73503770E-07 -1.33212308E-06  2.50527507E-06  7.15343855E-06 -1.90679043E-05
 -2.70610535E-05  7.57158649E-04  6.68291410E-01 -5.62889981E-01  2.06737412E-01
 -2.65575238E-02  2.23761426E-02 -8.21189886E-03  1.17744936E-02 -9.92071534E-03
  3.64054067E-03  2.53137851E-02 -2.13272929E-02  7.82962182E-03  1.87217240E-01
 -1.57747446E-01  5.78765856E-02 -5.79815445E-01  4.88517242E-01 -1.79341616E-01
  8.32887202E-03  5.59532792E-03 -2.31290629E-02 -5.94773009E-02 -5.36077224E-03
  1.99238902E-02 -3.26002560E-03 -7.50998059E-02 -2.49897155E-01 -3.13496857E-02
 -5.18803011E-09 -5.33776405E-09 -1.48994373E-02  1.25517690E-02 -4.61022854E-03
 -1.65028310E-07 -1.51622481E-02  1.27708418E-02 -4.69280928E-03  7.39563426E-06
 -1.08407253E-01  9.13485630E-02 -3.35247605E-02  2.83288707E-04 -2.44810547E-01
  2.06174047E-01 -7.55395760E-02  1.09872080E-03  1.91463131E-03 -1.65691606E-03
 -2.48753367E-04  6.00936585E-04 -1.53840932E-03 -4.67198112E-03 -4.36528253E-05
 -1.25400539E-02 -3.05949089E-03 -1.96945043E-07 -5.23909750E-07  7.18640880E-07
  3.98810941E-06 -1.26680889E-05  2.56719985E-06  1.03293069E-05  5.18328927E-01
 -4.36771372E-01  1.60541612E-01 -2.80188960E-02  2.36107572E-02 -8.67397713E-03
  1.23947806E-02 -1.04447116E-02  3.83717418E-03  2.69739347E-02 -2.27310768E-02
  8.35011457E-03  1.92421876E-01 -1.62140180E-01  5.95708400E-02 -7.51305853E-01
  6.33129258E-01 -2.32555696E-01  2.52035649E-03  1.44465592E-02  8.12581961E-03
  6.44006482E-02  1.25578030E-02  1.55048772E-02  7.13957473E-02  2.92888897E-02
  2.83371211E-01  5.78400547E-02  2.43164027E-02  5.67819300E-02  8.29300227E-02
  7.46190515E-02 -6.47636944E-02 -5.81326474E-01  1.48947045E-01  1.51504554E-01
 -6.85632755E-02 -2.97288817E+00 -3.02015587E+00 -2.60632932E+00  2.66250245E+00
 -1.91324518E+01 -7.99445431E+00 -6.01035945E+00  9.47223610E+00  5.93652195E-03
 -1.78312051E-03 -6.79777279E-03  5.26695666E-03 -2.17412979E-02 -1.41315192E-01
  4.37784892E-01  2.91159500E-01 -5.96883119E-02 -3.57581853E-01  3.04222176E-02
  5.42967079E-02  8.83517571E-02  8.95969761E-02 -4.15887605E-02 -3.03539567E-01
  1.87904314E-01  2.23284472E-01  6.27051468E-04  5.43303722E+00 -3.41680271E+00
 -3.42527074E+00  1.71569220E+00  2.22379135E+01 -7.91266860E+00 -8.42383357E+00
  2.63188101E+00 -8.14425574E-03  9.31193257E-03  7.54688099E-03 -3.60855135E-03
  4.54704018E-03  5.29165992E-02 -1.91410133E-01 -1.82787039E-01  5.75225060E-02
  3.26960391E-02  1.84183992E-04  5.31665562E-04 -1.10416340E-03 -2.57994114E-03
  1.62391076E-02 -1.73053057E-01 -7.44371031E+00  8.34072244E-01  1.42860741E+00
  1.19516473E+00 -2.62927273E-02 -2.18212286E-02  2.55709680E-02  1.26309388E-02
  1.13487041E-02 -9.92515848E-03  1.71882624E-02  6.65198885E-03 -3.74584636E-02
  2.41778724E-01  2.49847626E-01 -1.01120572E-01 -3.48765151E-01 -4.83232524E-02
  9.96303626E-01 -7.25548017E-04  2.80366710E-02  2.27660286E-02 -3.91290177E-03
 -2.68398116E-02 -4.71228865E-02  7.61839074E-02  2.69200562E-02 -2.43375038E-03
 -8.33657521E-02 -3.28169027E-03 -9.19981696E-03  1.70357806E-02  5.05892080E-02
 -1.12901465E-01 -3.26299687E-01 -7.70342013E+00 -6.36783278E-01 -1.07923715E+00
 -8.80862046E-01 -5.09112609E-03 -1.52120893E-02 -2.49811051E-02  1.47920813E-03
  5.29810174E-03  9.65195475E-03  1.48094975E-02  3.19599852E-02  3.91742724E-02
 -2.85203197E-02 -9.42951415E-03  6.66031432E-02 -6.26064135E-01 -1.16880554E+00
 -1.15949412E+00  9.92953652E-03 -6.02659914E-03 -1.52486820E-02  1.00568391E-02
 -3.67653526E-02  5.99920311E-02 -6.50603376E-02 -1.29665777E-01  7.33493803E-02
 -2.29372892E-01 -5.22676461E-03 -9.64753456E-03  4.19134855E-03  1.04691508E-02
  1.49560336E-02  5.60435859E-02 -4.42255985E-03  5.95723590E-03  3.05065065E-02
 -1.37059472E-01  9.18634262E-02  6.92754419E-02 -1.08293821E-01 -4.29482493E-01
  5.09479499E-01  5.22013546E-01 -2.25105152E-01  4.41194007E-04 -6.29029283E-04
 -8.58352398E-04  4.25692422E-04 -9.93276565E-04 -3.02098525E-03 -1.47217850E-03
 -9.63476983E-03  4.48942018E-03 -1.44958619E-02  3.44159385E-03  9.59205757E-03
 -1.72372204E-02 -5.53991741E-02  1.40320934E-01  5.48242961E-01  1.10824500E+01
 -1.09448877E+00 -1.81713012E+00 -1.41079356E+00 -1.21732823E-02 -8.05908500E-04
  3.71557108E-02  5.52287384E-03 -2.49905573E-04 -1.85332046E-02  1.44314832E-02
  1.14621924E-02 -1.54354709E-02  3.88179074E-02 -1.04593232E-01 -4.10331073E-01
 -1.02729959E+00 -1.09626621E+00  3.34937221E-01  2.84264828E-02 -5.03890994E-02
 -1.66358726E-02  6.77701742E-05  6.26286931E-02  8.50063143E-02 -1.35863721E-01
  4.76541593E-03 -2.78439386E-02  2.78759552E-01  1.78212053E-02  3.59207347E-02
 -3.47184027E-02 -2.88526187E-02  3.37071990E-02 -2.83582788E-01 -9.39552622E-02
 -8.46063225E-02  7.35815040E-02  2.53382831E+00  1.15524115E+00  9.99392431E-01
 -1.01327257E+00 -1.40085602E+01 -2.00213951E+00 -2.32650811E+00  1.34949771E-01
 -1.39467314E-02  9.74476659E-03  2.60107007E-03 -2.11701750E-03  7.60357946E-04
  1.00589791E-02 -6.25097033E-02 -1.01884876E-01  4.25306548E-02 -8.25469395E-02
  7.94411264E-03  2.42698659E-02 -6.89549757E-03  4.34026539E-03  3.40813048E-02
 -4.38055626E-01 -4.80838421E-02 -6.60705414E-02 -2.46319774E-02  1.15396728E+00
  1.98414188E+00  2.20874897E+00 -3.96843929E-01  1.91219763E+01  2.22335501E+00
  3.93180109E+00  3.52088901E+00  1.59755332E-02 -5.10147919E-03 -7.30995270E-03
  7.31283495E-03 -3.00994785E-02 -8.59087532E-02  1.31323415E-01  3.12711110E-02
  3.74412953E-03 -1.73432411E-01  9.29428832E-05  2.90043587E-04 -7.71570697E-04
 -7.97996950E-04  1.04339760E-02  2.61321764E-02  2.80746807E+00  7.29305210E-01
  5.73922264E-01 -7.94709930E-01 -1.89361478E-02 -1.83791010E-02  1.11598167E-02
  8.36363219E-03  8.33554210E-03 -4.33521859E-03  1.89032125E-02  1.60337985E-02
 -1.74429313E-02  1.33534699E-01  1.39415770E-01 -5.19724034E-02 -5.08091986E-01
 -5.62044769E-01  1.11895071E-01 -4.36621701E-02  5.02726604E-02  4.73712767E-02
 -2.34573838E-02  4.05942059E-02 -1.74742910E-01  1.86922688E-01  1.67036713E-01
 -8.52635016E-02  1.49296258E-01  2.53209287E-03  7.11725445E-03 -1.33156450E-02
 -3.90203226E-02  1.07399203E-01  2.41438688E-02  3.58110294E+00  6.06682716E-01
  8.44892754E-01  3.40175458E-01  9.97249716E-03 -9.29609185E-04 -3.47647930E-02
 -5.35718939E-03 -1.05429011E-04  1.70283493E-02 -2.48229197E-03  3.74889135E-03
  1.82330174E-02 -1.12333302E-01 -3.99235378E-03  3.52214198E-01  6.45189150E-01
  5.27008715E-01 -6.50042014E-01 -3.67917523E-02 -5.24650745E-02 -6.29908915E-02
  8.62468078E-03  6.42468773E-02 -1.07927216E-01 -1.71088177E-01 -1.76345353E-01
  1.38090587E-02  2.61683064E-01 -1.01413107E-02 -1.71909831E-02 -1.17315150E-02
 -8.64702365E-03  1.43488958E-02  6.06428444E-02 -2.51176221E-03  6.13931842E-03
  2.48081490E-02  3.77674669E-01 -1.24380864E-01 -1.28659336E-01  5.15606348E-02
 -1.44798649E+00 -5.43156905E-03 -3.49881164E-01 -9.35458854E-01  1.62975894E-03
  9.34088003E-04  2.00453926E-03 -4.10017020E-04 -5.95743469E-04 -1.68371214E-04
  1.81314553E-03  4.66059535E-03 -2.24524279E-03  6.45530441E-03 -6.83838973E-03
 -1.91869600E-02  3.56368643E-02  1.06054495E-01 -2.76015734E-01 -5.34064302E-01
 -1.25167277E+01  1.54546765E+00  1.99596225E+00  4.40458247E-01  4.23514645E-03
  5.13000148E-03  2.76268234E-04 -1.22677328E-03 -1.31152955E-03  3.96107250E-04
 -1.38901979E-02 -1.91816505E-02 -7.33782014E-03  4.13956873E-02  6.88788584E-02
  5.38238560E-02  1.17328816E+00  1.57560107E+00  4.98361591E-01  1.01137362E-01
 -3.95530043E-02 -1.63522439E-02  2.52329777E-02 -9.35734112E-02  4.07234054E-01
 -1.72304537E-01 -1.07504916E-01  1.22410421E-01 -4.41522458E-01  4.04765390E-02
  7.79768165E-02 -5.69461519E-02 -2.16565048E-02  1.25202878E-01 -5.34323017E-01
 -9.29781004E-02 -2.41253224E-02  2.35464115E-01  1.74624292E+00  6.15406556E-01
  7.45549513E-01  3.86534563E-02 -3.08980112E+00 -1.86329696E+00 -1.67559927E+00
  1.46113352E+00 -5.85580892E-03  6.24614577E-04 -2.77506664E-03  2.14402772E-04
  1.15090743E-03 -1.87299502E-01 -1.39968682E-02 -1.76947145E-01  4.84397984E-02
 -8.06223889E-02  2.42615424E-02  5.07274478E-02 -9.37765513E-02 -7.48740506E-02
  9.91521298E-02 -4.61723937E-01 -6.13935676E-02 -2.53556753E-02  1.29211726E-01
  7.80303938E-01 -3.48803059E-01 -9.92584828E-01 -1.57408408E+00  3.98772961E+00
  1.67387909E-01  4.50051703E-01  6.83508616E-01 -1.00097446E-02  1.68545007E-02
  1.09384287E-02 -3.46754743E-03 -6.66775537E-03  1.88649434E-02  2.31839025E-01
  1.87173381E-01 -2.43819170E-02 -2.66891454E-01 -2.16795794E-03 -6.17579663E-03
  1.22724190E-02  3.09095860E-02 -9.76377744E-02  8.89441605E-02 -1.64397023E+00
 -2.21250152E-01 -1.80715023E-01  2.22078256E-01  2.16089471E-02  2.48576649E-02
 -2.12863978E-03 -1.02385399E-02 -1.20587803E-02  2.43030274E-04 -1.60081586E-02
 -1.48914189E-02  1.11765939E-02 -1.88976816E-01 -2.47927454E-01 -6.45876494E-02
  4.34348213E-01  6.94823304E-01  4.89627214E-01 -6.33263890E-02 -3.55407100E-02
 -7.28497892E-02  1.31201799E-02  3.34042678E-02 -2.28108677E-01 -1.02562911E-01
 -2.36191874E-01  4.05165546E-02  1.08674840E-01  3.17697914E-03  8.77920549E-03
 -1.50700013E-02 -5.45178886E-02  1.79099453E-01  7.61873877E-03 -1.78332611E-01
  4.28818047E-01  2.82335787E-01 -6.17625473E-01 -1.58704479E-02 -1.63526368E-02
  6.76740491E-03  6.68796505E-03  6.39925948E-03 -4.19186317E-03  1.75176992E-02
  2.20321206E-02  3.37785388E-03  1.12543553E-01  9.74058246E-02 -9.85373643E-02
 -1.53500601E-01 -3.80044680E-02  3.93241564E-01  2.18713618E-02  6.23438043E-03
  3.31267624E-02 -1.16353135E-02  2.67171310E-02  5.75110300E-02  1.86950645E-02
  1.03842098E-01 -4.00174008E-02  1.05201020E-01 -7.23165393E-03 -1.31895813E-02
  2.65439912E-02  4.08223711E-02  2.53474988E-02  7.44081433E-02  2.77918004E-02
  4.97788428E-02  4.56882699E-02 -2.15613838E-01  1.64535522E-01  1.32303992E-01
 -1.71618532E-01 -1.92368697E+00 -9.10173425E-02 -4.73974582E-01 -9.97024658E-01
  6.86079033E-04 -2.90946705E-03 -3.59505153E-03  1.34088245E-03 -1.34262348E-03
 -2.36000335E-02 -2.80207772E-03 -2.09330307E-02  4.89738115E-03 -3.60640027E-03
  8.17456889E-03  2.29021660E-02 -4.21595670E-02 -1.29492276E-01  3.85713610E-01
  1.94079314E-01  8.37593937E-01 -4.84428951E-01 -3.90043380E-01  5.03763023E-01
  3.32965685E-02  3.42200558E-02 -1.44340747E-02 -1.42743986E-02 -1.40536333E-02
  7.86773712E-03 -3.47140648E-02 -4.01156491E-02  2.95696162E-03 -2.53547712E-01
 -2.35777262E-01  1.77464138E-01  4.12845247E-02 -2.60228778E-01 -8.42478475E-01
  2.28119630E-02  6.52138633E-02  1.07829637E-01 -3.55972061E-02  3.31959437E-02
  7.84062933E-02  2.41692845E-01  4.11260752E-01 -1.40876697E-01  1.62587926E-01
  2.36978437E-06  6.77576364E-06 -8.59789433E-02  7.23822006E-02 -2.65529704E-02
 -1.21730760E-04 -4.35930787E-01  3.67214990E-01 -1.34754764E-01  1.73150276E-04
  1.78887352E+00 -1.50820548E+00  5.53728641E-01 -3.61840325E-03 -1.09029929E+00
  9.14627779E-01 -3.35404661E-01 -1.27172419E-03 -1.30596632E-03  2.98265892E-03
  6.13582530E-03  3.09949420E-04 -5.91271735E-02 -4.52124540E-02  1.57616619E-01
  3.86535605E-01  3.18338768E-02  8.47944344E-07  3.81756033E-06  2.31685066E-02
 -1.95303365E-02  7.20423444E-03 -1.01956998E-04  1.23206759E-01 -1.03791336E-01
  3.81481131E-02  1.09371022E-03 -1.36676338E+00  1.15106340E+00 -4.22387858E-01
  6.94099391E-03  5.65195109E-01 -4.77089725E-01  1.76185082E-01  8.39073634E-03
  1.36516461E-02 -1.38125986E-02 -8.20295929E-03  3.50093780E-03  1.21707993E-01
  2.49857415E-01 -1.38544148E-01  2.17302477E-01  1.08622947E-01 -2.15777440E-06
 -6.00706301E-06  1.07131938E-05  3.55346209E-05 -1.16501284E-04  1.01965007E-04
 -9.24079793E-04  6.36199140E-01 -5.35757068E-01  1.96852832E-01 -1.57389986E-02
  1.32640863E-02 -4.87121153E-03  7.06515428E-03 -5.95440605E-03  2.18604395E-03
  1.50427561E-02 -1.26751299E-02  4.66137766E-03  1.20826032E-01 -1.01842800E-01
  3.73545112E-02 -7.69193881E-01  6.48458485E-01 -2.37700783E-01  4.09175985E-02
  6.94651133E-02 -6.40284430E-02 -2.13622971E-02  2.03240570E-02  1.72150285E-01
  2.95401966E-01 -2.65589302E-01 -6.93637546E-02  8.90189203E-02 -2.48676393E-06
 -6.99803104E-06  1.31651513E-05  3.82644490E-05 -1.12090106E-04 -5.55447157E-05
 -2.59563009E-03  3.36491359E-01 -2.83981492E-01  1.03751048E-01 -3.31721880E-03
  2.80003193E-03 -1.02303896E-03  1.48540518E-03 -1.25363935E-03  4.58207207E-04
  3.23201042E-03 -2.72920050E-03  9.95787273E-04  2.08825537E-02 -1.76242143E-02
  6.44334667E-03 -3.88264322E-01  3.26616291E-01 -1.20242514E-01 -3.59253531E-03
 -1.26528668E-02 -2.11191012E-03 -4.01688856E-02 -9.05420986E-03 -1.49613933E-02
 -5.54321874E-02 -1.20832467E-02 -1.85125584E-01 -4.07771462E-02 -3.83165634E-06
 -6.63197519E-06  4.25983377E-02 -3.58822668E-02  1.31863859E-02  2.81850342E-05
  6.64659206E-02 -5.59921888E-02  2.05731375E-02  4.07984216E-05  1.39918305E-01
 -1.17844743E-01  4.32719248E-02 -2.79301624E-04  2.64618248E-01 -2.23009726E-01
  8.16122414E-02 -2.46833608E-03 -4.38083363E-03  3.62801999E-03  4.30134748E-05
 -1.43947526E-03 -7.75560211E-03 -1.56625105E-02  9.13270299E-03 -1.21658557E-02
 -6.63634124E-03  5.37999881E-08  1.81161209E-07 -6.03778685E-07  1.73260815E-07
 -6.75138128E-06  6.31344963E-05 -4.35243786E-04 -2.44948491E-01  2.06435310E-01
 -7.56615763E-02  7.18074102E-03 -6.04337432E-03  2.21545902E-03 -3.33356119E-03
  2.80563916E-03 -1.02879862E-03 -5.50042753E-03  4.62925920E-03 -1.69382232E-03
 -5.94383212E-02  5.00102819E-02 -1.83529503E-02  3.91543510E-01 -3.29756465E-01
  1.20908412E-01 -2.33386839E-02 -4.60801873E-02  2.88627685E-02 -2.95375162E-02
 -1.87874186E-02 -7.60644831E-02 -1.52988290E-01  9.08196917E-02 -1.14240506E-01
 -6.43375154E-02  7.47136598E-03  1.17633180E-02  1.05875790E-01  1.43060392E-01
  4.72966937E-02  1.01744546E-01  1.15287426E-01  1.59728172E-01  6.17628420E-02
 -4.33204494E+00 -3.31879836E-01  7.22408030E-01  3.04267542E+00  1.24791822E+00
  5.35508492E+00  9.18919238E+00  7.71666949E+00 -5.33996620E-03  6.53643946E-03
  9.89201565E-03 -5.24559194E-03  1.40470750E-02 -1.15030828E-01  2.18878511E-01
  1.79307435E-01 -6.34737002E-02 -1.87799202E-02  1.01216189E-02  1.73147470E-02
  1.35006728E-02 -2.25364415E-02 -1.04998481E-01 -1.14269788E-01 -3.49371830E-03
 -4.05559701E-02 -9.90201581E-02  2.67060662E+00 -1.79034351E+00 -2.06450976E+00
  1.62165605E-01 -8.00773698E+00 -1.39830640E+00 -2.86082379E+00 -3.27100159E+00
  1.33190779E-02 -7.01211259E-03 -8.50287581E-04  1.85634012E-03 -3.58307034E-03
 -6.79129604E-02 -1.19630183E-01 -1.04544985E-01  3.88285905E-04  2.17161551E-01
 -4.78857557E-03 -1.34721665E-02  2.52888691E-02  7.42951859E-02 -2.25087632E-01
 -2.48308021E-01 -1.09730835E+01 -7.77318091E-01 -3.29614059E-02  2.42454379E+00
 -6.57418704E-04 -6.70793901E-03 -1.61624533E-02  4.43042253E-04  2.91348087E-03
  6.51059197E-03 -6.78756975E-04  6.94856083E-03  2.11398641E-02  2.22471973E-02
  6.50050001E-02  1.05258687E-01 -3.95930885E-01 -1.19788433E-01  9.52926455E-01
 -4.68787885E-02  6.63486072E-02  4.16423618E-02 -1.49808219E-02 -1.69521761E-02
 -2.02549833E-01  2.84750378E-01  1.83198667E-01 -6.74600681E-02 -5.91630551E-02
  1.08239420E-02  3.02644423E-02 -5.51818524E-02 -1.73831906E-01  5.38120805E-01
 -6.10942090E-02  1.53305975E+01  1.71533360E+00  2.45031177E+00  1.12856490E+00
 -1.20153840E-02 -2.03401779E-02 -1.65658959E-02  4.51737126E-03  7.48820410E-03
  5.79624582E-03  1.79160361E-02  3.24407471E-02  3.04424357E-02  5.03547181E-02
  7.10619309E-02  3.08661714E-02  1.14375200E+00  1.46254037E+00  2.85211709E-01
 -9.86683092E-02  7.18716040E-02  7.67152589E-02 -4.97550279E-02  1.42424096E-01
 -4.01285572E-01  2.70476359E-01  2.93867258E-01 -1.99224194E-01  6.00054099E-01
  1.05101248E-02  1.75652154E-02  1.20647309E-02  8.47992791E-04 -3.66367647E-02
 -5.69076539E-02  1.33737190E-02  5.38379163E-04 -4.16785519E-02 -3.53649207E-01
  7.28610736E-02  1.61276397E-02 -1.91450256E-01  8.44362426E-02  1.96770364E-01
  3.94417568E-01  4.38232069E-01  4.12814979E-04 -6.99173149E-04 -4.25841855E-04
  1.26671391E-04  3.46846942E-04 -7.37585161E-04  5.49944070E-03  2.46999014E-03
  2.82165999E-04 -9.24647379E-03  4.46236939E-03  1.25139691E-02 -2.31356333E-02
 -7.06519815E-02  2.21591556E-01  2.93420043E-01  3.63346552E+00 -3.51739590E-01
 -5.55388934E-01 -3.75742387E-01  1.16544863E-02  1.73649359E-02  9.64557070E-03
 -5.05824751E-03 -7.53016928E-03 -4.16921276E-03 -1.25769199E-02 -1.90156938E-02
 -1.11561915E-02 -8.75414671E-02 -1.31055428E-01 -7.41590065E-02 -1.59706454E-01
 -2.06418749E-01 -4.49603143E-02 -1.92413624E-02 -1.22594548E-03 -2.97429850E-03
 -4.29615594E-03  2.90812713E-02 -9.09477753E-02 -7.15108269E-03 -2.72349259E-02
 -1.26856984E-02  1.08639775E-01  3.27537672E-02  5.88752529E-02  5.39567117E-02
  2.26988893E-02 -1.12669727E-01 -1.52217950E-01  7.52552723E-02  6.31624327E-02
 -7.15499206E-02 -2.94095356E+00 -2.34365035E-01 -8.46625299E-01 -1.54767201E+00
  1.30318762E+00  2.59314599E+00 -1.55263270E+00 -1.26133194E+01  1.24862181E-02
  2.93651507E-03  1.35027540E-02 -3.54981888E-03  3.58729512E-03 -8.33917871E-03
  1.39432662E-01  8.96012711E-02 -6.26017080E-03 -1.84293074E-01  1.96578280E-02
  3.82525674E-02  4.65533485E-02  7.81373489E-02  6.23685959E-02 -3.70139376E-01
  7.00539600E-02  1.32831336E-01  1.35370987E-01  2.93988309E+00 -1.58663850E-01
 -1.19152737E-01  1.87837268E-01 -7.30473352E+00  5.81111906E+00  7.46060291E+00
  1.53763300E+00 -8.91708864E-03  1.27649533E-03 -2.80803168E-03 -4.27489118E-04
  4.33089257E-03  1.49636813E-01 -1.06621648E-01 -1.07784318E-01  7.10134239E-02
 -2.01515381E-01  1.20515727E-02  3.36475277E-02 -6.08951943E-02 -1.95935508E-01
  6.08744545E-01 -1.08838823E-01  1.68095069E+01 -2.30776796E-02 -1.27878748E+00
 -3.40875366E+00  8.80121194E-03  2.22678271E-02  3.21920174E-02 -4.55026631E-03
 -9.89968251E-03 -1.22502632E-02 -3.89346648E-03 -2.15928170E-02 -4.62235321E-02
 -9.09059308E-02 -1.66746524E-01 -1.60205314E-01  5.75812415E-01  1.92420813E-02
 -1.80994897E+00  1.62700763E-01 -5.05524213E-02  4.46912462E-02  1.74116310E-03
 -1.23459246E-02  6.98227438E-01 -1.91525958E-01  2.29717122E-01 -6.48221671E-03
 -3.51900454E-02  2.75262596E-03  7.49787331E-03 -1.18695900E-02 -5.13997539E-02
  1.95653007E-01 -5.63466924E-01 -3.24173284E-01 -9.86566694E-02 -2.56460586E-02
  2.49714905E-01 -4.03349871E-04  2.35092844E-04  1.95123246E-03 -1.10361891E-03
 -1.92259451E-03 -1.67229587E-03  1.21775925E-02  1.66615641E-02  6.00948837E-03
 -7.43354254E-02 -1.19875596E-01 -8.62651242E-02  1.94974092E-02  2.66341178E-01
  6.62495774E-01  2.51328981E-02  5.48972007E-02  9.91868718E-02 -3.33727915E-02
  3.88229081E-02  1.25936853E-01  2.34323393E-01  4.14711067E-01 -1.31666595E-01
  1.12233188E-01 -4.83489916E-03 -8.77398017E-03  4.59878099E-03  1.87409350E-02
  3.62052518E-02  4.84783136E-02  5.46855335E-03  2.97850148E-02  6.34915632E-02
 -1.04105648E-01  4.26797046E-03 -3.63309627E-02 -1.12656191E-01 -9.53806480E-01
  5.61513161E-02 -2.55642390E-01 -8.77507090E-01 -2.52617444E-04  1.16395599E-03
  1.26794727E-03 -4.24886953E-04  6.99700823E-05 -2.33899295E-02  6.90837513E-03
 -9.65819581E-03  1.60639400E-03 -5.22441522E-03 -2.21746830E-03 -6.28354719E-03
  1.21654971E-02  3.33810967E-02 -1.29135963E-01  3.78430855E-01 -9.41928978E+00
  9.06106559E-01  1.38435631E+00  8.40840275E-01  2.67180790E-04 -2.21487344E-03
 -6.89977495E-03 -1.42056746E-03 -4.19113234E-04  3.45240261E-03  1.49508055E-02
  1.96254330E-02  5.12493150E-03 -1.18195519E-01 -1.20801902E-01  5.31009054E-02
  5.93635431E-01  6.16396475E-01 -2.40308613E-01  3.58726948E-02 -9.93661197E-04
 -1.73745901E-03  1.12618299E-02 -6.25821541E-02  1.28742315E-01  3.48519492E-03
  2.09997241E-03  3.78861139E-02 -2.25108722E-01 -3.31450270E-02 -6.65842084E-02
  1.88348001E-03  3.13980474E-02  7.95044962E-02  5.04112575E-01 -3.69182198E-02
  8.62391093E-02  3.54529976E-01 -3.73791581E+00 -1.27031791E+00 -1.25249994E+00
  6.93624314E-01 -6.86209491E+00  5.24820095E-01  3.08113353E+00  6.69622501E+00
  1.43436404E-03 -1.06920072E-03 -2.47103774E-04  1.78313144E-04  1.82450351E-04
 -1.74317015E-01  1.15880994E-01  5.10370222E-02 -4.00552761E-02  7.39173850E-02
 -3.47180095E-02 -6.83607913E-02  8.59003630E-02  1.17230634E-01  4.16020222E-02
  3.21863013E-01  2.68986488E-01  3.80713427E-01  1.67358220E-01  3.66677931E+00
 -1.99609839E+00 -2.44504257E+00 -2.06702290E-01  9.49627690E+00 -1.67665150E+00
 -1.80298378E+00  5.07950222E-01 -9.65656200E-03  3.25625456E-03 -3.02739332E-03
  2.22356654E-04 -9.85467002E-04  3.49612150E-01 -2.73624984E-01 -7.94258130E-02
  5.10548406E-02  3.39718963E-02 -1.76588819E-03 -4.76173541E-03  7.03282913E-03
  3.55006404E-02 -1.92821607E-01  8.18915049E-01 -7.15023870E+00 -5.67346554E-01
 -1.63375750E-01  1.38905757E+00 -3.25484223E-03 -2.81972351E-03  2.85231010E-03
  8.82798029E-04 -1.09796632E-03 -5.84978721E-03  7.18955950E-03  2.59033170E-02
  4.73083021E-02  7.91600575E-03 -1.29806127E-01 -3.79272985E-01  3.17330241E-01
  5.64017645E-01  5.10975775E-01 -1.00617378E-01 -2.37749343E-02 -1.03180854E-01
  2.51147251E-02 -1.45052782E-02 -2.63240000E-01 -1.25701230E-01 -3.48900379E-01
  9.08935457E-02 -4.30322720E-02 -2.97761494E-03 -8.43621612E-03  1.63837094E-02
  4.41659140E-02 -1.11579405E-01 -3.52478094E-01  6.14787767E+00  9.01203722E-01
  9.77545491E-01 -2.51368349E-01  1.15287485E-02  1.82716436E-02  1.24980588E-02
 -5.03702416E-03 -8.51304028E-03 -6.90371953E-03 -1.06720654E-02 -1.21507586E-02
  1.40096708E-03 -1.05350649E-01 -1.94859661E-01 -1.90155687E-01  1.36230866E-01
  2.86152587E-01  3.39275112E-01  2.13122264E-02  1.07803501E-02  3.03069561E-02
 -8.40442170E-03  6.81724478E-03  5.38014596E-02  3.22811370E-02  7.45311384E-02
 -1.81351294E-02 -3.06623095E-03  5.18043820E-03  7.97048080E-03  8.84606906E-03
  5.63545927E-03 -1.32809361E-02 -1.66677119E-03  9.94318250E-03  5.34892594E-03
 -1.76303615E-02 -6.45010542E-01  6.14781094E-02 -5.78812035E-02 -3.56498151E-01
 -1.02539529E+00  4.05162191E-01  3.65576974E-01 -3.14175268E-01  6.98049302E-04
  3.02446472E-04  9.37846546E-04 -2.60760359E-04  2.44047160E-04 -1.32235244E-02
  3.87002100E-03 -1.06766451E-02  4.09504521E-03 -1.58782799E-02 -2.27748127E-03
 -6.17210149E-03  9.42850229E-03  4.44585345E-02 -2.35052216E-01  1.39869815E+00
 -1.81905358E+00  4.39968816E-01  4.79082281E-01 -1.17031432E-01  3.58554212E-03
 -1.16190305E-03 -1.47524430E-02 -4.51128279E-03 -3.90878708E-03  3.93603683E-03
  2.94931064E-02  5.04274271E-02  4.20022965E-02 -2.89028572E-01 -3.74978803E-01
 -8.70086855E-02  1.58515504E-01  1.83947330E-01 -1.13643377E-02  5.13731614E-02
 -4.61730796E-02 -6.74381862E-02  3.95603593E-02 -1.16427241E-01  1.42689502E-01
 -1.56588711E-01 -2.29610954E-01  1.25451096E-01 -3.43286467E-01  6.00231050E-02
  1.22380295E-01 -2.84232889E-02 -3.27783408E-02  2.59270046E-03 -8.77090188E-01
  1.19757117E-01  8.05648283E-02 -1.67345286E-01 -4.05535129E+00 -3.31973569E+00
 -2.71284268E+00  3.33656758E+00 -1.30634922E+01 -2.90785913E+00 -1.50089455E+00
  5.31465727E+00 -7.39327823E-03 -6.72039734E-03 -7.42294522E-03 -6.49795364E-05
  1.44015580E-02  1.17991811E-01  1.45050266E-01  2.30970433E-01 -5.38430812E-02
 -6.28680808E-02 -4.17636032E-02 -7.74254887E-02 -8.54808123E-03 -4.89973077E-03
  1.42001421E-02  4.54594473E-01 -6.27412202E-03 -1.56249345E-02 -2.28231765E-02
  4.46771988E+00 -2.46765527E+00 -1.50117213E+00  3.89014366E+00  1.74985134E+01
 -2.66127876E+00 -2.47762280E+00  1.85144671E+00  1.81592284E-03  1.14441393E-02
  9.96182098E-03 -1.39244787E-03 -1.28298644E-02  6.11130134E-02 -5.68731305E-02
  1.40513993E-01 -8.97022746E-02  4.21753977E-01 -7.79401798E-03 -2.16961945E-02
  3.86678850E-02  1.30175723E-01 -3.86268419E-01 -4.34371202E-01 -4.15564661E+00
 -9.32845837E-02  2.00551096E-01  8.46684353E-01 -1.33995359E-04 -6.56694821E-03
 -1.74683398E-02 -1.21452218E-04  3.51210564E-03  9.96342287E-03  2.77076768E-03
 -1.26252007E-03 -1.23647419E-02 -2.06979312E-02  1.16292170E-01  3.83672058E-01
  4.22144711E-01  6.20592902E-01  3.27443392E-01  6.19250316E-02 -5.20436634E-02
 -2.93371263E-02  1.70848219E-02 -2.14845034E-02  1.20116688E-01 -2.07042353E-01
 -2.06636191E-01  8.61938447E-02 -9.51953910E-02 -7.71486466E-03 -2.14061858E-02
  3.74969662E-02  1.31559001E-01 -4.17717179E-01 -2.20543766E-01 -2.53862220E-01
 -5.99200058E-02 -1.46256744E-01 -2.06381095E-01  7.97198980E-03  1.58173432E-02
  1.72900384E-02 -4.25870611E-03 -7.98485672E-03 -7.97510837E-03  2.36981381E-03
 -1.95355798E-03 -1.29340452E-02 -1.55940750E-01 -2.51777660E-01 -1.81714355E-01
  2.08110891E-01 -2.89369376E-03 -6.78066850E-01 -8.11632474E-02  5.32222989E-03
 -2.90324095E-02 -4.01097845E-03  4.99751364E-02 -3.05907512E-01 -4.44150977E-02
 -2.02394489E-01  1.83712071E-02  1.51211060E-01 -1.29382262E-03 -1.13579749E-03
  2.70227994E-02  2.29893961E-02 -2.46490833E-02 -2.20475126E-02  4.86475042E-02
  3.30900795E-02 -6.69983569E-02  3.10358142E-01  5.39298013E-02  1.15965544E-01
  1.41920813E-01  1.73134116E+00  1.32883510E-01  4.55886498E-01  8.12141058E-01
  2.11885328E-03 -2.01656530E-03 -1.29080687E-03  6.77029945E-04 -7.50436376E-04
  2.57827823E-02 -2.06668400E-02  1.10476611E-03 -6.99672409E-04  2.13926619E-02
 -5.12832974E-03 -1.40180822E-02  2.26814742E-02  9.43696344E-02 -3.03801211E-01
  2.13600745E-01 -1.13138841E+00  2.50496560E-01  4.16136148E-01  3.24605371E-01
 -1.43850391E-02 -1.43118767E-02  7.51210684E-03  5.73500290E-03  5.94691985E-03
 -2.33672774E-03  1.50488989E-02  1.14741108E-02 -1.73952421E-02  1.24086195E-01
  1.49573395E-01  6.38342777E-03  3.15751504E-01  1.20441149E-01 -6.93651325E-01
  5.33638632E-02  5.15940059E-02  7.02510983E-02 -8.46709918E-03 -7.18624487E-02
  2.87010171E-01  1.84751739E-01  2.78845277E-01 -1.89132302E-02 -3.52667329E-01
  3.61493239E-05  7.45258242E-05 -2.13982035E-03  1.73985365E-03 -6.74621184E-04
 -5.65672579E-04 -9.21196137E-02  7.75871866E-02 -2.86270297E-02 -2.35944455E-03
  1.19161943E+00 -1.00680077E+00  3.70888925E-01 -6.75614380E-03 -7.24257016E-01
  6.05960085E-01 -2.22338805E-01  1.04716073E-03 -3.69941137E-04 -4.19612494E-03
 -1.44501689E-02 -1.86486837E-03 -1.26037053E-01 -2.68221499E-01  1.32519691E-01
 -2.86027446E-01 -1.23143425E-01 -1.86026269E-05 -3.37470171E-05  1.66677659E-02
 -1.40276790E-02  5.17376468E-03  1.78557626E-04  1.47854024E-01 -1.24482346E-01
  4.57211961E-02  2.31313537E-03 -9.09939646E-01  7.64347407E-01 -2.78636216E-01
  9.66083410E-03  5.03626282E-01 -4.25715395E-01  1.57580477E-01 -6.64432289E-03
 -1.19980602E-02  9.51452395E-03 -1.29797414E-03 -4.12362815E-03 -3.05785826E-01
 -5.47819580E-01  4.43123554E-01 -2.90590577E-02 -1.83913271E-01 -3.23987286E-06
 -9.05191907E-06  1.64361310E-05  5.29906598E-05 -1.47011732E-04 -3.49232879E-04
  1.94910636E-04  2.36568359E-01 -1.99175741E-01  7.30780528E-02  1.04247580E-03
 -8.77491318E-04  3.15174993E-04 -1.51732798E-04  1.27709106E-04 -4.18596479E-05
 -4.29065413E-03  3.61103449E-03 -1.34184606E-03  7.35087772E-03 -6.17239911E-03
  2.50465644E-03 -1.99434159E-01  1.68564531E-01 -6.17679490E-02  4.94261571E-03
  1.56836242E-02  1.15344652E-03  4.54186523E-02  1.06730492E-02  1.69083860E-02
  4.91318003E-02 -1.59834243E-03  1.25727680E-01  3.14190385E-02 -6.04049483E-06
 -1.67158387E-05  2.88647128E-05  1.04887191E-04 -3.53118074E-04  1.35290111E-04
 -2.60336875E-03  4.06805637E-01 -3.43490565E-01  1.25654171E-01  4.76140093E-03
 -3.99616262E-03  1.48201113E-03 -1.31526629E-03  1.10152661E-03 -4.10903586E-04
 -1.18003994E-02  9.92846626E-03 -3.65911710E-03  2.18901610E-02 -1.85995487E-02
  6.69195707E-03 -6.29841294E-01  5.30519363E-01 -1.95175936E-01 -1.77178756E-02
 -5.16256592E-02  1.93641156E-03 -1.30620805E-01 -3.28460225E-02 -7.78309048E-02
 -2.23608438E-01  1.23629402E-02 -5.52725218E-01 -1.40699750E-01 -2.69653332E-06
 -4.02559342E-06 -2.63344657E-02  2.22251325E-02 -8.15669502E-03 -3.01021681E-07
 -4.12950119E-02  3.48504276E-02 -1.28049350E-02  2.66741957E-04 -1.19050859E-01
  1.00451150E-01 -3.67005158E-02  1.13235435E-03  2.27268871E-02 -1.88415704E-02
  7.41897985E-03  3.15539595E-03  5.74696366E-03 -4.45871082E-03  9.21383808E-04
  2.00604383E-03  8.64711718E-03  1.43183345E-02 -1.38509857E-02 -6.50177889E-03
  3.94756830E-03 -3.37443112E-06 -9.21820224E-06  1.48477775E-05  6.25667885E-05
 -2.13215159E-04  2.88736486E-04 -1.21884022E-03 -3.05582637E-01  2.57885627E-01
 -9.42580041E-02 -2.91246727E-04  2.28973832E-04 -8.08202875E-05 -2.28175206E-04
  1.98306466E-04 -7.35279870E-05  3.06434314E-03 -2.55902892E-03  9.28217098E-04
 -2.46356414E-02  2.08522698E-02 -7.63019251E-03  4.85854266E-01 -4.09111932E-01
  1.49724614E-01  9.24123460E-03  1.31934782E-04 -3.27342625E-02 -1.05102550E-01
 -1.27536685E-02  1.85774759E-02 -3.32610704E-02 -1.05145366E-01 -4.27058681E-01
 -6.29864023E-02  2.95836110E-02  6.00563394E-02  2.61508132E-02  4.94538766E-02
  5.01280018E-02 -4.79214923E-01  4.16002642E-01  4.40672239E-01 -1.44622470E-01
  7.55262756E+00  4.32168313E-01  3.28914766E-03 -1.38620590E+00 -7.36556062E+00
  3.72763574E-01  2.57724947E-03 -1.19924421E+00  7.09751077E-03 -1.38565827E-02
 -1.31831459E-02  5.09738121E-03 -3.09544345E-03  3.27742909E-02  1.44002567E-02
  5.31415846E-02 -1.76034349E-02  3.28611846E-02  1.11196814E-02  2.48354861E-02
 -5.70240536E-02 -4.15037356E-02  7.12851825E-02 -2.75960577E-01 -2.90597254E-01
 -2.62046261E-01  2.25685782E-01  9.66467003E-01  3.90777809E+00  2.37094117E+00
 -6.17512044E+00  5.81850122E+00 -3.42462109E-02  4.73083492E-01  1.39984306E+00
 -1.46370438E-02 -6.78242480E-03 -1.55835384E-02  2.78170410E-03  6.54221786E-03
  5.13473973E-01  2.84599365E-01  5.74218437E-01 -9.74112597E-02 -3.02679521E-01
 -7.76725365E-04 -2.08385833E-03  3.03209781E-03  1.53944900E-02 -2.58267532E-02
 -2.85466048E-01  2.96097610E+00 -3.72630017E-02 -2.51160998E-01 -5.63626444E-01
 -1.11281087E-02 -1.49874161E-02 -4.85550407E-03  3.61075938E-03  5.61109503E-03
  3.61359998E-03  2.52455088E-02  2.49015344E-02 -1.37754407E-02 -1.08792277E-02
  5.68960806E-02  1.90168010E-01  2.51393452E-01  2.35540978E-01 -1.71183503E-01
  1.65226202E-02 -5.42095749E-02 -4.88404983E-02  1.49537614E-02  1.39471550E-02
  2.69330993E-03 -2.17866931E-01 -2.32120918E-01  6.33989914E-02  7.50497816E-02
 -1.64807353E-03 -4.74041365E-03  9.90747944E-03  2.13579522E-02  2.31203889E-02
 -1.14026647E+00  2.00344215E+00  1.34641986E-01  3.73639545E-01  5.82725536E-01
  5.72678238E-03  6.74932917E-03 -1.25876357E-04 -5.54604735E-03 -6.67884129E-03
 -2.63824869E-04  2.88551161E-02  3.64927211E-02  6.10760169E-03 -3.10258017E-01
 -3.89467065E-01 -5.78224266E-02  1.11659863E-01 -2.17084847E-02 -4.20414712E-01
 -7.33042008E-03 -2.68228510E-02 -3.50762962E-03 -9.86741371E-03  8.50768739E-02
  1.25908815E-02 -1.16056537E-01 -5.62983622E-02 -4.39771415E-03  1.89534759E-01
  5.67149729E-03  8.50191417E-03 -2.37879171E-02 -3.19039549E-02 -1.00077388E-02
  1.39762245E-02 -2.57788700E-02 -3.77953782E-02 -1.96201293E-02 -1.15985372E+00
 -4.29059685E-02 -3.26867067E-01 -7.51661044E-01 -5.59817460E+00 -7.47845836E-02
 -8.57154327E-01 -2.09282156E+00  2.39691173E-03 -1.44893787E-04  1.19200643E-03
 -8.20583567E-05 -6.64332654E-04 -6.39313616E-02  1.38908823E-02 -2.12438502E-02
 -6.31938822E-04  1.38196135E-02 -2.36125645E-03 -6.66358622E-03  1.27137645E-02
  3.63093420E-02 -8.22599996E-02 -7.67128889E-01 -2.69842206E+00  5.82757215E-01
  5.08110951E-01 -5.00239186E-01  4.99651803E-03 -4.16188954E-03 -2.74985863E-02
 -7.96097253E-06  3.79278975E-03  1.03600185E-02 -2.83925297E-02 -1.71284571E-02
  4.51490440E-02  1.32906082E-01  2.10421223E-01  1.43507191E-01 -1.54507163E-01
  1.88594157E-01  1.01351685E+00 -5.49428853E-02 -5.96084728E-02 -8.25325245E-02
  1.26473062E-02  6.79898998E-02 -1.98315465E-01 -2.38678281E-01 -3.35892443E-01
  6.03399484E-02  2.21612478E-01  4.93089893E-02  1.02916554E-01 -3.20327961E-03
  3.30784365E-04  1.11942464E-02 -1.20206579E+00  2.89455652E-01  2.50777758E-01
 -2.52784641E-01  1.44478142E+01  4.88744000E+00  4.02173065E+00 -4.84363210E+00
 -1.87764460E+01 -3.14164562E+00 -1.49006002E+00  6.09612041E+00 -1.08554963E-02
  2.61507803E-03 -9.13688654E-03  3.39248079E-03 -1.22912482E-02 -1.47777016E-01
 -5.78249611E-01 -6.86976507E-01  1.66409541E-01  2.86025451E-01 -6.24428513E-02
 -1.30179860E-01 -2.95664648E-03 -1.26883313E-02 -2.50484675E-02  1.54375564E+00
  3.88488794E-01  3.46128552E-01 -3.13094671E-01 -1.74172340E+01  4.27830253E+00
  3.95503451E+00 -3.05641608E+00  2.03828116E+01 -2.12033291E+00 -1.52972206E+00
  2.68647122E+00  7.69529847E-03 -2.68405794E-04  8.75835863E-03 -3.22656552E-03
  9.61772917E-03 -2.09736200E-01  5.31884607E-01  3.53867175E-01 -8.38898967E-02
 -3.69098004E-01  5.72950611E-03  1.57631968E-02 -2.63352410E-02 -1.03845454E-01
  3.94106476E-01 -1.63842735E-01 -2.25625398E+00  5.06413913E-01  6.12151255E-01
  3.06496148E-02 -8.41169260E-04  7.44014079E-03  2.29814486E-02 -5.83264548E-05
 -2.91060105E-03 -7.73795604E-03  4.40959444E-03 -1.15636250E-02 -4.57472963E-02
 -2.47150044E-02 -5.47304288E-02 -6.91810618E-02 -5.50403399E-01 -4.90363847E-01
  4.43532545E-01 -8.27851872E-03  1.83369763E-02  3.61863578E-02 -1.79226248E-02
  4.90790428E-02 -6.34196411E-02  9.31905418E-02  1.25638722E-01 -6.15634725E-02
  1.39991001E-01  6.03816157E-03  1.66488197E-02 -2.81494219E-02 -1.08144885E-01
  4.11019449E-01 -3.45753038E-01  3.38721101E+00  9.22719194E-01  8.84850185E-01
 -5.72618979E-01 -1.17243574E-02 -1.65508632E-02 -7.18501024E-03  3.51672047E-03
  4.95047215E-03  2.11748696E-03  2.77592271E-02  3.94064407E-02  1.76063687E-02
 -8.98474603E-03 -4.23638068E-03  1.75220053E-02 -3.47852036E-01 -1.42097281E-01
  7.37114384E-01  4.24309690E-02  8.31615589E-03  4.68474099E-02 -1.32713216E-02
  1.96168588E-02  1.49882541E-01  2.56469062E-02  1.46764655E-01 -3.67416318E-02
  3.37392129E-02  5.82367969E-03  1.16640972E-02 -8.01862346E-03 -1.58042578E-02
 -1.71055697E-02 -9.51896959E-02 -1.35372969E-02 -3.06928536E-02 -3.98063198E-02
  5.74527924E-01 -4.92670276E-02  1.21813572E-01  4.91094813E-01  2.50258197E+00
 -5.22004534E-01 -1.19873725E-01  1.36081633E+00 -2.96492529E-04 -1.24670727E-03
 -1.83249431E-03  5.80918964E-04 -3.02788370E-04  4.68561349E-02 -6.45666648E-03
  3.40951846E-02 -9.56297940E-03  2.49444073E-02  2.12371545E-04  6.71969740E-04
 -1.98783235E-03  2.43527537E-05 -6.71002918E-02  2.88108340E-01 -3.17381302E+00
  7.38977092E-01  6.99319586E-01 -4.84060484E-01 -2.07237435E-03 -1.30837349E-04
  6.33349239E-03 -1.09338313E-03 -2.76401498E-03 -3.99034819E-03  2.46737498E-02
  3.13073455E-02  5.52575852E-03 -1.45650302E-01 -2.15381598E-01 -1.15785353E-01
 -1.86213080E-01  6.31008799E-02  7.73990910E-01 -4.24886268E-02 -1.23382125E-02
 -5.97946394E-02  1.97143525E-02 -3.97557466E-02 -1.58868922E-01 -1.46750247E-02
 -1.33955195E-01  3.01893126E-02 -1.97567407E-02  2.79335983E-05  6.12130144E-05
  2.67790222E-02 -2.25559870E-02  8.31977378E-03 -6.58715205E-04  8.46304430E-02
 -7.10227030E-02  2.61762612E-02  3.79474395E-03  5.80534574E-01 -4.88775269E-01
  1.78191753E-01 -8.34717519E-03 -3.22303937E-01  2.68523021E-01 -9.49534983E-02
  7.30549632E-03  1.05893349E-02 -1.35729517E-02 -1.55211824E-02  1.60845245E-03
  2.15277392E-01  3.59382272E-01 -3.42827147E-01 -1.47974149E-01  1.00725339E-01
 -1.00242504E-05 -1.84264876E-05  2.46752317E-02 -2.08109527E-02  7.62264314E-03
  2.03147957E-04  7.92558372E-02 -6.67425627E-02  2.43450331E-02 -3.08781153E-03
  1.28488426E-01 -1.06150614E-01  3.94503619E-02  1.14128644E-02  1.02215864E-02
 -1.16329671E-02  4.91813869E-03 -3.92098637E-03 -4.10464269E-03  9.14715772E-03
  1.84655744E-02  8.80521687E-04 -8.15816878E-02 -2.54438305E-02  2.61824116E-01
  7.72644777E-01  8.51409237E-02 -3.99111208E-06 -1.09633409E-05  1.82009778E-05
  7.24221163E-05 -2.45236869E-04  3.57082836E-04 -3.14244736E-03  2.58349516E-01
 -2.17175941E-01  8.04285955E-02  1.34789259E-02 -1.13577666E-02  4.16435997E-03
 -4.89064719E-03  4.12168071E-03 -1.51056282E-03 -2.40365448E-02  2.02472472E-02
 -7.43405984E-03 -2.57237867E-02  2.17091424E-02 -7.89246080E-03 -4.15895082E-01
  3.50428316E-01 -1.28399868E-01  4.46171154E-02  8.40258055E-02 -5.98802390E-02
  3.04278843E-02  3.13735016E-02  2.01474181E-01  3.72283477E-01 -2.79122528E-01
  9.05815040E-02  1.33658323E-01 -3.12949536E-06 -8.70258837E-06  1.54417810E-05
  5.28261550E-05 -1.45166195E-04 -3.51340211E-04  1.86663945E-05  1.24054927E-01
 -1.04325700E-01  3.79626680E-02  7.54063622E-03 -6.34492673E-03  2.33338107E-03
 -2.65706590E-03  2.23247003E-03 -8.22476800E-04 -1.45332640E-02  1.22669794E-02
 -4.49420180E-03 -1.65674552E-02  1.36455638E-02 -5.14681934E-03 -1.16027909E-01
  9.75200798E-02 -3.58353634E-02 -2.58337391E-02 -4.62884347E-02  3.74216891E-02
 -2.57500398E-03 -1.55543064E-02 -7.54500162E-02 -1.41719724E-01  1.01640449E-01
 -4.92907627E-02 -5.26822267E-02  7.37375650E-07  1.98637940E-06 -1.39283359E-02
  1.17497698E-02 -4.32703865E-03 -2.50891770E-05 -1.94504060E-02  1.64184077E-02
 -6.06512165E-03  1.81691585E-04 -4.18938991E-02  3.52791558E-02 -1.28816321E-02
  5.07149707E-04  1.35321741E-03 -1.25071818E-03  7.40145187E-04  7.31617424E-04
  1.53310449E-03 -7.89185830E-04  1.53387044E-03  6.91269793E-04  1.13911770E-03
  1.22623284E-02  1.05241285E-02  6.63829337E-02  1.21120145E-02 -2.59947739E-06
 -7.15701715E-06  1.20241715E-05  4.67569764E-05 -1.60351863E-04 -1.36484399E-04
 -5.66679264E-04  1.57407968E-01 -1.32223068E-01  4.85244053E-02  1.26978830E-02
 -1.07095426E-02  3.93453603E-03 -4.96987294E-03  4.19222681E-03 -1.54005248E-03
 -1.91457193E-02  1.61390158E-02 -5.93092603E-03 -4.13707930E-02  3.49983480E-02
 -1.28312777E-02 -3.32794025E-01  2.80412338E-01 -1.02885011E-01  2.37183107E-02
  5.56926694E-02 -1.87059436E-02  8.74932563E-02  2.89547366E-02  8.80896457E-02
  2.24369370E-01 -4.85622584E-02  4.38499291E-01  1.27058816E-01  9.59478097E-03
  2.84728163E-02  2.05469402E-02  4.99791163E-02  6.96715043E-02 -5.29822445E-01
  9.16715023E-02  3.24849623E-01  5.88287742E-01  4.20624565E+00  8.18775390E-01
 -1.07121682E+00 -5.56483463E+00 -3.77995093E+00 -2.54093084E+00 -2.40000104E+00
  1.67704454E+00 -3.09515786E-03  1.32952353E-02  8.98416572E-03 -1.53759743E-03
 -1.25728925E-02  2.80901052E-01 -2.37986432E-01 -3.50640944E-03 -2.62577236E-03
  2.32833315E-01  2.54516910E-02  5.56380505E-02  6.45994001E-03 -1.45722139E-02
 -6.05981627E-02 -4.41806583E-01 -1.25558289E-02 -1.94476880E-01 -4.89152867E-01
 -4.67791229E+00  2.29066324E+00  3.58355072E+00  2.35611231E+00  9.39089013E+00
  2.93622292E-02  4.99344513E-01  1.26453131E+00 -7.91437225E-05  9.31113436E-03
  1.32729554E-02 -4.76572073E-03  5.12573346E-03  2.40817113E-01 -6.75005464E-02
  8.85379505E-02 -8.74061603E-03  1.54093449E-02 -3.88315631E-04 -5.26304437E-04
 -4.13242271E-03  2.63766792E-02 -1.90105515E-01  1.99743788E+00 -4.15253678E-01
  3.84470285E-01  4.36965705E-01 -5.27414569E-02  6.10572087E-03  1.18503476E-02
  1.25129324E-02 -7.91735366E-05 -3.68344030E-03 -9.76614083E-03 -3.13725634E-02
 -2.65895604E-02  2.90331790E-02  1.12981815E-01 -4.11329770E-02 -4.77174883E-01
 -1.51611875E-01 -2.89853686E-01 -2.99361406E-01 -6.28990718E-02  6.89004206E-02
  1.79274907E-02 -4.17325715E-03 -5.68359896E-02 -2.25273157E-01  1.76695123E-01
  3.38906297E-03 -3.28856267E-03 -1.43444050E-01 -7.08986575E-03 -1.96538716E-02
  3.42947455E-02  1.22731528E-01 -3.58358713E-01 -9.56222960E-01 -2.83032916E+00
 -8.72005759E-02 -4.38773863E-01 -9.13155404E-01  1.64038303E-02  1.56511607E-02
 -1.04069861E-02 -8.98629329E-03 -9.71652721E-03  2.58707551E-03  6.34586926E-03
  1.94626781E-02  3.25161141E-02 -3.44280689E-01 -4.41735372E-01 -9.02073111E-02
 -5.26702651E-01 -3.98860986E-01  6.16549970E-01  5.12252107E-02  4.24500115E-02
  8.75714367E-02 -2.31629271E-02  3.05865653E-03  2.82509911E-01  1.49133213E-01
  3.25511996E-01 -6.22042894E-02 -1.19644664E-01 -2.17905317E-03 -2.18626461E-03
  1.60782600E-02  1.42346257E-02 -1.31996325E-02 -3.09756171E-02  4.46748196E-02
  3.51180950E-02 -4.87644010E-02  7.14453566E-01 -1.66915352E-01 -1.26201819E-01
  1.95831744E-01  1.90681963E+00 -2.48769602E-01 -7.44336336E-02  6.01543966E-01
  3.86266791E-03  4.26415241E-04  3.44131588E-03 -8.23356510E-04  7.27432710E-04
  2.57504704E-03 -3.90290529E-02 -1.77428347E-02 -2.69609350E-03  6.95630922E-02
 -1.07258079E-02 -2.97754360E-02  5.22302377E-02  1.85772466E-01 -6.20951708E-01
 -6.65001811E-01 -3.54570446E+00  6.12530191E-01  7.94568295E-01  1.83891976E-01
 -1.95048058E-02 -2.01203048E-02  8.22183263E-03  9.89492366E-03  1.05570050E-02
 -3.22105585E-03  4.50185070E-03  7.99747647E-05 -1.42947782E-02  3.22205475E-01
  3.82906381E-01  1.47395840E-03  1.27114218E-01  1.86128787E-01  9.62895752E-02
 -6.17980613E-03  1.47985392E-02  3.10721294E-02 -1.54787115E-02  4.33756397E-02
  1.87748476E-02  9.25557695E-02  1.56201466E-01 -5.65241630E-02  7.79529094E-02
  1.80921074E-02  4.29420708E-02 -2.38243014E-02 -3.05296640E-02 -6.14933809E-03
 -5.95678888E-01 -1.29518733E-01 -2.86027961E-01 -3.60410552E-01  6.33985121E+00
  3.59184118E+00  4.43115805E+00  4.58236050E-01 -6.49493736E+00 -1.68077850E+00
 -2.16017905E+00 -4.50664024E-01  2.89802240E-03  1.28495212E-02  1.36591268E-02
 -2.81624405E-03 -9.73763763E-03  2.19643586E-01 -1.70232904E-01  6.06996228E-02
 -3.52803719E-02  2.93403771E-01  2.56407634E-02  6.03650426E-02  4.48546843E-02
  6.43935144E-02  3.03737344E-02 -8.24825793E-01  2.62545637E-01  3.48206058E-01
  9.96514656E-02 -9.37009540E-03  1.47342364E+00 -1.06780002E+00 -7.67005557E+00
  8.91968010E+00  1.06987289E-02  6.73313237E-01  1.79890234E+00 -1.62759344E-02
  1.07760522E-02  3.03124215E-03 -2.68991491E-03  2.70286131E-03  5.69153441E-01
  2.03570172E-01  6.94153917E-01 -1.84658237E-01  1.49305699E-01 -9.09659942E-03
 -2.51005005E-02  4.26802174E-02  1.63517956E-01 -5.20797440E-01 -6.83114961E-01
  1.27700355E+00  3.85461885E-01  3.96691088E-01 -1.65887119E-01  2.00897292E-02
  1.35318676E-02 -2.80916694E-02 -8.02989639E-03 -4.09540792E-03  1.48054188E-02
 -2.71763936E-02 -3.49139120E-02 -7.23736998E-03 -1.54541858E-01  3.60854734E-02
  5.97913246E-01 -4.07934374E-01 -4.56951743E-01  7.44890382E-02  9.05308157E-03
  4.65389211E-02  7.63634543E-02 -2.71473679E-02  3.44924327E-02 -1.27019045E-01
  2.37455589E-01  2.53633688E-01 -1.05857523E-01  1.31243941E-01 -1.71866027E-03
 -4.34930042E-03  3.72904448E-03  4.54165082E-02 -2.51231024E-01  1.77530615E+00
 -5.51765841E-01  8.49340691E-02  6.48210508E-02 -9.77652610E-02  7.47009103E-03
 -2.05329632E-03 -2.97475123E-02  1.69683730E-04  4.17457260E-03  1.08245322E-02
 -4.27764063E-02 -3.14139902E-02  5.27284618E-02  2.06949660E-01  3.02244731E-01
  1.54256926E-01  8.48799663E-02  2.36411973E-01  3.69270100E-01  3.76878095E-02
  3.78139422E-02  3.63435102E-02  2.63746702E-03 -8.80638859E-02  1.44859137E-01
  1.04244217E-01  1.18223210E-01  8.23376684E-03 -2.67535415E-01  1.75608775E-02
  2.97187764E-02  1.48824294E-02  5.53525449E-03 -3.30036312E-02 -8.31260259E-02
  2.39057986E-02  1.61177206E-03 -7.28388455E-02 -1.64897793E+00  1.63412932E-01
 -1.39783551E-01 -9.08865214E-01 -6.24932458E+00  9.82914361E-02 -7.10905870E-01
 -2.25415149E+00  2.17444941E-03 -3.18786320E-03 -2.47828444E-03  9.90993251E-04
 -2.51415993E-04 -7.79579353E-02  2.89218539E-03 -4.31281702E-02  4.65995381E-03
  1.63114123E-02 -7.77046365E-03 -2.12456101E-02  3.42396014E-02  1.47780151E-01
 -5.90629352E-01  1.53039886E+00 -2.69589569E+00  4.54715274E-01  4.99060683E-01
 -1.10622803E-01 -8.77272930E-04 -6.37151923E-03 -1.45131274E-02 -1.16772052E-03
  1.06951563E-03  6.68540285E-03  1.56794291E-02  2.36503314E-02  1.37270815E-02
 -1.28972518E-01 -1.03304971E-01  1.35497313E-01 -2.93823524E-01 -2.30424196E-01
  3.22096257E-01 -2.09933216E-02  9.80923074E-03 -1.89270554E-02  9.06933714E-03
 -4.12944331E-02 -6.42129582E-02 -3.20875945E-02 -1.47353412E-01  5.99086348E-02
 -1.61913507E-01 -3.63281655E-03 -2.82773689E-03  3.18592707E-02  4.65263215E-02
  2.37517045E-02 -6.06487553E-02 -6.53759539E-02 -3.32086427E-02  1.20962365E-01
 -1.99397710E+00 -1.06287165E+00 -1.32830060E+00 -1.82297065E-01 -3.20431493E+00
 -1.31360519E-01  6.08395259E-01  2.08175822E+00  2.49756108E-02 -1.39026953E-02
 -1.22849715E-02  9.77527792E-03 -3.12287380E-02  7.08404241E-02 -5.44055784E-02
 -6.80847574E-02  4.26866922E-02 -1.27426760E-01  6.51996960E-03  1.14755930E-02
  1.45431796E-03  3.03076658E-02  7.78473057E-02  1.40394328E-01 -6.45048781E-02
  2.63768548E-02  2.80293520E-01 -1.49106666E+00 -1.47361418E+00 -8.89173881E-01
  2.34170050E+00  7.62060077E+00  1.03563844E+00  1.68416960E+00  1.23878253E+00
 -3.47593468E-02  1.35766771E-02  3.26459717E-03 -7.22979412E-03  2.63348836E-02
 -6.45004845E-01 -1.43534057E-01 -5.89460864E-01  1.20089241E-01  6.12314526E-02
 -1.34287536E-02 -3.67631916E-02  5.95319811E-02  2.60200262E-01 -1.08656432E+00
  1.79002606E+00 -3.22666813E+00 -1.94200061E-01  1.80393743E-01  1.11908887E+00
 -2.26944608E-02 -2.11606611E-02  1.56881248E-02  7.14253929E-03  7.12040790E-03
 -3.68100397E-03  5.36515041E-02  4.70341011E-02 -4.52535262E-02  2.73973067E-02
  3.96620574E-02  1.95817593E-02  2.12632639E-01  4.27159730E-02 -5.70732989E-01
  4.21871599E-02 -4.36510490E-02 -2.33792016E-02  1.07335156E-02  1.78417788E-03
  1.07532041E-01 -1.45969650E-01 -1.06301421E-01  4.33463290E-02 -7.34416760E-03
  1.93599336E-02  5.31857699E-02 -8.78081499E-02 -3.69006190E-01  1.52648410E+00
 -2.38383782E+00  4.00418592E+00  9.76414732E-01  1.20369973E+00  1.22201380E-01
 -3.60164181E-03 -3.12836980E-03  3.16314576E-03  2.15943202E-03  2.24459628E-03
 -8.81755654E-04  1.10095966E-03 -1.47858496E-03 -7.66760606E-03  5.91609511E-02
  7.10187537E-02  2.07776269E-03 -4.91566545E-01 -6.61464115E-01 -2.12776081E-01
  3.63526501E-03  6.65143491E-04 -1.30858003E-02  9.33355969E-03 -4.09772166E-02
  7.56150310E-03 -5.20969542E-03 -2.99221947E-02  1.86052100E-02 -7.20816070E-02
 -1.24811045E-02 -2.01595186E-02  2.48262559E-02  3.33720622E-02  1.06876319E-02
  3.29401975E-02  6.05330620E-02  5.93593320E-02 -3.39176945E-02  1.18020429E+00
 -1.76085937E-01  1.52753909E-01  9.85336164E-01  2.00474857E+00  1.02087300E-01
  2.30860820E-01  2.98875677E-01 -9.03261830E-03  2.45310824E-03 -2.94388165E-03
  5.77588068E-05  6.01797483E-04  7.95346696E-03 -1.49783986E-02 -3.43583798E-03
 -1.03348855E-03  2.31997275E-02 -2.12537138E-02 -5.79414316E-02  9.14589422E-02
  4.21894291E-01 -1.81584496E+00  3.10076224E+00 -6.06770714E+00  1.18475876E+00
  1.61451043E+00  5.67793307E-01  1.86523577E-02  1.94995277E-02 -7.15023838E-03
 -6.35446581E-03 -6.62662578E-03  2.48011339E-03 -3.56410978E-02 -3.64192829E-02
  1.59510826E-02 -5.92327843E-02 -7.03217731E-02 -1.56412305E-04 -5.54957283E-01
 -8.14009829E-01 -4.23470209E-01 -1.70315334E-02  4.71736687E-03  1.57084272E-02
 -1.29057420E-02  5.40994892E-02 -9.90352009E-02 -1.55300244E-02  7.38992098E-03
 -3.92653140E-02  2.34753700E-01 -6.09041988E-07 -4.77306770E-07  4.24926383E-02
 -3.58370662E-02  1.31285326E-02 -4.01706992E-05  1.94881530E-01 -1.64387993E-01
  6.02415271E-02 -2.38507192E-04  8.18371234E-01 -6.90325721E-01  2.53035022E-01
 -3.02137804E-04 -3.95821236E-01  3.35397984E-01 -1.22410322E-01  5.13265761E-03
  1.00751263E-02 -6.37794320E-03  6.23014587E-03  4.07232252E-03 -1.40659817E-01
 -8.49354847E-04  5.01134674E-01  1.60727120E+00  1.94424719E-01  4.19096493E-06
  6.90461927E-06 -6.32939395E-02  5.33158226E-02 -1.95983573E-02 -5.01246999E-05
 -2.17152006E-01  1.82894271E-01 -6.73353946E-02  4.60350297E-04 -9.70661206E-01
  8.16838808E-01 -3.00336960E-01 -1.04640118E-03  3.89858776E-01 -3.28367350E-01
  1.20211408E-01 -1.28005963E-03 -5.38842999E-03 -1.80619245E-03 -2.01194256E-02
 -4.20683604E-03 -4.94030245E-01 -7.74017633E-01  8.48827451E-01  6.74933717E-01
 -1.73595056E-01 -5.12096383E-07 -1.32728371E-06  1.39477258E-06  1.33139049E-05
 -9.64314673E-05  3.85911231E-04 -2.64731000E-04  1.61537208E-01 -1.36272887E-01
  5.00932996E-02  5.89693977E-03 -4.96188654E-03  1.82732184E-03 -1.79429767E-03
  1.50966193E-03 -5.57660578E-04 -1.52870893E-02  1.28665667E-02 -4.71650770E-03
  1.96505470E-03 -1.67221156E-03  4.69699941E-04 -1.60822803E-01  1.35478455E-01
 -4.99162517E-02  1.47035615E-02  1.66641310E-02 -3.27869726E-02 -6.12294505E-02
 -1.92809496E-03  3.85996619E-02  4.22235613E-02 -8.75843288E-02 -1.69772628E-01
 -6.65612746E-03  6.80252276E-06  1.84087848E-05 -2.77352039E-05 -1.40517228E-04
  6.38908620E-04 -1.25926488E-03  2.13448889E-03 -2.85843481E-02  2.49263121E-02
 -8.70219427E-03 -2.68480043E-02  2.26388060E-02 -8.30744202E-03  1.00063712E-02
 -8.43894939E-03  3.09617765E-03  4.85461948E-02 -4.09184726E-02  1.50228104E-02
  9.28615114E-02 -7.84116452E-02  2.87251041E-02  1.55648686E-01 -1.31722667E-01
  4.80834819E-02  2.41861534E-02  5.09630461E-02 -2.59299412E-02  5.19034399E-02
  2.30797994E-02  9.74905842E-02  2.28489911E-01 -7.70885300E-02  3.58528155E-01
  1.18669638E-01  2.39649115E-06  3.55252705E-06 -3.07870067E-02  2.59476250E-02
 -9.52255300E-03  5.86709227E-06 -5.02687493E-02  4.23597404E-02 -1.55291127E-02
 -3.46993337E-04 -1.65996523E-01  1.39866862E-01 -5.16932053E-02 -3.74305078E-04
  5.04437178E-02 -4.24361660E-02  1.55645872E-02  3.75172061E-03  7.06275661E-03
 -5.01852025E-03  2.60143630E-03  2.64327882E-03  1.73249144E-02  4.11990162E-02
 -1.30789157E-02  6.72256926E-02  2.17096138E-02 -3.14750526E-06 -8.50073496E-06
  1.25966334E-05  6.63058005E-05 -3.36122819E-04  9.03406996E-04 -2.57670638E-04
 -1.64307596E-01  1.38700213E-01 -5.08081585E-02 -9.13617279E-03  7.70665814E-03
 -2.81906433E-03  2.51133385E-03 -2.12141446E-03  7.74502670E-04  2.59763752E-02
 -2.18741048E-02  8.02088141E-03 -1.44318743E-02  1.19206364E-02 -4.48684386E-03
  1.95395802E-01 -1.65098250E-01  6.03523862E-02  1.60684864E-02  1.96998336E-02
 -3.40768860E-02 -5.73543843E-02 -4.52180607E-04  4.87243970E-02  6.64916339E-02
 -9.54318446E-02 -1.30870658E-01  6.14433893E-03  2.19809770E-02  4.16858752E-02
  1.32755120E-02 -2.74259297E-03 -5.06222189E-02 -1.68756494E-01  4.70033689E-02
  7.54192354E-02  5.22506267E-02  8.04070428E-01  1.67420961E+00  1.68678757E-01
 -4.95541847E+00 -3.16995681E-01 -2.62718902E+00 -1.86953804E+00  3.40128985E+00
  3.75465511E-02 -5.70645803E-03  1.62482725E-02 -1.04033629E-03 -6.01817139E-03
 -7.94935681E-01 -1.84560402E-01 -6.21538584E-01  7.92643360E-02  3.67930051E-01
 -5.11652633E-04  9.26864034E-03 -5.53351380E-03  1.16672740E-02  4.98915017E-02
 -3.81411952E-01  1.40442035E-01  9.82041375E-02 -1.85394103E-01 -2.66601489E+00
  2.23738744E+00  2.83166919E+00  4.82583838E-01  5.44117022E+00 -9.95598836E-01
 -9.07639747E-01  7.45808978E-01  3.63071233E-03 -6.48342242E-03 -1.67538301E-02
  8.99240977E-03 -2.85952291E-02 -5.11273102E-01  9.63844871E-02 -7.54022376E-02
 -7.00601212E-02  3.91176267E-01 -2.52722159E-02 -6.85071133E-02  1.04227709E-01
  5.20166875E-01 -2.45446187E+00  5.93718368E+00 -5.16073325E+00  6.48626869E-02
  8.21937655E-01  2.03013837E+00 -5.48439228E-03  1.65923464E-02  6.31514575E-02
  2.63251543E-03 -7.06758960E-03 -2.78437285E-02  4.75540352E-04 -1.61479052E-02
 -4.59505062E-02  9.29035337E-02 -1.96194417E-01 -8.35494526E-01  1.41775731E-01
 -6.39860753E-01 -2.20322625E+00  8.64395277E-02 -1.08906064E-02  3.81843097E-02
 -2.14109028E-03 -1.83961380E-02  6.27553306E-01 -1.19117116E-01  2.52903912E-01
 -1.51902206E-02 -7.39551408E-02 -4.29273753E-03 -1.15293454E-02  1.65927871E-02
  9.13131630E-02 -3.73638002E-01  2.28455248E-01 -2.22611255E+00 -3.96079394E-02
 -3.12512067E-01 -7.23778919E-01  9.96348688E-04 -4.80022651E-03 -1.64561022E-02
 -1.43069605E-04  1.51807903E-03  4.65248258E-03 -5.13924523E-04  1.71227901E-02
  4.86417542E-02 -6.20069203E-02 -8.66847210E-02 -3.53129060E-02 -1.52421883E-01
 -3.44175462E-02  4.00313387E-01  1.87620205E-02  1.88128152E-02  3.48442736E-02
 -8.87368660E-03 -1.96155485E-03  2.91967524E-02  1.71286274E-03  3.66576972E-02
 -1.29125848E-02  3.66591993E-02 -5.04758575E-03 -8.88003064E-03 -3.46194834E-02
 -3.58152352E-02  1.40483400E-02  3.38972419E-02 -7.53993330E-02 -7.62218020E-02
  3.54302041E-02  6.20581340E-01  4.60780890E-02  1.51736566E-01  2.64904214E-01
  6.47441141E-01 -2.34816355E-01 -2.37033686E-01  1.12636747E-01 -9.67550151E-04
 -3.02170222E-04 -1.55501435E-04 -3.06029891E-04  2.19542340E-03 -1.51726006E-02
  1.94378215E-02  2.64355547E-02 -1.37354870E-02  3.34378749E-02  1.49581556E-02
  4.08040702E-02 -6.44807616E-02 -2.99131336E-01  1.39762413E+00 -3.38001297E+00
  1.55087213E+00 -5.67032590E-01 -7.93455953E-01 -3.28987973E-01 -8.21891381E-03
 -1.82317773E-02 -2.32918210E-02  4.52665615E-03  8.63918830E-03  8.97214277E-03
 -1.02520507E-02  6.27900044E-04  3.52303868E-02  2.41485083E-01  3.45818818E-01
  1.61956676E-01  7.65945550E-01  1.10212508E+00  5.27283892E-01  4.31146195E-03
 -2.29550623E-02 -3.99759598E-02  1.73469007E-02 -3.80357366E-02  9.23241071E-02
 -1.73728365E-01 -2.41588969E-01  1.11363031E-01 -2.36330096E-01  3.81242299E-05
  7.76660720E-05  3.41609322E-02 -2.86391647E-02  1.05598365E-02 -4.86840312E-04
  1.74848433E-01 -1.46991208E-01  5.44729991E-02  1.39176044E-03  4.34002050E-01
 -3.58892894E-01  1.28542709E-01 -3.72775015E-03 -1.02619254E-01  7.35634536E-02
 -2.81218239E-02 -6.38722505E-03 -1.40116505E-02  6.29413227E-03 -1.70595773E-02
 -6.68286686E-03 -5.61882318E-01 -9.69746795E-01  8.57461968E-01  1.89848408E-01
 -2.96582754E-01  5.21600233E-06  3.31632285E-05 -3.73731772E-02  3.15374858E-02
 -1.14483519E-02 -7.69472502E-04 -1.73024840E-01  1.46588741E-01 -5.34124946E-02
 -5.65630728E-03 -3.36820359E-01  2.90756426E-01 -1.04183586E-01  1.40040326E-02
 -4.49436260E-03  2.45320719E-03  2.30765156E-03  8.78891316E-03  1.58945466E-02
 -1.26159772E-02  1.74489021E-03  5.40296601E-03 -8.82134773E-03  1.84944746E-01
  2.44864882E-01  1.27827319E+00  2.16563241E-01 -2.28840959E-05 -6.22165856E-05
  9.65380906E-05  4.62826456E-04 -2.09166827E-03  4.64000119E-03 -2.29544063E-03
 -9.63756742E-02  8.30155048E-02 -2.87671869E-02 -3.27935268E-02  2.76457271E-02
 -1.00919215E-02  1.18108109E-02 -9.95751123E-03  3.63407195E-03  6.35704314E-02
 -5.35874357E-02  1.95851423E-02  9.86428205E-02 -8.32378504E-02  3.00777133E-02
  2.34172374E-01 -1.98192519E-01  7.07494495E-02 -3.62993067E-02 -6.69392395E-02
  5.06779448E-02 -1.47629541E-02 -2.38489788E-02 -1.94219215E-01 -3.54289871E-01
  2.75684824E-01 -5.39427612E-02 -1.23303631E-01 -2.52489670E-05 -6.79441172E-05
  9.86121451E-05  5.38099468E-04 -2.55337005E-03  5.60154613E-03 -9.94051320E-03
  9.71814157E-02 -8.50891012E-02  2.86886612E-02  2.16659577E-02 -1.83466037E-02
  6.67229331E-03 -7.37185039E-03  6.25332679E-03 -2.27083909E-03 -4.69154898E-02
  3.95981656E-02 -1.44463334E-02 -4.30196052E-02  3.72587770E-02 -1.31999736E-02
 -1.68755975E-01  1.44350650E-01 -5.12488209E-02  9.45945156E-03  6.33741644E-03
 -2.63409326E-02 -6.83702146E-02 -6.18031954E-03  1.64313423E-02 -1.31753516E-02
 -7.51332897E-02 -2.78581964E-01 -3.76303275E-02 -1.41436294E-05 -2.21903126E-05
  4.03998018E-02 -3.41160624E-02  1.25140237E-02  6.65625133E-06  8.90344895E-02
 -7.51477109E-02  2.75071987E-02  2.04257362E-03 -7.12844001E-02  6.02091519E-02
 -2.04173527E-02  1.85119975E-03  1.10854857E-01 -9.38636122E-02  3.43299902E-02
 -1.19071332E-03 -1.64434433E-03  2.24810574E-03  2.86474864E-03 -1.92589820E-04
 -2.44931230E-02 -2.81722064E-02  5.41462687E-02  9.91547164E-02  2.80703188E-03
  2.12095521E-05  5.75968472E-05 -8.84480066E-05 -4.35233522E-04  2.10509916E-03
 -5.14755657E-03  4.03853486E-04  1.20269566E-01 -1.02722320E-01  3.69598669E-02
  2.81490482E-02 -2.37586691E-02  8.66890008E-03 -1.04354163E-02  8.81604481E-03
 -3.21433505E-03 -5.19711586E-02  4.37465189E-02 -1.60037297E-02 -9.91704373E-02
  8.45707707E-02 -3.05229699E-02 -2.13212619E-01  1.82495100E-01 -6.54734945E-02
  1.68830717E-02  4.01317924E-02 -1.27301125E-02  6.59555568E-02  2.11878691E-02
  6.52343518E-02  1.77928935E-01 -2.15356588E-02  4.05406436E-01  1.07418289E-01
  1.59088700E-02  3.45037647E-02  5.69380151E-02  8.13041317E-02  3.72664882E-02
 -2.39485189E-01 -5.41631128E-02 -7.54320291E-03  1.53861480E-01 -1.68157306E+00
  2.23478165E+00  3.38837269E+00  2.00334595E+00 -6.01651615E+00 -4.07127787E+00
 -5.06041381E+00 -6.22775642E-01 -2.57890431E-02  1.54222760E-02  6.95036434E-03
 -6.17747372E-03  1.47190766E-02  5.62108541E-01 -6.97241879E-01 -6.60548254E-01
  3.14230471E-01 -4.92787586E-01  9.69039477E-03  2.78206692E-02 -3.38493086E-02
 -2.33140611E-02  4.60337171E-02 -3.08308997E-01  1.55897834E-01  2.87953754E-01
  2.80981017E-01 -2.06171803E+00 -1.04215494E+00 -1.55827760E+00 -8.74694375E-01
  1.26289417E+01 -5.79146287E-01  3.48775334E-01  2.82208204E+00 -2.18468404E-02
  4.89655721E-03 -1.14132603E-02  2.40104156E-03 -6.21065722E-03 -3.15552622E-01
 -3.32614923E-01 -6.25354747E-01  1.68510646E-01 -1.90843525E-02  2.60931341E-03
  7.09911073E-03 -1.09160326E-02 -5.44747418E-02  3.35295243E-01 -1.48332425E+00
  1.99579429E+00  5.67064327E-01  4.32074095E-01 -6.55793622E-01 -3.70568093E-03
 -6.69848429E-03 -6.09402722E-03  8.42896265E-04  3.11375847E-03  5.69540180E-03
  1.24838417E-02  1.56890702E-03 -3.64276939E-02 -4.18747578E-02  9.40568446E-02
  3.91106000E-01 -2.55689561E-01 -9.97386883E-02  5.53773165E-01 -3.27930392E-03
 -3.08324877E-04  1.81523709E-04 -1.25228649E-03  7.35629859E-03 -1.55647772E-01
 -2.85556599E-02 -1.23923360E-01  1.96133371E-02  4.39744212E-02 -2.20927573E-02
 -5.95534844E-02  8.73415242E-02  4.68367973E-01 -2.29747829E+00  5.99327122E+00
 -6.66062730E+00 -1.14395749E+00 -1.72391114E+00 -9.97406517E-01 -4.93391207E-02
 -6.46157881E-02 -1.66402578E-02  2.15281875E-02  2.85579389E-02  8.23870970E-03
  4.32386393E-02  5.09645960E-02 -6.54979753E-04  5.87965608E-01  8.16151690E-01
  3.22524520E-01  1.22100068E+00  1.70950822E+00  7.09878754E-01 -5.48730549E-02
  3.85556268E-02  3.22436017E-02 -2.16952566E-02  5.74124750E-02 -3.47950148E-01
  2.50809529E-01  2.91607365E-01 -1.88970344E-01  5.63232993E-01 -7.23222681E-03
 -1.12377456E-02 -7.85456846E-03 -1.22010630E-02 -8.09247725E-03  6.82687517E-03
  3.80230269E-03 -2.55975155E-02 -8.25581711E-02  5.62246249E-01 -1.92376847E-01
  5.03558041E-02  7.59284663E-01 -3.28764927E-01  2.67153040E-01  1.03610407E-01
 -5.81933142E-01 -9.55615498E-03  5.42676498E-03  1.31294451E-04 -8.99565726E-04
  1.98599864E-04 -6.54520932E-03 -3.58107468E-03 -1.20952242E-03 -2.61170268E-03
  1.92620673E-02 -7.76613541E-03 -2.09661498E-02  3.11131921E-02  1.62845889E-01
 -7.81562849E-01  2.30344169E+00 -2.61267658E+00  5.70277507E-01  7.17580734E-01
  1.10022123E-01  2.84425027E-02  2.98682460E-02 -1.07394581E-02 -1.05535807E-02
 -1.13542269E-02  3.24400268E-03 -4.62478687E-02 -4.47846122E-02  2.78056683E-02
 -2.26387190E-01 -2.80714100E-01 -3.22878149E-02 -4.81395019E-01 -6.16679623E-01
 -1.22128689E-01 -3.75113653E-02 -3.71207747E-03 -1.75734580E-02 -1.63744688E-03
  3.11600862E-02 -1.85244547E-01 -2.66779618E-02 -8.20791526E-02 -1.41045637E-02
  1.91091628E-01  4.02905581E-03  2.66023688E-03 -1.24285001E-02 -5.00966630E-02
 -9.62159505E-02  1.74866123E-01 -1.16404056E-01 -2.85955788E-01 -4.02222177E-01
 -2.52755100E+00  1.29575152E-01 -1.87326187E-02 -4.69882460E-01 -3.73576374E+00
 -1.22563930E-01  1.19229122E+00  3.64376233E+00  2.81279371E-04 -3.24532970E-03
  3.60029496E-04 -1.33457596E-03  1.02212427E-02 -7.20538984E-01  2.90062653E-02
 -3.62064575E-01  2.17419391E-02  2.32321680E-01  4.21902988E-03  1.91363132E-03
 -6.50897477E-02 -9.65221261E-02 -5.25375492E-02  3.32387350E-02  3.45730892E-03
 -2.18268947E-01 -6.05951000E-01  9.63517046E-01 -2.10245232E+00 -3.60939031E+00
 -3.03433806E+00  4.87002023E+00 -1.54893802E+00 -1.99257797E+00 -4.21057013E-01
  3.38539399E-03 -2.72297814E-04  7.12600625E-03 -3.48776367E-03  1.29450872E-02
  1.55545097E+00 -5.71066272E-01  1.01441739E-02  2.41402483E-01 -8.96386686E-01
 -3.53624020E-03 -8.89875522E-03  6.80169608E-03  1.00622942E-01 -6.51559410E-01
  2.14034059E+00 -3.13561811E+00 -1.01366792E-01  1.70567585E-01  7.92059857E-01
 -6.90249550E-03  7.82059776E-03  4.35149691E-02  4.24213576E-03 -3.18612648E-03
 -2.23569907E-02 -4.31937141E-03 -7.37164043E-03 -5.90477170E-03  1.29145413E-01
 -9.43613776E-02 -6.74293494E-01  7.89116826E-02 -1.99656162E-01 -7.98029558E-01
  2.62547531E-02  1.43898888E-02  2.59190083E-02 -2.87929791E-03 -2.38356499E-02
  4.72308114E-01 -1.20452460E-01  1.57972768E-01 -2.37538141E-03 -4.64868412E-02
 -4.72841808E-03 -1.33407758E-02  2.53752264E-02  7.72943289E-02 -2.61402836E-01
  2.60285079E-01  1.79630241E+00  1.75272830E-01  1.93724511E-01 -3.88307083E-02
 -2.25324899E-04  2.19651657E-03  6.80683072E-03 -2.42143287E-03 -3.70911233E-03
 -2.30797179E-03  2.31556335E-02  2.32038707E-02 -1.18566114E-02 -1.16366346E-01
 -1.45506918E-01 -2.03608027E-02  1.17603272E-01  1.13810273E-01 -7.08631972E-02
 -1.01313270E-02 -3.27904595E-02 -3.17155917E-02  4.40830110E-03  3.73803772E-02
 -1.61784059E-02 -9.56314558E-02 -1.37800529E-01  4.45668461E-02 -2.73382052E-02
  7.72245264E-03  1.00006631E-02 -2.57814598E-02 -2.13689270E-02  2.53126872E-02
  7.51202021E-02 -8.25853643E-02 -5.43729027E-02  1.19250344E-01 -2.01493900E+00
  2.69953491E-01 -3.03600333E-01 -1.69972098E+00 -3.20525570E+00  2.89686592E-01
  1.37129040E-01 -5.62637708E-01  1.39447953E-02  1.85186539E-04  8.82922954E-03
 -1.25639702E-03 -2.27691611E-03 -3.12637127E-02  4.06160990E-02  2.64600942E-03
  4.18447945E-03 -6.33897212E-02 -1.11083398E-02 -2.94991309E-02  3.87814338E-02
  2.55361128E-01 -1.44441736E+00  4.86794775E+00  8.49029606E-01  3.91293825E-01
  4.63622849E-01 -1.39013174E-03  4.44814919E-02  5.95280404E-02  1.84453372E-02
 -2.10702691E-02 -2.81435786E-02 -8.57807992E-03 -1.87760428E-02 -2.46322643E-02
 -6.60114923E-03 -6.95202259E-01 -9.32314225E-01 -2.92275510E-01 -1.24779640E+00
 -1.66244022E+00 -4.95132778E-01 -4.64238146E-02  4.02384546E-02  3.18315434E-02
 -1.83809388E-02  3.69514724E-02 -3.69789347E-01  2.75226023E-01  3.15068985E-01
 -2.00934398E-01  5.85399006E-01 -3.96855191E-02 -1.06840137E-01  2.21954513E-02
  3.25874184E-02  1.70272721E-02  1.64178207E+00  5.94817106E-01  5.11270783E-01
 -5.30019794E-01  3.34781934E+00  2.03943099E+00  1.92864167E+00 -1.33905787E+00
  7.50700135E+00  2.01970450E+00  2.68272926E+00  7.78746249E-01  1.29346954E-02
 -2.10448357E-04  1.22953734E-02 -3.82852202E-03  9.33753859E-03  2.35435289E-01
  2.18555033E-01  2.30821486E-01  7.77135541E-03 -4.86982659E-01 -2.56021353E-02
 -7.43834180E-02  6.38635184E-02  6.26487219E-02 -3.58308560E-02  1.46630106E+00
 -5.46606750E-02 -6.56600439E-02 -2.25574982E-03 -6.97711947E+00  2.72088289E+00
  2.33669824E+00 -2.43047196E+00 -5.75731611E+00  6.19265971E-01  1.66842507E-01
 -1.54726198E+00  2.03553839E-03  9.14695727E-04  9.23177052E-03 -4.74158861E-03
  1.68645997E-02 -1.78183601E-01  1.22183311E+00  9.81569362E-01 -2.06608326E-01
 -9.44941154E-01 -9.25912779E-03 -2.52750619E-02  4.01198696E-02  1.86775825E-01
 -8.10355623E-01  1.10550642E+00 -2.91766528E+00 -2.78652619E-01  2.02066501E-02
  9.55988491E-01  1.64088827E-02  2.56293255E-02  1.67700762E-02 -6.26140856E-03
 -8.78809117E-03 -3.69774185E-03 -3.00961618E-02 -5.68581189E-02 -5.75912600E-02
 -8.95233297E-02 -5.33723901E-02  1.44017568E-01 -1.00945246E-01 -2.88474964E-01
 -4.59543691E-01  1.26431554E-02  3.25064398E-03  3.55921677E-02 -1.69508199E-02
  5.76708913E-02 -3.27949326E-03  1.01009788E-01  1.68630149E-01 -6.74583508E-02
  1.21402124E-01 -8.39071034E-03 -2.25831828E-02  3.27118556E-02  1.82168032E-01
 -8.97655961E-01  1.94347189E+00  1.62532679E+00 -1.44394115E-01 -1.61480299E-01
  2.66334863E-02 -6.92964053E-03 -2.45933233E-02 -4.45966637E-02  2.87832010E-03
  9.28811230E-03  1.59972228E-02  5.92745566E-03  3.93872930E-02  8.81522671E-02
  7.08309211E-02  1.48076175E-01  1.74334248E-01  5.00824227E-01  8.15316845E-01
  6.01664037E-01  3.20633545E-02  1.18933071E-02  5.03724040E-02 -1.71501519E-02
  3.52471915E-02  9.34994457E-02  1.48948235E-01  3.05119775E-01 -1.05258103E-01
  1.52348235E-01 -1.00460466E-02 -1.96787163E-02  2.38253426E-02  4.45287329E-02
  4.42947392E-02  1.37831135E-01  3.84428891E-02  1.00533631E-01  1.49654914E-01
 -1.72112021E-01  1.52228361E-01  5.76564385E-02 -3.35342484E-01  3.46114521E-01
 -4.05257334E-01 -2.83835833E-01  5.36970610E-01  5.93349460E-03 -7.37929837E-03
 -6.48643818E-03  3.01716590E-03 -3.98009378E-03  7.22946435E-02 -2.08472925E-02
 -1.71664847E-02  2.41164875E-02 -1.03110361E-01 -4.76794812E-03 -1.31916189E-02
  2.25843930E-02  9.00772015E-02 -3.95953088E-01  2.88036046E-01 -5.29606350E-01
  2.38559888E-01  3.00034943E-01  4.61483747E-02 -1.34570468E-04  7.44741815E-03
  2.07078850E-02  1.77381393E-03 -8.09069901E-04 -7.93337556E-03 -1.31233599E-02
 -2.84179853E-02 -3.49564997E-02  7.92775863E-02  6.39121531E-02 -8.21593236E-02
 -1.52103414E-01 -1.37149954E-01  1.18125865E-01  3.54427875E-02 -2.10964543E-02
  1.42456587E-02 -6.09729725E-03  3.91594961E-02  1.56947382E-01  8.07894156E-02
  2.12248353E-01 -5.46415121E-02  1.83292601E-02 -4.76880970E-06 -1.06064159E-05
 -6.76494712E-03  5.71591512E-03 -2.11455282E-03  6.52650325E-05 -2.23829408E-02
  1.90393662E-02 -7.07980242E-03  1.67279825E-03  1.94891174E-01 -1.63552649E-01
  5.96833582E-02  2.84769687E-04 -9.76733369E-01  8.24476473E-01 -3.02227656E-01
 -1.04015768E-03 -2.49824147E-03  7.51654465E-04 -4.21600479E-03 -1.33560617E-03
 -9.95997912E-02 -1.83128573E-01  1.38593008E-01 -3.99596539E-02 -6.49840790E-02
  4.04106708E-06  8.62525079E-06 -1.48474735E-02  1.25267631E-02 -4.62128695E-03
  2.25487613E-06 -8.50740301E-02  7.18058329E-02 -2.64096002E-02 -1.77497195E-03
 -1.80870109E-01  1.53154951E-01 -5.66202622E-02 -1.44951653E-03  1.27240222E+00
 -1.07217229E+00  3.93343102E-01 -1.18080607E-03 -1.84344685E-03  2.02451556E-03
  1.62376281E-03 -4.10843350E-04  1.20579476E-01  2.41437370E-01 -1.44884494E-01
  1.73826625E-01  1.00392222E-01  3.40204002E-07  9.30873032E-07 -1.51335474E-06
 -6.63720767E-06  2.23232655E-05  5.11466968E-06 -2.15010932E-04  1.79583139E-01
 -1.51472712E-01  5.56182651E-02 -7.95391083E-03  6.70152897E-03 -2.46231727E-03
  2.80440029E-03 -2.36298423E-03  8.67598328E-04  1.72823323E-02 -1.45595994E-02
  5.35636246E-03  2.12414948E-02 -1.79092240E-02  6.54084288E-03 -1.01917966E-02
  8.53514762E-03 -3.10830305E-03  2.47192230E-04 -2.32421455E-03 -3.66968815E-03
 -1.79722076E-02 -2.94136516E-03 -2.45426051E-02 -4.58721980E-02  3.33694884E-02
 -1.44582564E-02 -1.68756940E-02 -1.81292815E-07 -5.63079076E-07  1.56556332E-06
  8.68156289E-07  2.54759816E-05 -2.33956349E-04  1.28815849E-03  2.04128990E-01
 -1.71653072E-01  6.32487409E-02  8.30403193E-03 -6.98827288E-03  2.57256501E-03
 -2.70793340E-03  2.27791518E-03 -8.39125244E-04 -1.94170068E-02  1.63530555E-02
 -6.01281165E-03 -1.89193818E-02  1.58138299E-02 -5.87583261E-03 -1.41714861E-02
  1.19064061E-02 -4.34942329E-03 -3.00014337E-03 -5.04433386E-03  4.74227987E-03
  1.84766123E-03 -1.43738567E-03 -8.33990272E-03 -2.15244987E-02  4.28704545E-03
 -4.31117766E-02 -1.23432037E-02 -1.88116242E-06 -3.40335779E-06 -1.86450580E-01
  1.57102990E-01 -5.76930888E-02  1.79385570E-05 -5.93702483E-01  5.00245373E-01
 -1.83711468E-01  2.18296463E-05  1.51912577E+00 -1.27992653E+00  4.70093139E-01
  1.16262285E-04 -1.06061805E+00  8.93580153E-01 -3.28116892E-01 -3.44618398E-03
 -6.18886775E-03  4.97492270E-03 -4.19685669E-04 -2.09151700E-03 -3.38529861E-02
 -5.91223659E-02  5.08665367E-02  6.67659601E-03 -1.87012937E-02 -7.27545402E-08
 -1.25850147E-07 -5.03821507E-07  4.31676854E-06 -3.93223668E-05  1.64505880E-04
  1.63941593E-04 -3.89508978E-01  3.28206515E-01 -1.20539370E-01  6.61317160E-03
 -5.56546219E-03  2.04906429E-03 -2.17356025E-03  1.82864940E-03 -6.73538247E-04
 -1.46789743E-02  1.23595739E-02 -4.54763594E-03 -2.16852860E-02  1.81984150E-02
 -6.71734838E-03  7.71886330E-02 -6.51435510E-02  2.39022572E-02 -1.02324813E-02
 -1.61403808E-02  1.74312168E-02  1.32012757E-02 -3.71956466E-03 -1.50535171E-02
 -1.89763211E-02  3.13187235E-02  5.01463548E-02 -1.58799200E-04 -1.76645154E-02
 -3.02865080E-02  1.25983603E-01  1.05768565E-01 -1.19112552E-01 -4.65233797E-01
  7.79470428E-01  6.45115883E-01 -7.62358663E-01  1.59949026E+01  4.28465578E+00
  3.54201656E+00 -4.20185751E+00 -1.25118979E+01 -2.32239183E+00 -2.36613439E+00
  1.06231628E+00 -3.81426180E-03  5.51900478E-03  1.24391865E-03  1.45387057E-04
 -7.11878006E-03  3.95394932E-01 -1.56429925E+00 -9.53140328E-01  1.27215340E-01
  1.68386183E+00  4.67220444E-02  1.04384916E-01  1.03827239E-01  9.08766274E-02
 -8.80347840E-02 -7.35656578E-01  9.39584504E-01  7.74307947E-01 -9.27896415E-01
 -1.38703348E+01  4.38387198E+00  3.60366895E+00 -4.35439367E+00  1.30841542E+01
 -3.09489456E-01  5.22779948E-01  2.42308639E+00  2.23466676E-04 -6.28858101E-03
 -5.71414178E-03  1.26464269E-03  4.39139319E-03 -3.60473597E-01  1.08670600E+00
  5.85328586E-01 -6.65065421E-02 -1.21542725E+00  6.12930920E-04  1.21671942E-03
  2.45605515E-03 -2.99117842E-02  2.53051900E-01 -1.03901211E+00  2.11899851E+00
  4.08425409E-01  1.85230695E-01 -8.15897798E-01 -1.27123918E-02 -3.15172091E-02
 -4.47636987E-02  4.21306389E-03  1.09244932E-02  1.61407138E-02  3.06230318E-02
  6.63274101E-02  8.16947134E-02 -1.76172216E-02  1.02495527E-01  3.36165128E-01
 -1.99947512E-01 -1.05306396E-01  3.59538778E-01 -1.19033882E-02 -1.66418663E-03
 -1.35090110E-02  4.19727483E-03 -8.46698054E-03 -1.53598034E-01 -9.94774002E-02
 -2.51349439E-01  7.27750571E-02 -6.54153963E-02  1.09196556E-03  2.54887260E-03
  9.70209883E-05 -3.85953594E-02  2.76850045E-01 -1.01404273E+00  8.79455096E-01
  4.91663181E-01  5.18888472E-01 -1.75962675E-01  1.51048986E-02  3.34360015E-02
  4.22156724E-02 -5.42059212E-03 -1.17714022E-02 -1.45306393E-02 -2.66092103E-02
 -6.47865911E-02 -9.03823370E-02 -1.49021092E-01 -2.25196199E-01 -1.31586455E-01
 -3.07282219E-01 -3.28110915E-01  9.96497700E-02 -1.04994481E-02  1.42817222E-03
 -1.31152642E-02  5.50555123E-03 -1.92378712E-02 -1.05978893E-01 -1.06827411E-01
 -2.37673766E-01  7.56749078E-02 -8.99372540E-02 -1.16594879E-02 -2.16755439E-02
  8.48174023E-03  1.69397971E-02  1.88295742E-02  1.27662894E-01  2.64531764E-02
  4.48350418E-02  3.69457656E-02  3.14877347E-01 -1.87631413E-02  3.06093082E-02
  1.43195142E-01 -3.72132687E-01 -2.88121377E-01 -3.96279927E-01 -1.47422085E-01
  2.93978755E-03 -2.71739111E-03 -2.46655736E-03  1.38023999E-03 -2.94805048E-03
  2.43424350E-03 -1.09255054E-03 -1.35191753E-02  8.61154070E-03 -3.46623410E-02
  1.71467454E-03  4.88227236E-03 -9.67955450E-03 -2.73107590E-02  4.86153544E-02
  2.64700050E-01 -3.68001401E+00  5.94414603E-01  6.77231003E-01 -7.67794233E-02
  1.28899995E-02  1.80622152E-02  7.50796713E-03 -4.96050353E-03 -6.87705662E-03
 -2.68934218E-03 -1.95054173E-02 -2.75850888E-02 -1.20334718E-02 -1.61725057E-01
 -2.09084312E-01 -4.66545872E-02 -4.69446255E-02  7.65922421E-02  3.60268542E-01
 -4.25338354E-03 -7.65498822E-03 -1.14284262E-02  2.95256809E-03  1.89195870E-03
  6.11720409E-03  3.80016549E-02  8.19951632E-02 -3.46485154E-02  7.95186682E-02
  3.82717138E-03  5.65951577E-03  2.67098236E-02  3.96748104E-02  2.16976768E-02
  3.19265888E-02 -1.40397990E-01 -1.46935955E-01  5.35231462E-02 -3.21940778E+00
  1.22283041E-01  8.13243547E-01  1.81943688E+00 -2.94680385E+00  1.96302681E+00
  4.47714163E+00  5.84836077E+00 -2.47899218E-03 -3.67584890E-03 -1.78959888E-03
 -9.80647457E-04  1.09121349E-02  8.42287999E-01 -6.71110126E-01 -5.84700145E-01
  3.60109934E-01 -8.65510074E-01  3.47541543E-03  5.31725053E-03  5.70791853E-03
  4.29852999E-02  9.86082455E-02 -5.86818461E-01  2.15184229E-01  8.08799090E-02
 -4.75291210E-01  6.07070177E+00 -4.52658501E-01 -1.00695975E+00 -1.27950769E+00
 -1.97155757E+00 -2.84937370E+00 -4.57399872E+00 -3.24709172E+00  2.81236643E-02
 -3.84833061E-03  2.03267809E-02 -5.63710802E-03  1.45452148E-02  1.12218240E+00
 -5.66602318E-01  1.96831904E-01  5.57439751E-04  2.95798103E-01 -9.06757236E-04
 -2.56977611E-03  5.04191810E-03  1.41667034E-02  1.72240831E-02 -6.92760046E-01
 -5.23158317E+00 -2.22295074E-01  5.58763555E-02  8.71388795E-01 -1.72850009E-02
 -2.43769197E-02 -1.05152161E-02  6.55488086E-03  9.66184179E-03  5.12592168E-03
  3.35450760E-02  3.88023584E-02 -2.77261380E-03  5.95344163E-02  1.71813671E-01
  2.75581242E-01 -2.43192204E-02  1.36399929E-01  4.50217676E-01 -1.63100421E-03
 -1.28798530E-02 -1.48817124E-02  3.92982112E-03  4.59212879E-03 -1.25053236E-01
 -1.57200273E-01 -2.64966565E-01  6.82984658E-02  2.69707469E-02  3.50872468E-03
  1.00752411E-02 -2.09593075E-02 -5.01368288E-02 -3.67030805E-02  1.77865006E+00
  6.22824733E+00  5.86835479E-01  8.77590516E-01  4.92822111E-01 -1.91924020E-02
 -2.70143205E-02 -1.15274508E-02  1.04885163E-02  1.49779437E-02  6.88578486E-03
 -1.13146405E-02 -1.84156366E-02 -1.35935218E-02  4.95060442E-01  7.12988912E-01
  3.41516260E-01  6.19143978E-01  7.57261805E-01  6.09842401E-02 -1.18564878E-02
 -7.12347098E-03 -2.08649921E-02  6.71091653E-03 -1.03772412E-02 -1.99953920E-01
  1.69657085E-01  2.08210563E-01 -1.24376937E-01  3.47845674E-01  2.56797966E-02
  4.46690867E-02  2.54088186E-02  8.82962630E-02  1.58256303E-01 -1.70748138E-01
  9.18979353E-02  3.17258756E-01  5.66749439E-01 -1.31374666E+00 -2.36424836E-01
 -1.27640934E+00 -2.71158368E+00 -3.40746910E+00  4.39604482E-01  7.21050580E-01
  5.42200740E-01  1.70656564E-02  1.17998208E-03  1.32586452E-02 -2.69922218E-03
  4.80099346E-04 -1.26491521E-02  4.36632803E-03  2.27329571E-02 -1.60882883E-02
  6.52695755E-02  1.80073460E-03  4.21315624E-03  4.67160834E-05 -6.33608073E-02
  3.73322390E-01 -9.17228944E-01  5.27858734E+00 -5.66730496E-01 -7.96649422E-01
 -3.37586118E-01 -1.75370246E-02 -2.79262697E-02 -1.93712287E-02  7.57695149E-03
  1.15519654E-02  6.97099817E-03  2.77023483E-02  4.84895052E-02  4.25118687E-02
  9.70321545E-02  1.34228245E-01  5.19536398E-02  1.31767060E-01  2.28810396E-01
  1.97340979E-01 -7.04433016E-04 -9.28617475E-03 -1.12878667E-02  3.31343556E-03
  1.10407403E-03 -9.25417657E-03 -1.60365407E-02 -7.56045198E-02  3.78348291E-02
 -1.24840572E-01 -5.61227600E-03 -1.67348259E-02  2.16293969E-02  3.57578533E-02
  2.74815195E-02  3.78147687E-01  3.01609076E-02  1.02946126E-01  1.82901074E-01
 -4.21661506E+00 -1.01934243E+00 -5.77286090E-01  1.72235904E+00  1.95772303E+01
  2.40259175E+00  1.91779120E+00 -2.54158265E+00  2.78773294E-02 -8.27549747E-03
  4.11080807E-03  2.62042724E-03 -1.21856662E-02 -4.74072632E-01  1.01025212E-01
 -1.95024512E-01  1.76561941E-02  1.47383143E-02  1.08109696E-02  2.43380025E-02
  1.96476576E-02  3.24046583E-02  2.47382090E-02 -4.59574414E-01 -1.35974117E-02
 -7.34654999E-02 -1.56157841E-01  4.18497834E+00 -1.35551020E+00 -1.05655770E+00
  1.50363765E+00 -1.63669302E+01  4.51704813E+00  3.97401922E+00 -3.77690350E+00
  1.14281938E-02 -2.05180722E-03  5.94457049E-03 -1.04466354E-03  1.59022493E-03
 -5.96976813E-01  3.72497362E-01  3.51315513E-01 -2.54362179E-01  7.68559343E-01
  3.06737592E-03  8.25900491E-03 -1.20854217E-02 -6.62435302E-02  2.45991224E-01
 -2.13358847E-01 -9.04405598E-01 -2.83672674E-01 -2.66296917E-01  1.91523460E-01
 -2.98631509E-03 -7.20332594E-03 -9.95872946E-03  8.30994180E-04  1.51135387E-03
  1.42719783E-03  7.14397857E-03  2.88463634E-02  5.54646362E-02  1.56410903E-02
 -6.93669093E-02 -2.39559451E-01  1.54141566E-01  2.54449496E-01  1.94856988E-01
 -2.19779600E-02 -1.72768431E-02 -3.79263596E-02  1.04973240E-02 -5.03289723E-03
  8.14004793E-02 -4.88662379E-02 -1.09116990E-02  1.26492696E-02 -1.79583210E-02
  1.67787324E-03  4.71257826E-03 -8.78341579E-03 -2.89833618E-02  9.48995540E-02
  1.80151556E-01 -9.06425992E-01 -2.22328745E-01 -2.77293782E-01 -3.67207425E-02
 -4.23702823E-03 -6.23265389E-03 -3.27502004E-03  2.73571780E-03  3.45203602E-03
  5.57932222E-04 -5.41288389E-03 -3.58086926E-04  1.65071424E-02  1.15703872E-01
  1.17352445E-01 -5.43719276E-02  3.60020012E-02  4.22468393E-02 -1.28022138E-03
 -3.13584016E-02  2.24841538E-02  3.28944519E-03 -2.97974705E-03 -6.42062236E-03
 -1.33468433E-01  3.03422353E-02 -2.41082497E-02 -1.32601071E-02  7.54790249E-02
  1.33765355E-02  2.51887329E-02 -1.44079076E-01 -1.39811839E-01  8.49125090E-02
 -1.60690219E-01 -4.93865957E-01 -4.76613064E-01  2.98221991E-01  3.53023585E-01
  1.51332465E+00  1.52477832E+00 -7.38662041E-01  2.98372866E-01 -1.20244260E+00
 -1.12230261E+00  8.29995028E-01  5.12462132E-03 -9.70623035E-03 -8.24047386E-03
  3.00298050E-03  6.49299246E-05  1.92110602E-02 -9.10174020E-02 -8.78447709E-02
  2.61756458E-02  2.33929537E-02 -6.19953598E-03 -1.71696283E-02  2.96555972E-02
  1.17181690E-01 -3.93939441E-01 -7.31967860E-02 -1.71500436E+00 -2.53890325E-01
  4.73639756E-02  9.49597013E-01 -8.17906310E-03 -9.60645108E-03  2.84077348E-04
  5.28613691E-03  6.20159173E-03 -1.99727796E-04 -1.72631142E-02 -2.31270490E-02
 -7.20865007E-03  3.20054808E-01  4.11122082E-01  8.51366656E-02  1.98773125E-01
  8.03844140E-02 -4.23578157E-01  1.79651180E-02  6.53690570E-03  2.07265051E-02
 -5.05441070E-03  1.38783454E-03  2.10449137E-01 -4.00386494E-02 -8.66668570E-03
  5.24605152E-02 -2.59460557E-01 -3.39325049E-02 -8.63756170E-02  9.42214512E-02
  6.26849701E-02 -1.33863882E-01  1.51594846E+00  1.15061103E-01  1.33934291E-01
 -7.15248556E-03 -6.43742681E+00 -1.27976192E-01 -2.29429583E-01 -2.11735612E-01
  2.59747568E+00  7.61972440E-01 -6.18086858E-01 -4.14657365E+00 -3.03137143E-02
  1.41677887E-02 -1.37987183E-02  4.76913130E-03 -2.57498909E-02 -1.88548050E+00
  1.55904206E-01 -1.11434779E+00  1.88042608E-01 -4.40307749E-02  2.92616138E-02
  7.82793238E-02  7.90106283E-02  4.96908646E-02 -1.20053594E-01 -1.43867008E+00
 -7.07132312E-03 -6.58279989E-02 -1.56454268E-01  7.23166315E+00  2.66674375E-01
  1.29692022E-01 -5.09038792E-01 -3.48628420E+00  1.50833146E+00  1.96516968E+00
  4.77103799E-01  1.52752437E-02 -5.94698252E-03  5.30321570E-03 -9.48880302E-04
  5.22657676E-03 -3.36477460E-01  5.85223576E-01  9.85291988E-01 -4.89227921E-01
  1.26578898E+00  5.90531567E-03  1.73509055E-02 -3.94992125E-02 -7.51035091E-02
 -3.30732351E-02  2.32689579E+00  4.32569712E+00  9.78306740E-04 -2.03220352E-01
 -5.56947615E-01 -2.65026861E-02  5.61569813E-04  8.72608134E-02  9.40709731E-03
 -2.39611929E-03 -3.69540547E-02  5.71726373E-02  2.93994713E-02 -1.04893366E-01
  1.42450611E-01 -2.58006811E-01 -1.16335435E+00  2.26721445E-01 -1.93956648E-01
 -1.26146265E+00 -1.63075514E-02 -1.10577399E-02 -2.34629900E-02  5.54597070E-03
  2.71029736E-03  7.16594835E-01 -2.26468422E-01  1.98549290E-01  5.26922767E-03
 -3.88522782E-02  6.24408114E-04  2.56417803E-03 -1.23392628E-02  1.96001125E-02
 -2.25038326E-01  1.18030141E+00 -9.10360094E-01 -2.83174503E-01 -2.55183026E-01
  2.20503703E-01 -6.04669398E-02 -5.44308731E-02  4.72335339E-02  2.12557583E-02
  1.96028477E-02 -1.53246678E-02  1.40305066E-01  1.20529112E-01 -1.25332739E-01
  2.10084148E-01  2.40021213E-01 -2.53390528E-02  4.28467550E-01  4.99629276E-01
 -2.42919120E-02 -1.04034214E-02 -1.28814991E-02 -2.02482461E-02  4.63703667E-03
  6.17661475E-03 -2.58199861E-01 -1.33872837E-01 -2.03454438E-01 -6.48806340E-05
  3.37548325E-01  1.87057362E-02  3.46638956E-02  6.86136646E-02  5.38373095E-02
 -7.51298250E-02 -1.99228050E-01  1.55262067E-01  1.18406892E-01 -1.79304743E-01
 -3.74350456E-01 -3.19651412E-02 -5.34384968E-02 -4.23796409E-02 -2.12010107E+00
  2.27150230E-01 -1.32698587E-01 -1.09550742E+00  2.30817405E-03 -9.31561824E-03
 -8.92516154E-03  2.73988188E-03  1.97318154E-03 -3.97506664E-02 -8.03527754E-02
 -1.02137672E-01  2.15353854E-02  5.59318591E-02 -4.27881119E-03 -1.25443412E-02
  2.83689634E-02  5.48060131E-02  6.43422173E-02 -2.13559249E+00 -2.00095034E+00
  4.73537517E-02  8.26486006E-02  7.19454539E-02 -4.59028363E-02 -5.63843890E-02
 -5.15867462E-03  1.88914656E-02  2.37000014E-02  3.47447905E-03  5.93786201E-02
  6.52736395E-02 -1.42469355E-02  5.93751819E-01  7.99038436E-01  2.56967372E-01
  6.39590693E-01  8.09639025E-01  1.37516254E-01  9.99822396E-03  1.45380379E-02
  3.37731013E-02 -1.24587015E-02  2.33731455E-02  2.90991582E-01 -1.05475460E-01
 -1.30264862E-01  1.26816059E-01 -5.02827015E-01 -1.62703164E-02 -4.45474895E-02
  3.89509279E-02  4.25464224E-02 -1.00339920E-02  8.30931604E-01 -1.02514206E-02
 -1.23436648E-01 -3.03047476E-01 -3.93451895E+00 -3.92721881E-01 -3.27268285E-01
  3.77792372E-01  6.10336043E+00  1.05666833E+00  5.25535997E-01 -1.98384179E+00
  6.26085279E-03 -5.53092762E-03 -8.30464952E-03  4.90443218E-03 -1.47174154E-02
  2.01953470E+00 -1.09967714E+00 -6.77869041E-01  6.05809228E-01 -1.80875162E+00
  8.68350197E-03  2.73550277E-02  4.57130459E-02  2.98459964E-02 -6.64667028E-02
 -5.85067454E-01  1.50567590E-01  1.87471653E-01  2.39312555E-02  3.60668609E+00
 -5.43840292E-01 -4.29546947E-01  5.87797505E-01 -5.49887311E+00  1.89866412E+00
  2.17151049E+00 -2.22869574E-01 -2.40280248E-02  1.22079715E-03 -2.12006560E-03
 -5.30171647E-03  3.19654449E-02  2.77654781E+00 -6.27787930E-01  6.87999632E-01
  1.62360947E-01 -1.11323954E+00 -3.16389004E-03 -8.47053957E-03  1.19192771E-02
  7.20407751E-02 -2.18153495E-01 -3.13807618E-01  8.57795654E-01 -2.11653883E-01
 -2.94818838E-01 -1.19019682E-01 -4.36953841E-02 -4.77764350E-02  1.10877816E-02
  1.48272681E-02  1.73888203E-02 -5.57919337E-04  1.14303957E-01  1.03742839E-01
 -8.68503372E-02  4.31359027E-02  2.41460940E-01  5.18331395E-01  2.37310793E-01
  2.68148043E-01 -3.66863400E-02  3.27666574E-02 -2.33736636E-02 -9.06539267E-03
  6.58647490E-03 -7.70637268E-03 -2.23029428E-01 -2.60980386E-01 -4.48331950E-01
  1.14069030E-01  4.98122455E-02  7.19346443E-03  2.04036481E-02 -3.99036012E-02
 -1.20853965E-01  2.21773740E-01  1.63457927E+00  9.44514220E-02 -6.06899086E-02
 -1.22171359E-01 -1.36499325E-01 -1.31786852E-02 -3.56894875E-02 -5.45401470E-02
  8.86957088E-03  1.81706734E-02  2.07994176E-02 -3.57389027E-02 -5.88287984E-03
  9.93239249E-02  6.35800014E-01  9.24566775E-01  4.62866878E-01  3.28447243E-01
  5.36053123E-01  3.98094070E-01  1.00414510E-02 -7.52559667E-03 -1.84450877E-02
  1.15178640E-02 -4.05222137E-02 -1.60117296E-01  3.59227900E-01  4.97591252E-01
 -2.20848122E-01  4.29132251E-01 -1.75171019E-02 -3.66632149E-02 -3.00920796E-02
 -6.93467962E-02 -9.16122132E-02  3.64431816E-01 -6.61770752E-02 -2.06686709E-01
 -3.49013604E-01 -2.93412821E+00  1.73625218E-01 -1.30765516E-02 -5.97053673E-01
  6.82721302E-01 -1.27342849E-01 -2.37013108E-01 -2.33711972E-01  5.72752829E-03
  3.60863246E-03  7.17748169E-03 -1.40230182E-03 -2.75078433E-03 -4.49361317E-02
  9.25643788E-02  1.97484900E-02  8.65457313E-03 -1.54488190E-01  4.53642153E-03
  1.21470738E-02 -1.71141506E-02 -1.03199027E-01  3.43467132E-01  3.45392033E-01
 -1.87649731E+00  6.79544788E-02  2.10944536E-01  3.54799040E-01 -4.55760039E-02
 -3.17387698E-02  6.08475817E-02  1.15868239E-02  5.71060941E-03 -2.18910277E-02
  1.74023418E-01  1.57656613E-01 -1.33041917E-01 -3.85013693E-01 -5.70898382E-01
 -3.10327117E-01  2.39140898E-01  1.38792780E-01 -3.94930714E-01  1.21076715E-02
  3.47227696E-02  1.54774865E-02  6.81916665E-03 -8.72975271E-02 -3.00677463E-04
  3.46390492E-01  4.50103912E-01 -1.49404895E-01  7.64927057E-02  3.41042135E-03
  4.40234778E-03 -2.84142107E-02 -3.04087130E-02  8.99962678E-03  8.89859130E-02
 -1.17039708E-01 -1.32244716E-01  1.81177586E-02 -2.58914460E+00 -1.57950600E-01
  5.11039990E-01  1.90238868E+00  6.05632358E+00  8.21892665E-01  1.09404255E+00
  3.23263565E-01  2.87348022E-03 -5.28866627E-03 -5.43009677E-04 -7.66573415E-04
  9.80937625E-03 -5.76095219E-01  2.27078607E-01 -9.46765382E-02 -2.76511104E-02
  5.76781795E-02  2.37427289E-03  5.86160643E-03 -4.58804325E-03  9.81063273E-03
  4.15048858E-02 -4.07895341E-01 -2.72204776E-02 -1.12323593E-01 -2.17944105E-01
  4.65575778E+00 -7.50983014E-01 -1.59035334E+00 -1.90427568E+00 -5.81847584E+00
  7.45683264E-01  6.99816583E-01 -5.04000988E-01  4.19630725E-02 -6.68303725E-03
  3.74626910E-02 -1.31391522E-02  4.24439420E-02  8.16508382E-02 -1.01749740E-01
  1.71391161E-01 -1.18651631E-01  5.98306308E-01  2.16166417E-03  6.11921955E-03
 -1.17923500E-02 -3.87438180E-02  1.35900928E-01 -2.36949749E-01 -1.96399441E+00
 -1.29579132E-01  2.71962221E-03  4.26422594E-01  2.11441277E-02  1.34619743E-02
 -3.16356319E-02 -5.33271242E-03 -4.16950368E-03  5.86906335E-03 -7.64863513E-02
 -3.86128180E-02  1.41915133E-01  7.28533480E-02 -2.49034127E-02 -3.03241988E-01
 -2.91428439E-02  5.35938437E-02  2.40211119E-01 -2.50099731E-02 -9.57671725E-03
 -1.99491197E-02  1.40584704E-03  2.17441879E-02  1.38979472E-01 -4.01526681E-03
  8.72176864E-02 -1.42485085E-02 -6.61841211E-03  5.03541798E-04  1.54343633E-03
 -4.08420434E-03 -4.55537629E-03 -3.71198230E-03  5.52167323E-01  6.93736255E-01
  7.72231491E-02  2.54323601E-02 -1.80394466E-01 -1.49614445E-02 -1.94009909E-02
 -4.48810516E-03  4.94513215E-03  5.88934771E-03  5.80098299E-05  4.05489251E-02
  5.82374736E-02  2.75758741E-02  6.35172445E-02  4.49155192E-02 -8.30045262E-02
  1.81827858E-01  2.54198481E-01  1.04488560E-01 -7.22938309E-02  8.05089953E-02
  2.74603282E-02 -8.56488134E-03 -5.19960487E-02 -4.31741575E-02 -4.11134071E-02
 -6.36993541E-02  1.13537963E-02  3.89567784E-02 -1.00222978E-01 -2.04145240E-01
  5.23157122E-03  4.46594567E-03 -4.75584085E-03  1.72997719E+00 -9.27793462E-03
  1.34571053E-02  6.66123437E-02 -4.12001474E+00  1.86334002E-01 -1.34188401E-01
 -9.67684526E-01  6.86939110E-01 -5.57949703E-02 -9.25761942E-02 -7.19898896E-02
  1.38523230E-02 -5.24652742E-03  3.88767945E-03 -2.46593494E-04  1.99986533E-03
  2.88552875E-01 -1.51916788E-01  7.71472471E-02 -1.84825082E-02  1.61354477E-01
 -1.86100568E-03 -5.64974128E-03  1.43882427E-02  1.97871920E-02 -2.97665460E-02
 -4.96098277E-02  4.53430760E-01 -4.89123400E-02 -1.59714282E-01 -2.76871658E-01
 -7.29729014E-04 -3.44430785E-02 -9.13754253E-02  1.68048801E-03  1.12486873E-02
  2.51856614E-02 -1.29936676E-02  9.83876326E-02  3.09705039E-01  1.17030743E-01
  7.54688218E-02 -1.72541987E-01 -8.93157679E-02  6.98997330E-02  4.79012476E-01
 -8.70729667E-02 -4.20382676E-02 -9.63560399E-02  1.81663155E-02  3.49929642E-02
  1.36787323E-02 -8.64541884E-02 -1.43208988E-01  6.02629319E-02 -1.19588126E-01
 -1.73260727E-06 -3.18300920E-06 -1.14007987E-01  9.60636645E-02 -3.52787669E-02
  4.23193281E-05  4.40270836E-02 -3.71127630E-02  1.36153396E-02 -3.15826253E-04
 -2.86501710E-01  2.41315104E-01 -8.83000425E-02 -6.64617262E-05  1.88558331E-01
 -1.58578904E-01  5.90878607E-02 -1.06641732E-02 -1.60305074E-02  1.90712540E-02
  1.87488701E-02 -3.02021043E-03  8.82253853E-02  1.26153664E-01 -1.65773159E-01
 -1.98217841E-01  1.75768343E-02 -1.36172671E-07 -5.47017956E-07  6.91630480E-02
 -5.82588981E-02  2.13901648E-02 -3.42497969E-06 -2.06562364E-02  1.73694206E-02
 -6.37311971E-03  4.49248442E-04  2.50344975E-01 -2.11211675E-01  7.74044638E-02
  2.29828442E-04 -1.01978885E-01  8.53609526E-02 -3.15932671E-02  9.94448736E-03
  4.25413754E-03 -3.04945424E-02 -8.67227029E-02 -9.09706617E-03  4.29888987E-02
  1.57094773E-02 -1.35005565E-01 -3.92087507E-01 -4.22643944E-02  8.27756194E-10
  6.99378865E-09 -4.88956756E-08  5.49702225E-08  3.72333525E-06 -6.12135936E-05
 -9.36489426E-04 -3.44369507E-02  2.90281918E-02 -1.04560583E-02  1.40205463E-02
 -1.18178539E-02  4.33935004E-03 -3.80545419E-03  3.20748913E-03 -1.17771093E-03
 -4.90457833E-02  4.13411217E-02 -1.51815144E-02  3.72322352E-02 -3.13843214E-02
  1.15384929E-02 -1.14004792E-02  9.63950994E-03 -3.45394245E-03  1.01239473E-03
  5.91887283E-03  3.38548796E-03  2.66249256E-02  5.17431739E-03  1.29364066E-02
  2.32458638E-02 -1.86838492E-02  1.60105441E-03  7.85656413E-03 -1.10026868E-08
 -1.71747466E-08 -9.78351172E-08  7.17354696E-07 -5.94498834E-06  5.55035017E-05
  3.79222384E-04 -2.31264183E-02  1.95683513E-02 -7.16790864E-03  3.03856788E-02
 -2.56121493E-02  9.40763276E-03 -7.49484484E-03  6.31755224E-03 -2.32056617E-03
 -1.11960868E-01  9.43707154E-02 -3.46630189E-02  1.07196336E-01 -9.03410219E-02
  3.31824810E-02 -2.08718756E-02  1.76675759E-02 -6.50293451E-03 -1.47014178E-02
 -2.13606603E-02  2.71210640E-02  3.05225415E-02 -3.34618418E-03 -1.00944084E-04
 -2.28974592E-03 -2.35348074E-03 -1.36071962E-02 -2.39990089E-03 -4.10856632E-06
 -8.44543377E-06  4.93405468E-03 -4.15431837E-03  1.52596711E-03  7.36565061E-05
  9.48337346E-03 -7.98585412E-03  2.93920777E-03 -1.99357231E-04 -2.85230639E-02
  2.40193772E-02 -8.88556634E-03 -4.50997203E-06 -2.08724845E-02  1.76046836E-02
 -6.43910452E-03 -9.85178286E-04 -5.05642301E-04  2.92568862E-03  8.06087522E-03
  8.10084972E-04 -7.60020943E-02  1.13429103E-04  2.71978153E-01  8.74277098E-01
  1.05962510E-01 -2.13484588E-07 -6.47609137E-07  1.63392112E-06  2.45783351E-06
 -9.82597816E-06  1.78133885E-05  3.58849320E-04 -1.24217034E-01  1.04594348E-01
 -3.84691234E-02 -1.16315868E-01  9.79994839E-02 -3.59891682E-02  2.91761716E-02
 -2.45814357E-02  9.02752158E-03  4.27356488E-01 -3.60062223E-01  1.32226855E-01
 -3.98420723E-01  3.35697502E-01 -1.23269028E-01  2.57121789E-01 -2.16671342E-01
  7.95707786E-02 -1.66517466E-02 -4.54866191E-02  5.54283215E-03 -1.02789921E-01
 -2.74442084E-02 -7.67750667E-03 -1.89635608E-02  4.93559854E-03 -3.43747826E-02
 -1.04222369E-02  1.45218556E-02  2.94091031E-02  1.51476217E-02  5.01930311E-02
  8.76393280E-02 -3.81127827E-01 -1.22696102E-01 -8.92310336E-02  1.53597484E-01
 -3.03303990E-01  1.95531728E-01  4.84983146E-02 -5.00144272E-01 -1.61043850E+00
 -5.76741419E-01 -5.45680799E-01  3.78029115E-01  3.35643602E-02 -4.42663812E-02
 -2.77214180E-02  1.06386654E-02  7.56865039E-03 -6.00144709E-01  1.08032688E-01
 -1.55338038E-01 -4.12098786E-02  3.07964122E-01  5.26377099E-03  1.32836108E-02
 -5.42288413E-02 -2.82657322E-02  9.83201029E-02 -3.33753560E-01  3.41433268E-02
 -5.89444061E-02 -2.70904012E-01  9.33036953E-01  1.13506964E-01  2.81013626E-01
  3.98611625E-01  1.88703578E+00  5.93246866E-02  2.19751501E-01  4.06611042E-01
 -3.92131189E-02 -8.18819304E-03 -2.58796001E-03 -1.29457608E-02  8.53246706E-02
 -4.48102934E-01 -8.10056956E-02 -1.11291917E-01 -9.30360747E-02  7.31988049E-01
  1.63289183E-03  4.69881973E-03 -9.82276335E-03 -2.63375456E-02  4.81178902E-02
  5.38240890E-01  3.34532472E-02  1.50462179E-01  1.86191542E-01  2.08622981E-02
  7.83087339E-03  1.09044486E-02  4.46742883E-03 -1.75139134E-03 -3.44516928E-03
 -3.74315499E-03 -3.25138596E-02 -3.03985356E-02  2.20146609E-02  6.10445292E-02
 -4.19698768E-02 -3.11420958E-01 -8.74679564E-02 -1.75235099E-01 -1.94782943E-01
 -4.68455972E-02  7.74087829E-02  3.06540254E-02 -4.15359066E-03 -7.80799431E-02
  1.65066115E-01 -3.14946359E-02  7.79891646E-02 -1.10099202E-02  9.09332430E-03
 -6.81431156E-04 -2.00675234E-03  4.62840829E-03  9.19895658E-03 -2.40116499E-03
 -2.14612902E-01  1.23330508E-01  1.48375781E-01  1.28503769E-01 -1.29607243E-01
  4.07680350E-02  3.63117179E-02 -3.28851637E-02 -1.02585782E-02 -9.71311165E-03
  6.70689704E-03 -1.46136975E-01 -1.22089698E-01  1.39864250E-01  8.70847869E-02
  1.95932969E-02 -2.28112388E-01 -9.38546951E-02 -9.80859798E-02  3.62699557E-02
  6.96322322E-03 -9.71485157E-03  1.87930254E-02 -1.30820619E-02  6.46658796E-02
 -1.44902698E-02 -5.90564933E-02 -1.05090583E-01  3.86245669E-02 -5.91956630E-02
 -9.09700588E-03 -1.80380447E-02  7.79817037E-03  1.73719782E-02  2.21180273E-02
  1.46113341E-01  1.42196959E-02  3.43724611E-02  4.76681456E-02  5.63047779E-03
 -3.38241852E-02 -5.73802316E-02 -4.69983948E-02  2.37514416E-01  2.68654482E-02
  5.34569067E-02  5.87370997E-02  8.43944891E-04  1.17256282E-03 -1.54786074E-03
  1.63026694E-03 -8.87359983E-03  2.49096623E-02  1.77165228E-01 -9.57836559E-02
  1.31297594E-01 -8.19812152E-01 -2.30926706E-03 -7.17656478E-03  1.97478819E-02
  1.91700227E-02  3.01916160E-03 -7.73478147E-01 -6.19162211E-01 -2.51015070E-03
 -7.38430468E-02 -1.92965838E-01 -3.66728918E-02 -1.07709273E-01 -1.74767149E-01
  1.17209434E-02  3.11668718E-02  4.69868314E-02  1.12455879E-01  3.63845369E-01
  6.27290236E-01  8.22684000E-02 -7.03800565E-02 -4.57471399E-01  2.70356635E-01
  4.89108208E-01  4.58075004E-01 -3.75164275E-02  5.94604966E-02  6.76607882E-02
 -3.07590309E-02  5.31341795E-02  4.55440251E-02 -1.40876244E-01 -2.06702131E-01
  8.86387892E-02 -1.67875023E-01 -1.05293195E-06 -1.91459808E-06 -1.34590584E-02
  1.13551796E-02 -4.15167918E-03  1.95060458E-05  5.96003101E-02 -5.02322446E-02
  1.84302585E-02 -8.23027812E-05  8.52708011E-02 -7.18590164E-02  2.63904965E-02
  6.99007701E-04 -1.82740701E-01  1.54176024E-01 -5.72550225E-02  1.35831938E-02
  2.92090945E-02 -1.38732968E-02  3.28859708E-02  1.36038039E-02 -2.58418116E-02
 -2.62603806E-02  6.11959946E-02  1.26945698E-01  6.71351340E-03  8.34551683E-07
  1.64228800E-06  1.77791481E-01 -1.49819655E-01  5.49936202E-02 -1.76326380E-05
 -1.48102057E-01  1.24799102E-01 -4.58012065E-02  8.88891556E-05  1.82946196E-01
 -1.54162557E-01  5.66284788E-02 -8.82943288E-04  1.15439709E-01 -9.65125247E-02
  3.55608670E-02  4.72962582E-02  8.64734286E-02 -6.64598963E-02  1.57733877E-02
  3.04154214E-02 -2.02854529E-01 -3.56617058E-01  3.01932533E-01  2.43318455E-02
 -1.14628842E-01 -1.12439979E-07 -3.52502919E-07  9.83037353E-07  9.61699681E-07
 -6.39581973E-06  5.44934554E-07  6.13842435E-04  3.03384563E-01 -2.55805560E-01
  9.37539938E-02  1.97054280E-01 -1.66076956E-01  6.09626038E-02 -4.90510102E-02
  4.13400932E-02 -1.51746800E-02 -7.62760047E-01  6.42853979E-01 -2.35975369E-01
  8.08294269E-01 -6.81239423E-01  2.50065550E-01 -4.88828536E-01  4.12025019E-01
 -1.51273928E-01  2.60448980E-03  1.37702927E-02  7.06449699E-03  5.93756812E-02
  1.17717072E-02 -7.15136666E-04 -7.19981048E-03 -5.99339771E-03 -3.84346711E-02
 -7.04871206E-03  6.87167003E-08  2.25905595E-07 -7.15120009E-07 -2.80668761E-07
  3.06748982E-06 -2.69667383E-06 -2.73751270E-05 -1.18090584E-01  9.94966073E-02
 -3.65522804E-02 -1.18271335E-01  9.96502669E-02 -3.66198356E-02  2.94896927E-02
 -2.48465514E-02  9.13081386E-03  4.57044684E-01 -3.85085775E-01  1.41513016E-01
 -4.81121082E-01  4.05373323E-01 -1.48970061E-01  2.92840574E-01 -2.46736879E-01
  9.06910215E-02  6.64718442E-02  1.16662101E-01 -9.91219807E-02 -9.20321549E-03
  3.73388653E-02 -2.99975822E-02 -5.13117261E-02  4.63235039E-02  1.28020654E-02
 -1.53628328E-02  3.48475555E-07  6.89850007E-07  2.39678592E-02 -2.02014863E-02
  7.41465141E-03 -6.62137335E-06  3.30881234E-02 -2.78885373E-02  1.02374174E-02
  3.40444561E-05 -2.19245034E-01  1.84781352E-01 -6.78122314E-02 -7.21241980E-06
 -1.20707618E-01  1.01674143E-01 -3.73655023E-02 -3.54055235E-03 -6.44614380E-03
  5.00757157E-03 -1.00691048E-03 -2.24691657E-03 -2.71626800E-01 -4.95586312E-01
  3.82994127E-01 -8.38095867E-02 -1.73528513E-01  1.36293165E-09  2.73590966E-08
 -2.54340368E-07  6.73782897E-07  2.06281746E-06 -1.89757631E-05 -3.90145373E-04
 -1.44709190E-02  1.22300318E-02 -4.32203204E-03  4.03661536E-02 -3.40377668E-02
  1.25486798E-02 -9.79991936E-03  8.26372427E-03 -3.04711275E-03 -1.58397169E-01
  1.33560522E-01 -4.92375711E-02  1.72302812E-01 -1.45265411E-01  5.35531152E-02
 -8.13121188E-02  6.86198157E-02 -2.53383618E-02  1.38222236E-01  2.26414477E-01
 -2.25518985E-01 -1.24360915E-01  5.95628713E-02 -6.66491178E-02 -1.13681881E-01
  1.03433925E-01  3.09442326E-02 -3.37342605E-02 -6.06317812E-07 -1.81792691E-06
 -1.53643522E-01  1.29461082E-01 -4.75289644E-02  2.11187412E-05  1.20955465E-01
 -1.01858824E-01  3.73867813E-02  4.18122702E-04 -4.48557532E-02  3.79687023E-02
 -1.40999337E-02  2.50355383E-04  2.10254519E-01 -1.77424563E-01  6.47627808E-02
  3.58365554E-03  4.48599992E-03 -7.47956895E-03 -1.21550015E-02  9.23111236E-06
 -1.38949262E-02 -2.21832842E-02  2.34337420E-02  1.66775497E-02 -5.24049363E-03
 -4.70025856E-07 -3.01172845E-07 -1.25747274E-01  1.05956329E-01 -3.89020593E-02
  2.23260758E-06  8.98015472E-02 -7.56245679E-02  2.77529054E-02 -4.49807255E-04
 -7.13531617E-02  6.04309178E-02 -2.21877353E-02 -1.50518006E-04 -2.19544659E-01
  1.85111214E-01 -6.78936535E-02 -1.01837659E-02 -1.82976703E-02  1.46812948E-02
 -1.32243623E-03 -6.20400027E-03  6.19626340E-02  1.04872924E-01 -9.71858471E-02
 -3.44233157E-02  3.03551651E-02 -6.00823239E-08 -1.87176664E-07  5.17720796E-07
  5.18016640E-07 -1.72569232E-06  7.39592348E-06  3.12188630E-04  1.67726733E-01
 -1.41257758E-01  5.17929065E-02  2.34219296E-01 -1.97319777E-01  7.24336329E-02
 -5.83766236E-02  4.91799597E-02 -1.80531733E-02 -9.10545113E-01  7.67094433E-01
 -2.81591879E-01  9.70548246E-01 -8.17640411E-01  3.00151985E-01 -5.30394775E-01
  4.46809484E-01 -1.64046228E-01 -8.94282588E-03 -3.24833383E-02 -6.55206030E-03
 -1.07241638E-01 -2.37025065E-02  3.90607017E-04  9.38022236E-03  9.71475425E-03
  5.61377837E-02  9.89385847E-03 -7.48954632E-08 -2.36843875E-07  6.83859135E-07
  5.57776187E-07 -2.34093230E-06 -1.45561258E-05 -3.84034143E-04  1.81034638E-01
 -1.52612467E-01  5.60036125E-02  2.27572052E-01 -1.91717424E-01  7.03907004E-02
 -5.67629750E-02  4.78197189E-02 -1.75575412E-02 -8.84052493E-01  7.44768014E-01
 -2.73447313E-01  9.41066776E-01 -7.92806232E-01  2.91081729E-01 -5.29679271E-01
  4.46190230E-01 -1.63829042E-01  5.58397452E-02  8.96593862E-02 -9.32212039E-02
 -6.18396125E-02  2.20615004E-02 -2.86353845E-02 -4.54577372E-02  4.84165264E-02
  3.50789680E-02 -1.07341346E-02  1.48145122E-06  3.09585484E-06 -7.00463274E-03
  5.90065017E-03 -2.16567270E-03 -2.85909717E-05 -1.07691556E-02  9.07504634E-03
 -3.33250948E-03  9.28446031E-05  6.36075242E-02 -5.35878528E-02  1.97018918E-02
 -2.47470651E-05  7.16219487E-02 -6.03674211E-02  2.21453644E-02  1.43773697E-03
  2.72717015E-03 -1.90601087E-03  1.10727263E-03  1.03336708E-03  8.95727877E-02
  1.69687219E-01 -1.18946448E-01  6.77001583E-02  6.41547876E-02  1.24748878E-07
  4.00480989E-07 -1.19927374E-06 -7.98446834E-07  7.63048851E-06 -4.59807738E-05
 -1.90275722E-05  1.77140745E-01 -1.49240531E-01  5.48076390E-02  1.28688189E-01
 -1.08405612E-01  3.98182739E-02 -3.21892960E-02  2.71157963E-02 -9.96003173E-03
 -5.00196738E-01  4.21359365E-01 -1.54768252E-01  5.31880368E-01 -4.48040564E-01
  1.64567906E-01 -2.92504360E-01  2.46416488E-01 -9.04979060E-02 -2.62680296E-02
 -5.07138570E-02  3.37998406E-02 -2.57903783E-02 -1.98321950E-02  1.16996985E-02
  2.35053943E-02 -1.39481095E-02  1.74420600E-02  9.85377005E-03  1.62659806E-07
  1.32459226E-10 -2.56432464E-02  2.16250003E-02 -7.92604482E-03  5.74437793E-06
 -2.57174773E-02  2.16770117E-02 -7.96388546E-03  8.58483896E-05 -1.75237010E-01
  1.47671250E-01 -5.42280459E-02 -2.43344041E-04  5.91941859E-02 -5.04501762E-02
  1.79045912E-02 -3.90083576E-03 -1.35739356E-03  1.23503953E-02  3.60949256E-02
  3.92801235E-03  3.81590754E-02  3.74048283E-02 -9.22041367E-02 -1.97215331E-01
 -1.15157815E-02  1.27734121E-06  2.01595764E-06 -1.63002953E-01  1.37334945E-01
 -5.04346134E-02 -9.58450902E-06  1.66491918E-01 -1.40284425E-01  5.15199894E-02
  5.87473524E-05  5.37929050E-02 -4.52881167E-02  1.65705518E-02  4.76228497E-04
 -1.27209627E-03  1.58447210E-03 -2.50268620E-04 -2.26030490E-03 -7.45741569E-03
 -7.52673160E-04 -2.21720297E-02 -5.13717266E-03  9.75481909E-02  1.39439245E-01
 -1.83536901E-01 -2.20099962E-01  1.93361228E-02  2.38696719E-09  1.06664828E-08
 -6.24611025E-08  1.54407855E-07 -3.84165228E-06  1.11865535E-05  6.00533635E-04
 -3.18777505E-02  2.68044798E-02 -9.97834720E-03  1.96496495E-03 -1.69503046E-03
  6.21220531E-04 -5.77270564E-04  4.96033414E-04 -1.81961018E-04 -6.73417192E-03
  5.83027413E-03 -2.13464391E-03  3.30655029E-03 -2.96714109E-03  1.07330065E-03
  2.41694949E-02 -2.02394580E-02  7.39961837E-03 -2.71517097E-02  2.58286481E-03
  1.00163667E-01  3.28841066E-01  4.07171245E-02  1.68063664E-02  3.19994555E-03
 -5.62744656E-02 -1.72450436E-01 -1.98535488E-02 -2.56679438E-07 -7.50253737E-07
  1.66770720E-06  3.93035654E-06 -1.27696449E-05 -2.03990618E-05 -4.25919490E-04
 -2.50036502E-01  2.10589860E-01 -7.73727491E-02 -1.83904869E-01  1.54951806E-01
 -5.68865234E-02  4.56995734E-02 -3.85052231E-02  1.41359950E-02  7.20190116E-01
 -6.06802290E-01  2.22774694E-01 -7.83373855E-01  6.60004833E-01 -2.42327890E-01
  4.74773873E-01 -4.00055885E-01  1.46863356E-01 -3.80694177E-02 -6.37190095E-02
  6.04849093E-02  2.53751453E-02 -1.79338613E-02  1.54091583E-02  2.21287223E-02
 -2.88108563E-02 -3.38285807E-02  3.18596580E-03 -5.90482596E-07 -1.17242674E-06
 -8.66007529E-03  7.29449674E-03 -2.67862420E-03  8.20530284E-06 -1.49616630E-02
  1.26037698E-02 -4.62464996E-03  2.18964806E-05  8.83533068E-02 -7.44125737E-02
  2.73460754E-02 -6.75514444E-05 -3.66584135E-03  3.05500225E-03 -1.18830490E-03
  1.28594334E-03  3.06447912E-03 -9.62026317E-04  5.03398961E-03  1.61990867E-03
  7.78662725E-02  1.83001541E-01 -6.12364047E-02  2.88357659E-01  9.52445703E-02
 -1.86381426E-07 -5.49331203E-07  1.26385783E-06  2.68605517E-06 -7.30857648E-06
 -2.61567583E-05 -4.41411290E-04  3.00221735E-01 -2.52888627E-01  9.29639363E-02
  2.57899555E-01 -2.17319886E-01  7.98197812E-02 -6.42756687E-02  5.41624268E-02
 -1.98931901E-02 -1.01046522E+00  8.51467539E-01 -3.12739627E-01  1.09933227E+00
 -9.26320026E-01  3.40251538E-01 -6.40051787E-01  5.39377737E-01 -1.98102552E-01
 -7.18167445E-02 -1.32189145E-01  9.98383111E-02 -2.97692323E-02 -4.71834886E-02
  3.18191368E-02  5.61419942E-02 -4.70830116E-02 -2.33596590E-03  1.82126986E-02
  4.07843823E-03  5.74851069E-03  3.04423725E-02  7.83547281E-02  1.14984416E-01
 -3.71943606E-02 -4.04215945E-02 -6.64256682E-02 -5.02402656E-02 -4.00734880E-01
  2.64233232E-01  4.33705192E-01  3.27049763E-01 -8.60569206E-01  2.70571952E-01
 -2.03801845E-01 -1.43001078E+00  1.70941394E-02 -3.43984019E-02 -1.81070864E-02
  3.51437114E-03  2.98168160E-02 -1.11767218E-01 -2.77756913E-02 -8.15657446E-02
  7.07057871E-03  7.09463420E-02  6.72265731E-03  1.39920490E-02 -3.81865779E-02
 -2.98338908E-02  4.22017097E-02 -2.64929456E-01  8.94336120E-02  6.67977160E-02
 -1.07170215E-01  1.29290476E+00 -2.24022540E-01 -4.96337707E-01 -6.27683796E-01
 -1.01133913E+00  1.11678686E-01  1.17631905E-01 -4.03331499E-02 -1.21442023E-02
 -3.10568307E-02 -2.32943607E-02 -6.64437447E-04  5.66152481E-02 -9.20211116E-02
  8.47505225E-02  1.35478939E-01 -7.91431175E-02  2.39183314E-01 -1.18412263E-04
 -2.87452566E-04  3.14569783E-05  4.59048964E-03 -3.94086727E-02 -1.87114856E-02
  1.96287077E+00  2.49472002E-01  1.60733749E-01 -3.68778824E-01  1.34946217E-01
  1.84686700E-01  6.67632517E-02 -3.40467892E-02 -4.68398343E-02 -1.75080050E-02
 -5.29580688E-01 -7.22485700E-01 -2.55747770E-01  5.67720003E-01  7.67999988E-01
  2.56397212E-01 -3.59730159E-01 -5.44512745E-01 -3.20129448E-01 -1.14407896E-01
 -1.06686539E-01 -4.65506037E-02 -4.42101442E-02  4.02359400E-01  1.14789096E-01
  5.62667106E-02  5.55957138E-02  2.02323435E-02 -2.27394679E-01 -3.06707507E-04
 -1.03303795E-03  3.53628544E-03 -1.47598157E-04 -7.06244153E-03  2.25063148E-01
  9.69787394E-03 -1.35733959E-01  2.45702677E-02  5.05827928E-01 -1.76923869E-02
  4.88110929E-02  1.90179493E-01  4.31955500E-03 -1.25845268E-02 -4.82496865E-02
  6.85186572E-02 -1.92282434E-01 -7.45373962E-01 -5.17555450E-02  2.37238669E-01
  8.13656425E-01  1.41415945E-01 -3.66247980E-02 -5.57030064E-01 -1.40083150E-01
  9.72788127E-02  3.51690995E-02 -2.70064115E-02  3.19672074E-02  5.75036230E-02
 -6.64055982E-02 -5.04616386E-02  2.34935435E-02 -2.29738106E-02 -8.08306955E-03
 -1.66355089E-02 -1.15710664E-02 -9.18952805E-03  1.23738248E-02  1.52184060E-01
 -1.90633157E-02 -9.50911857E-03  3.57219469E-02 -3.85984088E-01  1.21568259E-01
  4.50283385E-02 -2.70316468E-01 -9.70626996E-01  9.86332865E-02 -1.33067645E-02
 -3.55089998E-01  9.70481717E-04  2.73869042E-03  3.02938426E-03 -5.70295286E-04
 -2.38012873E-03 -2.73251248E-02  1.96967290E-01  1.62720869E-01 -3.56572356E-02
 -1.43444839E-01 -1.72448883E-03 -5.19061140E-03  1.28532309E-02  2.14000769E-02
 -7.86129603E-02  1.04283873E-02  2.20050316E-01 -1.87735133E-01 -1.29140778E-01
  2.54937779E-01 -1.16764845E-01 -5.03738927E-02  2.40152472E-01  3.06242550E-02
  1.44283706E-02 -5.96729954E-02  4.47458553E-01  1.81588116E-01 -9.51473739E-01
 -4.13614413E-01 -9.64268090E-02  1.07397426E+00  2.73392425E-01  1.05500880E-01
 -5.96155496E-01  7.54722322E-03 -1.24629309E-01 -7.86642299E-02  4.75450083E-03
  1.68252527E-01  3.28598399E-02  4.14724397E-02  1.16056323E-03  2.41870129E-02
 -1.78982170E-01 -4.41795493E-03 -8.99135320E-03 -2.18782886E-02 -5.14901709E-02
 -6.95330106E-02  1.44921719E-01  5.95412474E-02  8.05176675E-02  2.68553645E-02
  4.31117598E-02  7.62935204E-03 -2.41913915E-01 -6.83614399E-01  6.02395216E-01
  4.79049261E-01  1.13109533E+00  1.53216805E+00  8.69717263E-03 -1.50589628E-02
 -2.53292474E-02  1.25916765E-02 -3.25890973E-02  6.11975971E-01 -3.68297485E-01
 -2.10323048E-01  1.73710641E-01 -4.54043211E-01 -3.38545273E-03 -2.86271793E-03
  7.50817776E-02  1.01627038E-01  3.41555775E-02 -2.09196939E-02 -1.76818124E-02
 -5.09057105E-02 -8.15205193E-02 -7.07051703E-01  3.15787987E-01  5.54783289E-01
  4.90518372E-01 -1.76912604E+00 -1.17438197E+00 -1.65829911E+00 -7.20365953E-01
 -1.00429532E-02  5.52558431E-03  2.44969531E-03 -2.43857203E-03  6.56965872E-03
  7.53992154E-01 -1.57152680E-01  1.73301815E-01  5.73006472E-02 -3.76778486E-01
 -6.71338161E-04 -1.92094500E-03  3.92355411E-03  1.15577923E-02 -2.34598921E-02
  3.58893531E-02 -1.70215592E+00  3.59889524E-01  5.34001968E-01  2.91390035E-01
  2.37209294E-01  2.66292261E-01 -4.14329146E-02 -5.84862856E-02 -6.52416661E-02
  1.13475887E-02 -9.48250879E-01 -1.07088233E+00  1.48269319E-01  1.09462040E+00
  1.27721337E+00 -5.93613354E-02 -6.96926467E-01 -7.65995848E-01  1.66311120E-01
  8.35895259E-02  5.41333599E-02 -4.18017143E-02  7.01815371E-02 -4.11574152E-01
 -1.47689101E-01 -9.08030660E-02 -1.08375434E-01 -1.01889811E-02  2.56197698E-01
  2.73604894E-03  8.13095851E-03 -1.92477768E-02 -3.75499643E-02  1.28449361E-01
  9.91671171E-02  7.91228071E-01 -1.15358269E-01 -3.64760388E-02  2.73190329E-01
 -5.75637626E-02 -5.36522036E-02  3.97603432E-02  1.62224416E-02  1.63059809E-02
 -7.98225514E-03  2.09725561E-01  1.82263203E-01 -1.80775561E-01 -1.11804239E-01
 -5.39186242E-03  3.45845572E-01  1.84612614E-01  1.64430629E-01 -1.48409094E-01
 -1.21701907E-01 -8.04946798E-02 -2.11552886E-01  6.46759394E-02 -7.78128841E-02
  2.28087279E-02  1.42573306E-01  2.57624452E-01 -9.92358385E-02  1.73550822E-01
  7.42199846E-03  1.46297442E-02  1.86249688E-03 -4.50414902E-03 -1.82805369E-02
 -1.05270057E-01  3.74408441E-03 -2.03773413E-02 -6.75932468E-02 -2.64312238E-01
 -3.85986467E-02 -9.90637464E-02 -1.45176558E-01  3.78553399E-01  1.61449603E-02
  9.89655044E-02  2.17241457E-01  2.08448093E-03  5.84623140E-05  1.13800467E-03
 -6.45547356E-05 -8.90207288E-04 -3.79290097E-02 -2.60249206E-02 -5.79466575E-02
  1.49570801E-02 -1.65658128E-03  1.17390034E-03  3.41311183E-03 -7.47924668E-03
 -1.83990526E-02  5.02880803E-02 -2.56624130E-02  2.24662132E+00 -5.10540848E-02
 -2.63436306E-01 -5.52217950E-01  1.02232995E-01  7.72692047E-02 -1.19871852E-01
 -2.60635361E-02 -2.06836128E-02  2.78805911E-02 -3.97201718E-01 -2.88262366E-01
  4.98258428E-01  3.80884955E-01  2.01752979E-01 -6.81040046E-01 -3.38862314E-01
 -2.70302662E-01  3.58776855E-01  2.54240514E-01 -1.90635248E-01 -6.48885530E-02
  4.44492550E-02 -1.78630102E-02 -1.76049229E-01  2.11961797E-01  1.73059518E-01
 -8.01484931E-02  9.05826571E-02  2.96489645E-08  1.26351118E-06 -6.23717793E-02
  5.25474434E-02 -1.92970908E-02 -4.96697153E-05  6.62898979E-02 -5.58620545E-02
  2.05107664E-02  1.62772465E-04 -4.52506278E-02  3.82691989E-02 -1.40068614E-02
 -9.22258533E-04  1.12359936E-01 -9.52788161E-02  3.50252364E-02 -8.03810657E-03
 -5.10431995E-03  2.26548132E-02  5.92847620E-02  5.49470766E-03  4.95823929E-02
  1.03643731E-01 -5.47997872E-02  9.85035452E-02  4.62004993E-02  1.00580588E-06
  1.60745142E-06 -2.33621628E-02  1.96696945E-02 -7.24341097E-03 -1.04786825E-05
  2.75360500E-02 -2.31854584E-02  8.52029124E-03 -9.98117705E-05  1.12782016E-01
 -9.50638753E-02  3.48192359E-02  1.42728593E-03 -1.22011377E-01  1.02843587E-01
 -3.74355185E-02  2.33960458E-02  3.27117936E-02 -4.48220542E-02 -5.72550663E-02
  3.85483498E-03 -8.51253580E-02 -1.66421098E-01  1.06227654E-01 -9.99613072E-02
 -6.69040172E-02  1.89387818E-07  5.45768290E-07 -1.14117508E-06 -3.21465413E-06
  9.27890294E-06  2.07348664E-05 -4.05857144E-05 -2.40889403E-01  2.02956811E-01
 -7.45006212E-02 -1.34171399E-01  1.13031326E-01 -4.14947501E-02  3.33178283E-02
 -2.80687750E-02  1.03038458E-02  5.36120360E-01 -4.51643683E-01  1.65807149E-01
 -6.11099093E-01  5.14778250E-01 -1.89021046E-01  3.78964811E-01 -3.19231417E-01
  1.17200411E-01  1.33188789E-02  5.01196087E-02  1.18008651E-02  1.71227259E-01
  3.72463196E-02  7.02000632E-03 -5.00804609E-03 -3.09369922E-02 -1.13048243E-01
 -1.53417676E-02 -2.19212854E-07 -6.14437740E-07  1.12867145E-06  4.21561975E-06
 -6.47383964E-06 -4.80491062E-05 -1.63640078E-04  1.79171293E-01 -1.50937351E-01
  5.52648843E-02  1.52998359E-01 -1.28908887E-01  4.72608902E-02 -3.81556827E-02
  3.21477852E-02 -1.17862578E-02 -6.09333291E-01  5.13401468E-01 -1.88219942E-01
  6.88231175E-01 -5.79931865E-01  2.12579074E-01 -4.00895717E-01  3.37736899E-01
 -1.23834391E-01 -1.51096804E-01 -2.21158833E-01  2.77478617E-01  3.05246056E-01
 -3.59699620E-02  9.68577526E-02  1.47861464E-01 -1.70632024E-01 -1.56099864E-01
  2.98460632E-02 -6.58714202E-07 -1.25790368E-06  8.28753456E-03 -6.97857344E-03
  2.56513445E-03  6.58340178E-06  1.56799826E-02 -1.31988499E-02  4.85891442E-03
  9.45598989E-05 -1.20320506E-01  1.01371581E-01 -3.71624349E-02 -1.32059473E-05
 -4.43028154E-03  3.73610172E-03 -1.40163378E-03 -9.49060216E-04 -1.75142108E-03
  1.31173553E-03 -4.27442817E-04 -6.28839322E-04 -9.13329878E-02 -1.62722223E-01
  1.33440902E-01 -2.72292283E-03 -5.39725451E-02 -3.02854642E-07 -8.87041750E-07
  1.99098102E-06  4.61676027E-06 -1.47937270E-05 -1.05815265E-05 -3.55627289E-04
  2.06844567E-01 -1.74211087E-01  6.40330595E-02  1.21303371E-01 -1.02236875E-01
  3.75665961E-02 -3.02059045E-02  2.54585572E-02 -9.35431504E-03 -4.84727004E-01
  4.08531560E-01 -1.50118306E-01  5.52185274E-01 -4.65343619E-01  1.71023362E-01
 -3.45893258E-01  2.91544766E-01 -1.07101084E-01  2.15231915E-01  3.40299637E-01
 -3.65730874E-01 -2.72806868E-01  7.91669339E-02 -1.34727148E-01 -2.18093488E-01
  2.22920265E-01  1.38128798E-01 -5.51948384E-02  2.31830993E-03  4.33263351E-03
 -1.51048866E-02 -1.89113294E-02 -2.72336088E-03 -2.79948473E-02 -3.17493294E-02
 -3.09378097E-02  1.84339113E-02 -6.73501084E-01 -6.18131316E-01 -6.15724342E-01
  3.21025531E-01 -4.71562658E+00 -8.38415544E-01  4.50526213E-02  2.83300691E+00
  5.87817339E-02  7.75504136E-03  3.82138432E-02 -3.35747393E-03 -2.81920813E-02
  4.44167311E-01  1.73098263E-02  2.01829030E-01  1.28257861E-02 -3.05285638E-01
 -5.79307242E-03 -1.48320777E-02  3.25393439E-02  6.41530614E-02  6.96680080E-02
  2.10516129E-01 -1.08002364E-01 -1.44192310E-01 -4.37204723E-02  8.93039107E-01
 -3.42285476E-01 -2.88782181E-01  3.20101767E-01  5.32212451E+00 -1.29724386E+00
 -1.46967811E+00  1.89663021E-01 -3.89771728E-02  3.17375107E-02  2.01546860E-02
 -1.21917939E-02  2.07840030E-02  4.75648556E-01 -2.27597895E-01 -6.50357708E-02
  9.61268769E-02 -2.84802935E-01 -2.04387555E-03 -6.08179757E-03  1.44165142E-02
  2.84521380E-02 -1.15871008E-01 -5.98630284E-02 -2.20486897E+00  8.47754897E-02
  2.13535320E-01  3.07489901E-01 -4.27855242E-02 -6.13129471E-02 -2.88205731E-02
  1.07295193E-02  1.62381595E-02  9.57657764E-03  1.68137113E-01  2.33413260E-01
  9.27475761E-02 -1.76967838E-01 -1.89547601E-01  5.52309993E-02  6.57593517E-02
  1.46497977E-01  1.86840347E-01  1.87066743E-02  2.11007671E-01  2.54891439E-01
 -7.36295562E-02 -3.39845213E-02 -1.26299094E-01 -1.15784261E-01 -2.09952279E-01
  4.93772995E-02  4.12581773E-02  2.34386244E-04  6.36392204E-04 -9.75580552E-04
 -5.51972171E-03  2.05187381E-02 -9.34465604E-02  8.75429629E-01 -6.04351492E-02
  8.35234057E-02  4.22964971E-01 -1.69325596E-01 -6.44830187E-02  3.71873239E-01
  4.22467370E-02  1.63155302E-02 -9.21643967E-02  6.74581432E-01  2.54193317E-01
 -1.48887596E+00 -7.51512502E-01 -2.62813421E-01  1.71414869E+00  4.63958658E-01
  1.56523600E-01 -1.07385100E+00  2.98179128E-01 -1.48287214E-01  7.53242966E-02
 -1.31312110E-02  1.29402351E-01 -1.52119518E-01  1.50494160E-01  4.44191639E-02
 -1.67066449E-02 -8.56638165E-02 -4.87257116E-03 -9.92868697E-03 -7.78406703E-03
 -7.12559022E-03  5.77387378E-03  9.61557601E-02 -2.74201643E-02 -3.28917956E-02
 -9.12197485E-04 -4.63921134E-01  6.36367404E-02 -2.71031408E-02 -2.79820876E-01
 -7.63759707E-02 -9.15872861E-03  1.95411473E-02  8.28379749E-02  1.96001119E-03
  6.75269780E-04  1.67868346E-03 -2.06467963E-04 -1.19711993E-03 -2.11832874E-02
 -6.69409464E-03 -3.42019596E-02  1.24109275E-02 -2.95930206E-02  9.51367659E-04
  2.75343161E-03 -5.96108907E-03 -1.45985052E-02  7.20280067E-03  3.31061604E-01
  6.69543178E-01  5.17768975E-02 -1.63666422E-02 -2.11362892E-01  2.95483614E-02
  9.64069835E-03 -6.89921699E-02 -8.45640110E-03 -3.92114469E-03  1.65897892E-02
 -1.00481977E-01 -1.38527733E-02  2.86014215E-01  2.08963250E-04 -1.44694501E-01
 -3.93540358E-01 -1.71155844E-01 -1.56683580E-01  1.25771405E-01 -6.57616384E-02
  1.13149093E-01  1.68374879E-02  1.17567360E-02 -1.88411436E-01 -1.25910810E-02
 -1.53244092E-02  6.24282267E-02 -4.76130900E-02  2.23988248E-01  4.11628756E-07
 -5.26471535E-07  4.42304875E-02 -3.73034080E-02  1.36085956E-02  3.42689161E-05
 -3.68455297E-02  3.10361673E-02 -1.13306141E-02 -3.08291771E-04 -1.14325657E-01
  9.62939695E-02 -3.54573191E-02  1.15506021E-03  8.29471440E-02 -6.83185385E-02
  2.59694914E-02  2.29020513E-02  3.41100946E-02 -4.13654643E-02 -4.23870114E-02
  6.12780237E-03  6.78671084E-02  1.15363837E-01 -1.06200864E-01 -3.50267445E-02
  3.38382054E-02  3.98826139E-07  1.09222690E-06  1.99568501E-01 -1.68207964E-01
  6.17252745E-02 -4.24221332E-05 -1.68928959E-01  1.42395596E-01 -5.22884007E-02
  5.37911633E-05  3.29257765E-01 -2.77583372E-01  1.02083127E-01 -1.82969268E-03
 -2.21154217E-01  1.86309768E-01 -6.89597330E-02 -3.17715974E-03 -3.17157120E-03
  7.62533128E-03  1.61461311E-02  9.24730258E-04 -8.66610935E-02 -1.85239683E-01
  9.00780208E-02 -2.01826540E-01 -8.54616992E-02 -1.37859667E-07 -4.86087569E-07
  1.84592876E-06 -7.73420721E-07 -1.21283619E-05  1.60571114E-04 -8.05002260E-04
 -2.02882103E-01  1.70822518E-01 -6.26241334E-02 -1.27674102E-01  1.07606976E-01
 -3.95787401E-02  3.18138177E-02 -2.68133252E-02  9.86274118E-03  5.13218920E-01
 -4.32554027E-01  1.59099273E-01 -5.91237247E-01  4.98304635E-01 -1.83327385E-01
  3.77314868E-01 -3.17985050E-01  1.16922527E-01  8.14223567E-02  4.64178414E-02
 -2.35606820E-01 -6.33858773E-01 -6.13051943E-02 -3.85237393E-02 -4.30159182E-03
  1.32423574E-01  4.14077032E-01  4.86217176E-02  4.02467861E-07  1.22620832E-06
 -3.16322126E-06 -4.65113656E-06  2.68153214E-05 -6.13641189E-05  1.23931202E-03
  8.15903076E-02 -6.84361864E-02  2.51715276E-02  2.44676033E-02 -2.06251034E-02
  7.50375391E-03 -5.91338560E-03  4.98539940E-03 -1.81320619E-03 -9.98292064E-02
  8.41476655E-02 -3.06178653E-02  1.23763694E-01 -1.04309829E-01  3.79740836E-02
 -8.06853186E-02  6.80576847E-02 -2.47460057E-02  1.44930281E-01  2.49402030E-01
 -2.21680983E-01 -5.10238852E-02  7.61027386E-02 -9.49673985E-02 -1.60988809E-01
  1.48093090E-01  4.90669818E-02 -4.71517006E-02  9.67242093E-07  1.77581309E-06
  1.50685728E-02 -1.26967940E-02  4.65702790E-03 -1.13490230E-05  3.14774350E-02
 -2.65217732E-02  9.73115294E-03 -1.26273881E-05 -1.78750544E-01  1.50627986E-01
 -5.52914876E-02  2.29958510E-04  1.25264547E-02 -1.05020645E-02  3.99112450E-03
 -2.16070266E-03 -3.51637280E-03  3.55176074E-03  2.08852907E-03 -9.05850808E-04
 -1.18407056E-01 -1.95354849E-01  1.91466280E-01  9.71963782E-02 -5.26239727E-02
 -3.56645026E-07 -1.06997038E-06  2.64299812E-06  4.43978546E-06 -1.60557375E-05
  8.36589340E-07  2.28142383E-04  2.93812616E-01 -2.47639509E-01  9.09051208E-02
  1.52866048E-01 -1.28832987E-01  4.72855818E-02 -3.80056161E-02  3.20313989E-02
 -1.17562106E-02 -6.16670922E-01  5.19711862E-01 -1.90752012E-01  7.13771988E-01
 -6.01505308E-01  2.20782612E-01 -4.69985944E-01  3.96096814E-01 -1.45396439E-01
 -1.07786325E-01 -2.03278627E-01  1.44890886E-01 -7.31564624E-02 -7.56575043E-02
  6.81989027E-02  1.20063493E-01 -1.01803878E-01 -8.92977027E-03  3.83337329E-02
  6.10223039E-03  9.66773876E-03 -1.74071029E-02 -8.46395955E-02 -1.74415409E-01
 -6.84418591E-02 -7.00515829E-02 -4.86075666E-03  2.13322866E-01 -1.10868937E+00
 -2.99358035E-01 -3.88906971E-01 -9.16089383E-02 -2.50699207E+00 -7.15884454E-02
  9.12519077E-01  2.71674872E+00  2.43013951E-02 -3.62740349E-02 -1.71275035E-02
  4.36780978E-03  2.56189089E-02 -2.15759211E-01  4.87821395E-02 -5.61446826E-02
 -1.09446252E-02  7.96051010E-02  8.85342176E-04  1.44973632E-03 -4.40941021E-02
 -7.02179847E-02 -4.91250368E-02 -7.26102573E-02  4.91853553E-02  4.70306320E-02
 -3.05427630E-02  5.57149361E-01 -5.95219872E-01 -4.33850648E-01  7.41787952E-01
  2.08798676E+00 -8.35110641E-01 -1.08216545E+00 -2.47856842E-01  2.67072250E-02
 -4.23874856E-02 -1.85882018E-02  3.68888034E-03  3.64707822E-02  6.38367877E-02
 -1.24793050E-01 -6.36775246E-02  1.20410025E-02  1.10538997E-01 -6.56263512E-04
 -2.11115297E-03  6.45802202E-03  3.52144250E-03 -5.30813240E-02  4.16152753E-01
 -2.42660192E+00 -6.62665306E-02  2.71573289E-02  2.88580643E-01  3.12733753E-03
 -5.86981380E-02 -1.69885562E-01 -7.08549479E-04  1.51663017E-02  4.35741378E-02
 -1.38864450E-02  2.35956581E-01  6.87162142E-01  3.26961508E-02 -2.83833640E-01
 -8.78314563E-01  1.85809391E-02  1.82097238E-01  4.35576619E-01  2.24055829E-01
 -1.71797985E-01  6.95599443E-02 -3.95848904E-02  3.12619524E-01 -1.22541033E-01
  1.07905295E-01 -4.11281412E-02  2.86223093E-02 -2.20997760E-01  4.07423747E-04
  1.27923407E-03 -3.63698707E-03 -3.43454525E-03  3.47580610E-02 -2.16268370E-01
  1.97850947E+00  3.03597892E-01  3.10358731E-01 -1.36276998E-01 -4.02787830E-02
 -5.75735124E-02 -2.65446544E-02  1.04719284E-02  1.48283158E-02  6.51996390E-03
  1.61421409E-01  2.32311897E-01  1.10687732E-01 -1.99577033E-01 -2.94097175E-01
 -1.55611864E-01  1.08439121E-01  1.72374278E-01  1.18839728E-01  3.32177670E-01
 -1.13497912E-01  1.18172064E-01 -1.67559417E-02  7.32109749E-02 -2.25490679E-01
  6.24999643E-02 -9.48097638E-02  1.49884454E-02 -4.20871885E-02 -6.32029828E-04
 -1.80511836E-03 -2.87636347E-03 -8.12467832E-03 -1.28666598E-02  2.59091147E-02
 -6.04385704E-03 -1.21216691E-02 -1.35557426E-02 -1.25962392E-01  2.17068747E-02
  2.99404951E-02  1.18010484E-02  6.87850425E-01  7.77187002E-02  2.04265807E-01
  3.05003234E-01  1.50883748E-04  3.40536398E-04  7.49536323E-04 -2.93098766E-04
  5.93587933E-04 -1.84272131E-02 -3.34981158E-03 -2.05217275E-02  5.85865809E-03
 -9.31258155E-03 -4.29694463E-04 -1.28752559E-03  3.16697974E-03  5.53185091E-03
 -3.11119515E-02  1.41839050E-01  6.77465264E-01 -3.14059587E-02 -8.67447046E-02
 -1.35168934E-01 -1.83244327E-02 -3.90683850E-02 -4.74968901E-02  4.89737956E-03
  1.01966555E-02  1.20216476E-02  7.16154093E-02  1.54788829E-01  1.91394428E-01
 -7.80447633E-02 -1.76792173E-01 -2.30744809E-01  2.46764938E-02  6.67079804E-02
  1.02888799E-01  5.55310500E-01 -3.61468481E-01  1.15681365E-01 -4.08143033E-02
  4.38657332E-01 -3.65356233E-01  2.38904786E-01 -8.10208061E-02  3.02896695E-02
 -3.04176373E-01 -1.63344249E-06 -3.25393093E-06  6.14988842E-03 -5.17599910E-03
  1.91524400E-03  2.94824189E-05 -4.69137406E-03  3.99811766E-03 -1.52405499E-03
  4.69225270E-04 -1.45167549E-02  1.24606814E-02 -4.76184224E-03  1.06883690E-04
  2.04881562E-02 -1.67431600E-02  6.04064828E-03  1.43427288E-02  2.77304152E-02
 -1.82301142E-02  1.50329605E-02  1.09446610E-02  2.56015468E-02  5.07073010E-02
 -3.23234795E-02  3.03974997E-02  2.05681886E-02 -2.22079590E-07 -2.16121182E-06
  2.09511546E-02 -1.76522407E-02  6.50145686E-03  9.83491371E-06 -1.96586244E-02
  1.65277413E-02 -6.22669288E-03 -6.85992263E-05  4.61546842E-02 -3.86876118E-02
  1.37204687E-02  1.63575385E-04 -3.24245142E-02  2.81881346E-02 -1.00933266E-02
  2.68437724E-03  6.26101313E-03 -2.39252576E-03  8.88612384E-03  3.15619934E-03
 -1.42474570E-02 -2.92897766E-02  1.57086768E-02 -2.77554010E-02 -1.30106220E-02
  1.16358452E-08 -1.37969914E-08  4.08730727E-07 -1.14783999E-06 -2.88106531E-05
  2.05566911E-04  1.84462544E-04 -1.19743822E-01  1.00845413E-01 -3.70879424E-02
 -8.44128844E-02  7.11956063E-02 -2.61536776E-02  2.11506197E-02 -1.78395256E-02
  6.55279412E-03  3.40079988E-01 -2.86823673E-01  1.05378825E-01 -3.91778755E-01
  3.30383794E-01 -1.21479189E-01  2.46187819E-01 -2.07635144E-01  7.61577283E-02
  4.04510185E-02  1.71878412E-01  5.92306725E-02  6.46139691E-01  1.34693279E-01
 -1.96850266E-02 -1.01329591E-01 -4.95601275E-02 -4.28083648E-01 -8.51046188E-02
 -2.99130927E-08 -3.31096118E-08 -3.81066636E-07  1.80070177E-06  2.50416684E-05
 -2.02041147E-04  5.38829527E-04  1.02092134E-01 -8.59147549E-02  3.15575324E-02
  7.48596997E-02 -6.31186349E-02  2.31143345E-02 -1.87439566E-02  1.58040352E-02
 -5.78786408E-03 -3.01498319E-01  2.54224891E-01 -9.30888896E-02  3.47352147E-01
 -2.92992228E-01  1.07220379E-01 -2.15559796E-01  1.81657771E-01 -6.65643177E-02
  3.05276071E-01  5.19751175E-01 -4.74287213E-01 -1.45063433E-01  1.53919427E-01
 -2.00300721E-01 -3.38614925E-01  3.14072179E-01  1.11058483E-01 -9.82993720E-02
 -5.85387099E-06 -1.16828572E-05 -2.07894659E-03  1.75900476E-03 -6.28576627E-04
  1.02377887E-04 -5.15971176E-03  4.34988034E-03 -1.56904504E-03 -1.94387469E-04
  8.98491643E-03 -7.50191260E-03  2.62124586E-03 -3.65501706E-04 -4.01771783E-02
  3.36390413E-02 -1.25508242E-02 -2.72069762E-04 -5.04091549E-04  3.68638375E-04
 -1.47797186E-04 -1.83612927E-04 -1.41267765E-02 -2.58103020E-02  1.95844752E-02
 -5.68049978E-03 -9.19621412E-03 -7.30476032E-07 -2.16616514E-06  5.05039122E-06
  1.08895739E-05 -5.74773937E-05  5.24150207E-05 -9.73690616E-04  3.61186357E-02
 -3.02659346E-02  1.13443382E-02 -3.06425956E-03  2.50619040E-03 -8.37534909E-04
  9.34146040E-04 -7.67208061E-04  2.61480578E-04  1.11755053E-02 -9.11527798E-03
  3.00995912E-03 -7.16232929E-03  5.73379705E-03 -1.68766328E-03 -8.32723952E-03
  7.25062130E-03 -2.88754374E-03  6.01748520E-03  8.38371963E-03 -1.26992330E-02
 -1.87370924E-02  3.10436072E-04 -4.83229439E-03 -8.11264828E-03  8.44428898E-03
  5.86611830E-03 -1.84682787E-03  4.00774932E-04  1.12922223E-04 -1.57757642E-02
 -4.17624781E-02 -6.26767324E-02 -1.27125367E-02  2.88388900E-02  2.20587067E-02
 -3.31886373E-02  3.33855647E-01  1.42210192E-01  3.68038218E-02 -3.59201459E-01
 -1.45495854E+00  8.01358936E-01  1.70969895E+00  2.06595918E+00  8.23110913E-02
 -5.44303900E-02 -2.10076288E-02  1.70997534E-02 -2.80676012E-02 -6.61128629E-01
  2.11529384E-01 -3.29997809E-03 -1.14432983E-01  4.78434643E-01 -4.02783450E-04
 -5.34323248E-03 -3.21362008E-02 -3.23398621E-02  1.57274239E-02  9.79801562E-03
  5.08014417E-02 -6.02028909E-02 -3.28134098E-01  2.12475450E-01 -4.11219336E-02
 -3.16742760E-01 -7.29971220E-01  1.65532433E+00  1.14653925E-01  4.58610599E-02
 -2.45607572E-01 -1.09652339E-01  1.68163492E-02 -2.60745750E-02 -1.00088026E-02
  7.08781313E-02 -2.26728666E-01  1.44159029E-01  7.64566154E-02 -6.05768640E-02
  1.41170846E-01 -2.92219977E-04 -1.04455013E-03  3.93123373E-03 -4.92975105E-04
 -9.02422416E-02  6.38973056E-01 -2.07928201E+00 -1.40423973E-01 -6.14813486E-02
  2.87058872E-01  7.49549919E-02  3.64042369E-02 -1.42909611E-01 -1.93479698E-02
 -9.94482019E-03  3.53979869E-02 -2.99874509E-01 -1.33116140E-01  6.05862768E-01
  3.39492177E-01  6.28345360E-02 -9.25261010E-01 -1.74988743E-01 -1.25668199E-01
  2.22600166E-01  6.90191574E-02  6.17576329E-03 -6.85058683E-02  6.44835775E-02
 -3.08580556E-01  8.88458816E-02 -1.45930128E-03  1.35084593E-01 -5.73331484E-02
  1.91325530E-01  5.46805531E-06  1.62568001E-04 -1.59949570E-03  3.61702096E-03
  7.13776184E-02 -5.75730428E-01  3.14714945E+00  3.94968113E-01  4.43573317E-01
 -6.89281606E-02 -4.88853594E-02 -1.01414541E-01 -1.18300577E-01  1.20214556E-02
  2.48895061E-02  2.89576555E-02  2.11903421E-01  4.32591194E-01  4.93663902E-01
 -3.61439752E-01 -6.78021931E-01 -6.78778701E-01  6.73670208E-02  2.00208211E-01
  3.27892944E-01  3.65373109E-01 -3.89217370E-01 -1.11714949E-01  3.33246657E-02
  2.75450239E-01 -2.24295624E-01  1.84191309E-01 -3.76514848E-02  2.46880947E-02
 -2.68829146E-01 -1.45525190E-02 -2.93657263E-02  1.28645643E-03  1.25087832E-02
  2.99174070E-02  2.62538902E-01 -1.07768117E-02  9.35296766E-03  6.03261131E-02
 -5.43070466E-01  1.36431402E-01  3.85528231E-02 -3.36041194E-01 -4.26022258E-01
 -1.27010520E-01 -1.84950254E-01 -9.31215146E-02 -2.84484092E-03 -7.76971908E-04
 -2.36476546E-03  3.31571341E-04  1.29327080E-03 -1.49521895E-01  6.69585621E-02
 -9.38174334E-03 -1.35789725E-02  2.86548282E-02 -1.80137113E-03 -5.36366638E-03
  1.27177661E-02  2.60136409E-02 -1.46858363E-01  2.88312818E-01 -1.29783367E+00
  5.88407828E-02  1.76089959E-01  2.89212142E-01 -1.30180441E-01 -9.01002447E-02
  1.75302939E-01  3.35706780E-02  2.40250845E-02 -4.30558801E-02  5.23644639E-01
  3.58917661E-01 -7.14690180E-01 -5.79828655E-01 -3.71257651E-01  8.62602152E-01
  3.49080262E-01  2.22014094E-01 -5.23364229E-01 -3.07581917E-01  1.16352060E-01
 -8.78947689E-02  6.55733896E-03 -4.85349296E-02  2.20162237E-01 -1.26055081E-01
  1.32979816E-03  1.74460289E-02  1.03215285E-02 -8.11311591E-07 -2.49280215E-06
 -1.26500217E-01  1.06615612E-01 -3.91402571E-02  4.85806524E-05  7.39962437E-02
 -6.23480377E-02  2.28797154E-02  3.72699767E-05 -3.43371720E-01  2.89385368E-01
 -1.06240860E-01  3.22779116E-04  2.88556370E-01 -2.43611833E-01  8.89645809E-02
 -1.88631224E-03 -7.34757790E-03 -1.97328646E-03 -2.58256599E-02 -5.54872253E-03
  7.31756854E-02  8.93402579E-02 -1.55774313E-01 -2.63590489E-01 -2.43509191E-03
 -1.92564453E-07 -9.64414619E-07 -1.10087251E-01  9.27504619E-02 -3.40657097E-02
  1.13969600E-05  1.26075202E-01 -1.06227842E-01  3.89988304E-02  1.00979467E-05
  4.07774782E-02 -3.43862819E-02  1.25328051E-02  1.48117490E-04 -1.02037042E-01
  8.64373020E-02 -3.15044169E-02 -7.72648545E-03 -1.67004620E-02  7.76583879E-03
 -1.93405830E-02 -7.84573799E-03  2.07266806E-01  3.39408309E-01 -3.38326132E-01
 -1.87165970E-01  8.92312308E-02  5.78995543E-08  1.83269060E-07 -5.26103210E-07
 -4.11205954E-07 -1.84371362E-06  2.33690574E-05  3.28888515E-04 -1.07745641E-01
  9.08137182E-02 -3.34123072E-02 -3.14609018E-02  2.65264957E-02 -9.74662013E-03
  7.93323800E-03 -6.68900745E-03  2.45766443E-03  1.28289385E-01 -1.08167144E-01
  3.97453901E-02 -1.47210061E-01  1.24115854E-01 -4.56195057E-02  1.08182919E-01
 -9.11971858E-02  3.34780388E-02 -2.88327952E-02 -1.00416249E-01 -1.59367237E-02
 -3.17437066E-01 -7.15681700E-02  2.77199620E-02  8.55496703E-02  2.34642628E-03
  2.34366050E-01  5.65999784E-02 -2.40206508E-07 -7.10763207E-07  1.66604429E-06
  3.45952889E-06 -1.60843110E-05  3.52433213E-05 -5.50585502E-04 -1.85723852E-01
  1.56379275E-01 -5.75215383E-02 -7.37895911E-02  6.22124060E-02 -2.28525191E-02
  1.83385851E-02 -1.54618308E-02  5.67926787E-03  3.00448462E-01 -2.53306430E-01
  9.30496664E-02 -3.54402456E-01  2.98778540E-01 -1.09766444E-01  2.74880209E-01
 -2.31755586E-01  8.51207411E-02  1.05144832E-01  1.20627785E-01 -2.32533507E-01
 -4.27070275E-01 -1.18502816E-02 -8.09722689E-02 -1.00392209E-01  1.70189617E-01
  2.80553035E-01  8.01687531E-04 -7.44699095E-07 -1.47564195E-06 -1.76752333E-02
  1.48958916E-02 -5.46770267E-03  1.26156222E-05 -3.92493735E-02  3.30728784E-02
 -1.21415965E-02 -3.53696274E-05  2.55791931E-01 -2.15509112E-01  7.91248455E-02
 -2.44926613E-05 -4.51695834E-02  3.79817177E-02 -1.39948009E-02  2.42433970E-03
  4.62701740E-03 -3.17962093E-03  2.05643461E-03  1.77516415E-03  1.60569571E-01
  3.04544769E-01 -2.12742088E-01  1.24044075E-01  1.15448183E-01 -2.30433003E-07
 -6.85972779E-07  1.62901435E-06  3.30025437E-06 -1.85832428E-05  3.89206786E-05
 -3.34703694E-04  9.04806968E-03 -7.58462138E-03  2.86207768E-03  9.91487927E-04
 -8.60229079E-04  3.29579623E-04 -3.33444556E-04  2.87453580E-04 -1.09029676E-04
 -3.60742472E-03  3.13932579E-03 -1.20886360E-03  2.58701956E-03 -2.28996270E-03
  9.09365039E-04  2.52506597E-03 -2.05783563E-03  7.11346332E-04  2.88101001E-01
  4.91095707E-01 -4.47525256E-01 -1.35723886E-01  1.45454714E-01 -2.11333835E-01
 -3.59696951E-01  3.28924823E-01  1.03099181E-01 -1.06093615E-01  2.49949117E-03
  4.04176253E-03 -6.44758510E-02 -1.10033377E-01 -9.13598774E-02 -8.74027951E-02
  1.10796459E-01  1.47971272E-01  4.49418160E-02  1.73076669E+00  3.97071241E-01
  9.16805507E-02 -1.03388684E+00 -1.56454485E+00  8.12310557E-01  1.25209137E+00
  7.84673439E-01  3.17488424E-02  1.73893155E-02  3.28934458E-02 -4.48989733E-03
 -2.46229600E-02 -3.52468427E-01  2.09358534E-01  1.21296677E-01 -1.01159456E-01
  2.70101383E-01 -5.16588840E-03 -1.41434834E-02 -7.10916957E-02 -9.94369093E-02
 -4.11938112E-02  3.05354574E-01  1.85271388E-02  1.62438482E-02 -1.54956084E-02
 -1.58918152E+00  6.87497872E-01  6.16714222E-01 -5.42718901E-01  2.05743545E+00
  3.62813517E-01  4.86889425E-01  1.53153729E-01 -3.34878988E-02  2.63502456E-02
 -6.69589507E-03  3.94878183E-03 -3.95195877E-02 -2.21019112E-01  1.27296703E-01
 -2.51961284E-02 -2.73892441E-03 -7.17319900E-02 -1.03696567E-03 -3.15702560E-03
  8.09919790E-03  1.28930332E-02 -1.18188827E-01  5.53564330E-01 -8.10213626E-01
 -2.16176612E-01 -2.23281408E-01  9.06286893E-02 -4.34633804E-02 -9.16304224E-02
 -1.09076148E-01  1.01999028E-02  2.23867786E-02  2.80030173E-02  1.83174476E-01
  3.84876714E-01  4.56168549E-01 -2.35778915E-01 -5.16510785E-01 -6.44674829E-01
  1.42384844E-01  2.25295778E-01  1.53402934E-01  1.44914773E-01  1.05306887E-02
 -5.21638599E-02  7.83559171E-02 -4.09528189E-01 -6.54962244E-02  3.66172448E-02
  1.18771291E-01 -7.86576343E-02  2.97777159E-01 -6.28907564E-04 -1.80548059E-03
  3.67950576E-03  1.08789984E-02  6.67742083E-03 -5.96210207E-01  2.74789416E+00
  2.70410462E-01  4.06729077E-01  2.33420892E-01 -1.08968261E-01 -1.04878601E-01
  6.65650665E-02  2.68590888E-02  2.57477600E-02 -1.66884005E-02  4.59270054E-01
  4.47380493E-01 -2.65994282E-01 -6.70477133E-01 -7.01476283E-01  2.56659970E-01
  3.28629372E-01  3.19345548E-01 -1.92375507E-01 -2.70162805E-01  4.12476691E-01
  1.00410645E-01  1.04112430E-02 -5.38428407E-01  2.52747209E-01 -3.35451329E-01
 -1.04865469E-01  1.54930311E-02  3.23433821E-01  3.86918391E-03  8.69270506E-03
 -9.52263495E-04  5.70526284E-03  1.86128909E-02 -9.87639680E-02  3.64386468E-03
  1.75219361E-02  3.59305381E-02  5.50672035E-01 -4.31639436E-02 -2.78826112E-02
  6.37008083E-02 -6.85508423E-01  9.83047438E-02  2.04289422E-02 -2.62099248E-01
 -3.51387996E-03  1.84316981E-03 -1.35155391E-03  4.75048928E-04 -2.97320178E-03
 -6.39589257E-02  5.29204591E-02 -1.38941340E-02  9.17653738E-03 -8.59710972E-02
 -3.56080238E-04 -9.15046783E-04  9.62254041E-04  1.01033523E-02 -5.95979585E-02
  1.08247304E-01 -2.31169942E+00  2.50305805E-01  3.79608889E-01  2.24797294E-01
 -9.60304298E-02 -8.60394209E-02  7.60667390E-02  2.41565547E-02  2.18139609E-02
 -1.86700657E-02  3.94761681E-01  3.52228399E-01 -3.16677879E-01 -4.76993460E-01
 -4.16640925E-01  4.07039909E-01  3.90794765E-01  3.88355517E-01 -2.05381938E-01
 -7.70264674E-02 -9.34653979E-02 -7.06611193E-02 -1.34692815E-02  2.38283258E-01
  5.51705762E-02  4.06743813E-02  2.10513024E-02  1.81556935E-02 -1.64994489E-01
 -5.72378709E-03 -1.62815146E-02  4.10878534E-02 -4.43747273E-03 -1.43902312E-01
  2.80612878E-01  6.86315698E-02  8.56878035E-02  1.07629893E-02  2.52414073E-01
 -4.57507948E-02 -2.28059533E-01 -4.71335543E-01 -8.17561191E+00 -1.70339631E+00
 -5.47555212E-01  4.01330154E+00  1.26172984E-02  1.75846984E-02  1.59362246E-02
  3.14451548E-04 -3.48200879E-02  3.52760949E-01 -2.06126868E-01 -1.06995816E-01
  9.36410259E-02 -2.43322767E-01  8.11709431E-04 -3.97421761E-03 -8.29814316E-02
 -1.43820277E-01 -1.22627776E-01  1.82579074E-01  1.48524700E-01  2.31461298E-01
  1.49504557E-01 -9.80125363E-01 -1.19779552E-01  9.72562350E-03  4.15551386E-01
  1.08343865E+01 -1.68915066E+00 -1.47499165E+00  1.44241035E+00 -1.08018916E-02
  2.40021631E-02  8.84482016E-04  5.15704689E-03 -5.22031669E-02  3.99537234E-01
  2.33731335E-02  8.42220189E-02  7.45607705E-02 -5.42381886E-01 -1.36514266E-03
 -3.90764739E-03  7.98300651E-03  2.48018120E-02 -1.26383662E-01  3.54422883E-01
 -3.41415139E+00  2.73260905E-01  5.27309608E-01  5.53712751E-01  1.14827313E-01
  8.62772120E-02 -1.36330226E-01 -2.86926590E-02 -2.09051036E-02  3.58473464E-02
 -4.77059651E-01 -3.64340201E-01  5.50359323E-01  5.94139359E-01  4.84704371E-01
 -6.01109348E-01 -4.17315977E-01 -2.87491072E-01  5.64910165E-01  2.05189748E-01
 -1.65516638E-01  6.81737907E-02 -4.13647823E-02  3.16802001E-01 -2.26834309E-01
  8.61050333E-02 -1.40843341E-01  5.06632220E-02 -2.21867161E-01  7.46980776E-04
  2.24041598E-03 -5.47921811E-03 -9.66286070E-03  1.96933889E-02  4.46572526E-02
  1.21059101E+00  2.92245345E-01  2.76001161E-01 -1.92376736E-01  1.26715690E-02
  2.20738966E-02  1.93466188E-02 -2.90502056E-03 -4.88574862E-03 -3.96300189E-03
 -5.80749446E-02 -1.01914385E-01 -9.06308741E-02  1.10193433E-01  1.95079121E-01
  1.76071410E-01 -1.71728564E-02 -2.99694073E-02 -2.65915625E-02 -1.48329259E-01
  8.48584435E-02 -6.09709579E-03 -8.95665390E-03 -1.96886700E-02  9.58801592E-02
 -1.22528278E-02  7.83924453E-02 -2.42297913E-02  6.99500274E-02  1.18896866E-02
  2.47042609E-02 -5.34880010E-03 -8.25282434E-03 -5.19397293E-03 -2.30790469E-01
 -1.26912695E-02 -2.70302878E-02 -3.25752517E-02  3.67305487E-01  2.99184165E-02
  8.24146875E-02  1.27537880E-01  1.96370921E-01  8.45497396E-02  1.20204092E-01
  5.36140072E-02 -5.22363038E-03  1.82078328E-03  2.61605389E-04 -1.02760917E-03
  4.03775586E-03 -9.67777202E-02  1.24740837E-02  3.04375818E-02 -4.26260852E-02
  2.03172085E-01  4.09134624E-04  1.32703532E-03 -3.98100069E-03 -2.43462731E-03
 -3.94529994E-02  5.07452886E-01 -9.29176519E-01  2.57609222E-01  1.16870503E-01
 -5.13984041E-01 -5.05295904E-02 -1.30489296E-01 -1.92161642E-01  1.29452125E-02
  3.24953340E-02  4.66853812E-02  2.14009264E-01  5.51617742E-01  8.11017794E-01
 -3.47579951E-01 -8.16709655E-01 -1.10130711E+00  1.00803714E-01  3.68501340E-01
  6.76755941E-01 -3.89761381E-01  4.06438925E-01  2.61589732E-01 -1.26757222E-01
  8.56689301E-02  3.06484290E-01 -2.28669206E-01 -7.58863100E-02  5.33527003E-02
 -1.81641708E-02 -8.48051210E-06 -2.46650250E-05 -9.67125226E-02  8.15131549E-02
 -3.01864077E-02  4.52279351E-04  7.78535615E-02 -6.53883279E-02  2.41091751E-02
 -2.68405745E-04 -1.86341660E-01  1.56066190E-01 -5.81574228E-02 -1.31748797E-02
  1.46006198E-01 -1.25512406E-01  5.38970613E-02 -1.00194689E-02 -1.53034451E-02
  1.77709238E-02  1.63947077E-02 -3.12249254E-03 -8.56957618E-02 -1.72806471E-01
  1.03537022E-01 -1.24154181E-01 -7.23208917E-02  1.03283272E-06 -5.98386373E-06
 -8.76480948E-02  7.35689432E-02 -2.72513616E-02  2.49318593E-04  8.24794803E-02
 -6.90000167E-02  2.56518402E-02 -9.89891849E-04 -2.08816958E-01  1.75419082E-01
 -6.34332353E-02  1.72635724E-02 -4.65494435E-02  3.31670655E-02 -1.14661233E-02
  2.88716121E-03  1.09050085E-03 -9.13283810E-03 -2.65259455E-02 -2.93067833E-03
  1.74777065E-02  3.96601516E-03 -5.52595786E-02 -1.67219397E-01 -1.97800345E-02
 -2.38422088E-06 -6.86340893E-06  1.43588262E-05  4.21486980E-05 -2.25483222E-04
  6.99960411E-04 -7.21230796E-03 -5.10310214E-02  4.42481522E-02 -1.46910115E-02
  2.02433419E-02 -1.67514958E-02  5.95686307E-03 -5.15455612E-03  4.26795823E-03
 -1.51520079E-03 -8.64885347E-02  7.15952078E-02 -2.55098681E-02  1.06755755E-01
 -8.83019740E-02  3.15875012E-02  9.21339844E-02 -7.86812491E-02  2.97525835E-02
  3.09593453E-01  5.42179066E-01 -4.62017557E-01 -4.64258221E-02  1.73829702E-01
 -2.60898969E-01 -4.57194898E-01  3.88675877E-01  3.68842661E-02 -1.46749804E-01
  1.38415284E-06  4.16394302E-06 -1.02843233E-05 -1.76850840E-05  5.03583949E-05
 -2.22965380E-05  2.61337608E-03 -6.82944604E-02  5.85291806E-02 -2.16063367E-02
 -2.09842504E-02  1.77134859E-02 -6.46781823E-03  5.19891351E-03 -4.38704500E-03
  1.60365688E-03  8.84155518E-02 -7.46557037E-02  2.72393804E-02 -1.09865908E-01
  9.29179547E-02 -3.37695147E-02  4.84421292E-02 -4.08587055E-02  1.49395531E-02
  1.54324637E-03  3.74460191E-02  3.80671338E-02  2.21572270E-01  3.92170024E-02
 -4.15839490E-03 -3.89160550E-02 -3.07350892E-02 -2.02568034E-01 -3.73305899E-02
  1.79166917E-05  3.71250982E-05  9.47182596E-04 -8.17358004E-04  2.87645222E-04
 -3.43109093E-04 -1.55276046E-03  1.24650158E-03 -5.24190536E-04  5.02129814E-04
  1.85542306E-02 -1.54634436E-02  5.86994962E-03  4.84880089E-04  5.85698124E-02
 -4.90127708E-02  1.82925721E-02  5.42063466E-04  1.24292655E-03 -4.90982684E-04
  1.70875458E-03  6.22362392E-04  1.80801800E-02  4.46246109E-02 -1.21659501E-02
  7.90402279E-02  2.45985534E-02  7.15424690E-07  2.26641304E-06 -6.40773901E-06
 -5.96629591E-06 -5.02921517E-05  7.38422181E-04 -2.44483897E-04 -2.71183511E-02
  2.31349054E-02 -9.38849954E-03  1.22127836E-02 -1.05137144E-02  3.49372986E-03
 -3.24201167E-03  2.78749123E-03 -9.34216254E-04 -5.20417132E-02  4.48009360E-02
 -1.48983311E-02  6.02598404E-02 -5.22736868E-02  1.70320351E-02  1.11951928E-01
 -9.38423365E-02  3.56562511E-02  8.32129404E-02  2.49823043E-01 -3.77894739E-03
  6.47131113E-01  1.60618398E-01 -6.94090335E-02 -2.08011676E-01  3.47708580E-03
 -5.39038977E-01 -1.33729217E-01  4.07350901E-03 -1.08079177E-03  1.55956515E-01
  1.56996758E-01 -7.66296747E-02  2.37836809E-01 -3.27490726E-01 -3.12827162E-01
  2.06721120E-01 -2.27127515E+00 -3.03880623E-01  3.07258523E-02  1.06562768E+00
  7.18920849E+00 -6.24784699E-01 -6.83659212E-01  1.58458659E-01 -5.17435993E-02
  2.45960771E-02 -1.62119707E-02  3.80313124E-03 -2.68478418E-02 -2.18252430E-02
  6.64034727E-03 -1.93795419E-01  1.15140674E-01 -4.67975847E-01  2.45030044E-04
  2.78015295E-03  3.16214069E-03  3.26734551E-02  7.87555908E-02 -1.90791827E-01
 -1.29758004E-01 -8.23022087E-02  1.95230818E-01  2.59987301E+00 -7.81073546E-01
 -8.84519185E-01  1.15551870E-01 -4.33660551E+00 -6.40913195E-02 -4.42523554E-01
 -9.98241916E-01  3.27522671E-02  3.97930195E-03  3.36664137E-02 -9.61409561E-03
  1.63592727E-02  1.58567470E-01 -2.20106689E-01 -6.92023120E-02  8.33091980E-03
  2.23312320E-01  4.25536195E-04  1.50651677E-03 -5.55291300E-03  1.68656193E-03
 -1.02418444E-02  2.35779648E-02 -2.06315667E+00  4.35724325E-02  1.59745028E-01
  2.94076759E-01  2.16118192E-02 -2.02895926E-02 -1.25177904E-01 -5.12736647E-03
  5.39164148E-03  3.12728618E-02 -9.24821558E-02  8.13378757E-02  5.20718153E-01
  1.23370407E-01 -9.74064298E-02 -6.64393069E-01 -3.80268932E-02  1.75958533E-01
  6.02500204E-01  3.86796956E-01  1.23700811E-01  2.76163023E-01 -1.05821212E-02
 -3.43913845E-01 -2.78273538E-01 -1.33989568E-01 -2.39849032E-01  1.63680757E-02
  2.80857991E-01  2.74022241E-04  1.01061667E-03 -4.00435876E-03  3.24013624E-03
 -9.74283448E-02  9.51681594E-01 -3.64156060E+00 -3.27379603E-01 -4.90343138E-01
 -2.77277987E-01  1.50532522E-01  1.99969510E-01  5.80487771E-02 -3.74047847E-02
 -4.98894901E-02 -1.49698770E-02 -6.38645072E-01 -8.48078066E-01 -2.45438742E-01
  9.24492201E-01  1.23153805E+00  3.65824454E-01 -4.72563827E-01 -6.45710979E-01
 -2.31087639E-01 -1.93973595E-01  1.77495965E-01  2.53371376E-01 -1.47428585E-01
  4.26623588E-01  1.06825930E-01 -1.19194614E-01 -1.68484384E-01  9.10915624E-02
 -2.42290516E-01  3.20165130E-03  5.50945868E-03  7.75356033E-03  1.00372118E-03
 -2.23123468E-02 -2.43637261E-02  1.67498866E-02  5.95347156E-03 -3.78970846E-02
 -2.99047363E-01 -5.98969555E-02 -8.20793845E-02 -3.01821831E-02 -2.58202871E-01
  3.94917747E-02  9.41712039E-03 -1.01992357E-01  4.49561011E-03 -2.00296694E-03
  1.32359078E-03 -2.27752289E-04  1.71078232E-03  1.31074279E-01 -7.99727428E-02
  3.92935614E-03  6.74946137E-03  2.83923405E-02 -3.33339543E-04 -1.01098889E-03
  2.54930594E-03  4.21253516E-03 -1.78862387E-02  7.57785540E-02  2.30179285E+00
 -4.01846176E-01 -4.09986627E-01  1.82378903E-01 -2.30383651E-02  4.04504675E-03
  8.54943838E-02  6.30893278E-03 -5.17733769E-04 -2.18050878E-02  9.30718372E-02
 -1.98312885E-02 -3.54893018E-01 -9.47647166E-02  4.61069935E-02  4.31941923E-01
 -1.40201518E-02 -1.39700351E-01 -3.35144537E-01  8.61889897E-02 -3.03499761E-02
  1.50548475E-02  4.97713007E-03 -1.74759492E-02 -7.26363225E-02  1.09940402E-02
 -3.50136709E-02  4.16175001E-03  3.08500738E-03 -6.55114974E-03 -1.76291429E-02
  2.97492504E-02  9.25321620E-02  1.55770420E-01  2.79010811E-01  1.79443189E-01
  2.43929181E-02 -5.13420294E-01  2.24100389E+00  1.11908493E+00  1.40770729E+00
  2.15833881E-01 -2.69210136E+00 -1.17403714E-01 -8.74507839E-01 -2.00275156E+00
  3.59669033E-02  3.24436505E-04  2.05065455E-02 -1.89940418E-03 -1.09325207E-02
 -1.57217552E-01 -1.18050911E-01 -1.76724330E-01  1.92494954E-02  1.84685497E-01
 -1.24820202E-03 -5.82343271E-03 -8.10578468E-02 -1.13867110E-01 -4.77976102E-02
  6.61240795E-02  2.64628081E-01  2.87875288E-01 -7.17549755E-02 -9.28213945E-01
  7.30913499E-01 -2.13737480E-01 -2.94447724E+00  2.56379219E+00  9.20821843E-01
  1.45373463E+00  9.83040136E-01 -4.90158576E-02  2.46353695E-02 -6.28154680E-03
 -1.53150366E-03 -6.64436932E-03 -2.05768353E-02  5.01672562E-01  5.33792569E-01
 -1.49710893E-01 -1.51493096E-01  3.37982021E-04  9.93254988E-04 -2.41083840E-03
 -3.78019413E-03  4.89322209E-03 -3.97823326E-01  3.36959336E+00  1.10694124E-01
 -9.21753916E-02 -6.09450484E-01 -2.13836187E-02  1.18736133E-02  1.01312929E-01
  5.34301020E-03 -3.56216638E-03 -2.69374874E-02  8.93765879E-02 -4.48146758E-02
 -4.10334921E-01 -1.33895172E-01  3.40144403E-02  5.24621965E-01  1.04386517E-01
 -8.78975100E-02 -5.76094663E-01 -3.54952236E-01  3.24336191E-01  1.59866094E-02
  5.08443029E-03 -3.37617336E-01  3.69958121E-01 -2.78362056E-01  2.21407993E-02
 -7.24089763E-03  2.68205328E-01 -4.66450829E-04 -1.45828829E-03  4.09839671E-03
  4.00853927E-03 -3.27293631E-02  4.37101054E-01 -6.23863817E-02  1.40826715E-02
  3.55711470E-02  5.17240651E-02  1.76588596E-02  2.19954425E-02  3.06493108E-03
 -4.63209686E-03 -5.93128197E-03 -1.24073014E-03 -7.49631162E-02 -9.14543998E-02
 -7.79109965E-03  1.27557102E-01  1.50864675E-01 -1.37743208E-04  2.97129196E-02
  5.09687023E-02  4.28212456E-02  1.44769405E-02 -3.80098387E-02  2.37878127E-03
 -1.16036135E-02  9.54194362E-02 -3.15141851E-02  8.50125927E-03 -4.55703607E-02
  2.22664659E-02 -8.50283734E-02 -1.33307287E-02 -2.76526228E-02 -1.85615546E-02
 -1.68818801E-02  1.40542248E-02  2.66667874E-01 -3.55340258E-02 -3.05193043E-02
  3.18037401E-02 -1.05661770E+00  2.73392483E-01  1.73918720E-01 -4.10662242E-01
 -1.31481308E+00 -1.69101063E-02 -1.89330763E-01 -4.61145821E-01 -3.63770706E-03
  4.38039642E-03  5.69448099E-03 -2.95539716E-03  7.16366708E-03 -1.55878056E-01
  2.53193644E-01  3.01913652E-01 -1.38117994E-01  2.53048638E-01 -5.68543024E-04
 -1.56686867E-03  2.77132943E-03  1.14264960E-02 -5.08311045E-02  4.31788264E-01
 -3.01539166E+00  3.60020509E-01  4.17874701E-01 -2.54969891E-02 -5.85125449E-02
 -8.37254431E-02 -3.86890723E-02  1.59663410E-02  2.24038972E-02  9.35760029E-03
  2.35982143E-01  3.39493378E-01  1.60966073E-01 -2.87663184E-01 -4.15211666E-01
 -1.99906444E-01  2.16874607E-01  4.07270446E-01  4.07977003E-01  2.76751991E-01
  1.30179238E-01  4.81693397E-01 -1.66449935E-01  3.38481050E-01 -1.45929583E-01
 -1.18317482E-01 -3.86720855E-01  1.50910662E-01 -3.60091292E-01 -4.37176057E-06
 -1.25183969E-05  2.22966610E-02 -1.87138901E-02  6.97862901E-03  2.12498881E-04
 -4.21547156E-02  3.56271914E-02 -1.34313992E-02  1.43736549E-03  2.42788613E-01
 -2.02892190E-01  7.50516695E-02 -1.27037564E-03  3.82488067E-03 -3.43161543E-03
 -1.33706727E-04 -1.06859268E-02 -2.53540847E-02  8.21119452E-03 -4.08845286E-02
 -1.33166362E-02 -8.59846567E-02 -2.19451712E-01  4.67775120E-02 -4.30819299E-01
 -1.24438000E-01 -4.22915646E-07 -3.53988968E-06 -7.59371351E-02  6.38540553E-02
 -2.35047511E-02  5.25262451E-05  1.05601970E-01 -8.85970988E-02  3.25875550E-02
 -5.81474272E-04 -6.79966172E-02  5.73898851E-02 -2.32632311E-02  1.30457881E-03
  6.05290824E-03 -3.45895201E-03  2.16975698E-03 -1.72190441E-02 -2.61921096E-02
  3.03228294E-02  2.79160264E-02 -5.25905564E-03  1.64862870E-01  3.20733052E-01
 -2.08429480E-01  1.78652971E-01  1.27122563E-01  9.55568147E-08  2.72929153E-07
 -6.54654491E-07 -7.94847752E-07 -3.22011254E-06 -2.98865812E-04  2.11902995E-03
  7.45950305E-02 -6.28860061E-02  2.26654636E-02  3.41268543E-02 -2.87485463E-02
  1.06219522E-02 -8.31033824E-03  7.00037435E-03 -2.58800138E-03 -1.45222041E-01
  1.22337462E-01 -4.51885744E-02  1.90846371E-01 -1.60794661E-01  5.93955800E-02
 -1.38883080E-01  1.17001763E-01 -4.33537734E-02  8.07123182E-03 -7.10815960E-03
 -3.84247994E-02 -1.42955460E-01 -2.00533211E-02 -2.52446407E-02 -2.55453964E-02
  6.11054048E-02  1.29144973E-01  7.54738381E-03 -1.53688305E-07 -4.99504564E-07
  1.56348676E-06  7.19965116E-07 -2.03482124E-05  3.66912657E-04  1.64379373E-04
 -3.90478772E-02  3.29678945E-02 -1.20418994E-02 -5.89055418E-02  4.96678210E-02
 -1.82249657E-02  1.46742009E-02 -1.23732471E-02  4.54006764E-03  2.51234823E-01
 -2.11837244E-01  7.77320514E-02 -3.17418821E-01  2.67719392E-01 -9.82126800E-02
 -5.11464470E-02  4.31211170E-02 -1.57890446E-02  1.36968847E-01  3.73168399E-01
 -4.66936088E-02  8.39441946E-01  2.24877748E-01 -1.26782500E-01 -3.47161272E-01
  4.10936885E-02 -7.88395673E-01 -2.10087592E-01 -8.59026664E-06 -1.78852832E-05
 -8.22084746E-03  6.90524438E-03 -2.53156102E-03  1.76029256E-04 -1.65005592E-02
  1.38581472E-02 -5.08251435E-03 -8.13641952E-04  1.64975939E-01 -1.38731047E-01
  5.06617173E-02 -9.57261688E-04  3.15145420E-02 -2.67149300E-02  9.43700902E-03
  1.87888739E-03  3.29501900E-03 -2.81397056E-03 -3.25511905E-04  1.05115426E-03
  1.12266064E-01  1.97775123E-01 -1.66997082E-01 -1.32715684E-02  6.37335501E-02
 -3.36618004E-07 -9.18283422E-07  1.54439682E-06  7.16464557E-06 -4.70240483E-05
  4.51531321E-04 -2.21866813E-03 -6.42929510E-02  5.47020812E-02 -1.99531948E-02
 -4.35514420E-02  3.65756871E-02 -1.34753226E-02  1.07070463E-02 -8.98986238E-03
  3.31223778E-03  1.85773122E-01 -1.56032452E-01  5.74833947E-02 -2.37963250E-01
  1.99831715E-01 -7.36410032E-02  6.52162578E-02 -5.44662281E-02  2.03319343E-02
  2.40485291E-02 -1.67759006E-02 -1.05183114E-01 -3.83566586E-01 -5.16918540E-02
 -1.62598421E-02  3.09502201E-02  9.44696526E-02  3.86464287E-01  5.67271843E-02
  4.84309392E-07  1.57263836E-06 -1.44904146E-03  1.22261351E-03 -4.41737688E-04
 -2.18133762E-05 -2.24681762E-02  1.89042953E-02 -6.95374524E-03  1.00375015E-06
  4.25863229E-01 -3.58836769E-01  1.31759851E-01  1.29921463E-03  8.51268211E-02
 -7.14366789E-02  2.59655676E-02  2.40361776E-03  9.76720893E-03  2.97699300E-03
  3.54565724E-02  7.51016271E-03  1.12331062E-01  1.99621210E-01 -1.64589115E-01
  5.50494555E-04  6.58327710E-02  8.36971418E-09  1.97754858E-07  1.05380859E-01
 -8.87646026E-02  3.25985815E-02  3.33455369E-06 -8.83090611E-02  7.43443973E-02
 -2.73045694E-02 -3.14259228E-05 -2.87784516E-01  2.42533839E-01 -8.90282961E-02
 -1.28898519E-03 -1.61082111E-01  1.35958461E-01 -5.00616574E-02 -9.56012638E-03
 -1.64705067E-02  1.46296657E-02  3.29196647E-03 -5.03034572E-03 -6.64524293E-02
 -1.63866947E-01  4.32656743E-02 -2.95342893E-01 -8.97976763E-02  4.03126747E-08
  1.29005928E-07 -3.79925375E-07 -3.48514528E-07  9.35178429E-06 -6.64667882E-05
  5.10516706E-05 -2.98982419E-03  2.45800774E-03 -9.11241783E-04 -2.82235480E-02
  2.37755961E-02 -8.72247429E-03  7.03765194E-03 -5.92842762E-03  2.17497122E-03
  1.22253827E-01 -1.02988604E-01  3.77813811E-02 -1.55282540E-01  1.30817123E-01
 -4.79696282E-02 -1.46322077E-01  1.23334377E-01 -4.52660124E-02 -2.83685967E-01
 -5.12863143E-01  4.05749743E-01 -5.64324099E-02 -1.75893743E-01  2.70611766E-01
  4.89339596E-01 -3.86965793E-01  5.44116076E-02  1.67895494E-01  1.67922241E-07
  4.95877837E-07 -1.14012689E-06 -2.58037302E-06  1.06277806E-05  4.87836831E-06
 -1.86320675E-04  6.74689467E-02 -5.69109349E-02  2.08820112E-02  1.87984930E-02
 -1.58322684E-02  5.80630331E-03 -4.50457729E-03  3.79389023E-03 -1.39118854E-03
 -7.98299896E-02  6.72315250E-02 -2.46580637E-02  1.09978575E-01 -9.26041826E-02
  3.39781628E-02 -2.05937452E-01  1.73469354E-01 -6.36618359E-02  7.09065932E-02
  1.71610950E-01 -5.00467871E-02  2.94314055E-01  9.22479194E-02 -6.31751619E-02
 -1.49094555E-01  4.90793773E-02 -2.37734374E-01 -7.79610827E-02  1.45003389E-07
  2.62223387E-07 -5.48607131E-04  4.65451936E-04 -1.71368591E-04 -1.16221490E-06
  2.29052467E-03 -1.92462314E-03  7.04652539E-04 -1.83176029E-05 -4.46448695E-02
  3.75735748E-02 -1.38068457E-02  2.16790817E-05  9.45421222E-02 -7.96676421E-02
  2.92560742E-02 -3.11713767E-04 -2.63108385E-04  8.03123121E-04  1.88401956E-03
  1.41445532E-04 -2.62255103E-02 -3.22852374E-02  5.54670468E-02  9.26931333E-02
  5.84089723E-04  6.37645151E-08  1.86554601E-07 -4.29324548E-07 -8.44840328E-07
 -2.93791775E-07 -1.19911384E-06  1.53617200E-04  4.66179437E-02 -3.93278302E-02
  1.44597016E-02  3.66630670E-02 -3.08876771E-02  1.13482107E-02 -9.13145875E-03
  7.69282385E-03 -2.82653306E-03 -1.58249668E-01  1.33324493E-01 -4.89818713E-02
  2.00507691E-01 -1.68937193E-01  6.20617693E-02  1.05280332E-01 -8.87506487E-02
  3.25389061E-02  6.24974778E-02  2.15428783E-01  3.23485651E-02  6.75299293E-01
  1.52819273E-01 -6.24311162E-02 -2.12639891E-01 -2.92850919E-02 -6.58059245E-01
 -1.49803730E-01  7.49647772E-04  2.27485997E-03 -4.36115591E-02 -7.63960302E-02
 -6.70387504E-02 -5.83152324E-02  3.84138479E-02  8.66928929E-02  1.11895848E-01
  7.62845501E-03 -2.45410804E-01 -5.88717301E-01 -8.10271119E-01  1.77637325E+00
  5.66362380E-01  6.34270100E-01 -1.03193034E-01 -1.43556618E-03  6.62454556E-04
  4.65165845E-03 -3.03995093E-03  1.20301656E-02  4.52275518E-01 -1.47940469E-01
  3.60845341E-02  5.63689044E-02 -2.33136428E-01 -7.51917141E-03 -1.88936975E-02
  1.78960586E-02  2.09395137E-02 -8.03255052E-04  2.25310103E-01 -7.09974975E-03
 -8.69168717E-02 -2.13803324E-01 -3.37143210E-01 -1.40640482E-01 -7.90987481E-02
  2.39352205E-01 -1.36006689E+00  7.46593774E-01  7.78763030E-01 -2.92179788E-01
 -1.08728118E-01  3.14222635E-02 -2.02977261E-02 -7.92801641E-03  3.94602815E-02
  6.81509248E-01 -2.73259992E-01 -3.68415533E-02  1.22490099E-01 -4.26660685E-01
 -6.87830579E-04 -1.94408921E-03  3.75673814E-03  1.31787276E-02 -4.83892050E-02
  1.99861972E-01 -2.42786065E-01 -2.48884982E-01 -2.77180008E-01  4.97002316E-02
 -3.61056336E-02 -4.83919605E-02 -1.50300616E-02  8.88437223E-03  1.22035699E-02
  4.50443110E-03  1.52368627E-01  2.00026167E-01  5.20049935E-02 -2.03489550E-01
 -2.42378347E-01 -2.01386555E-03  3.74431898E-01  4.52296840E-01  2.13682994E-02
  2.02978671E-02  3.60638065E-01  5.28911037E-01 -1.86532907E-01  1.95613196E-01
 -1.08141736E-01 -3.15211483E-01 -5.15448433E-01  1.69152015E-01 -1.49830675E-01
  4.91399931E-04  1.31356604E-03 -1.84873134E-03 -1.22042979E-02  5.93108723E-02
 -3.29065490E-01  8.10853605E-01  1.70995008E-01  1.36128428E-01 -1.82101348E-01
 -8.97117021E-03 -2.39653583E-02 -3.63060932E-02  2.26998895E-03  6.12856424E-03
  9.36161636E-03  3.72354256E-02  9.77482949E-02  1.46008853E-01 -4.17190629E-02
 -1.12355517E-01 -1.71363718E-01 -1.34519438E-01  2.65566403E-02  5.07372892E-01
 -4.83220932E-01 -2.09096841E-01 -5.60242097E-01  1.25420372E-01  5.66378783E-02
  4.16192634E-01  2.40590509E-01  5.62258168E-01 -1.34789898E-01 -3.27271620E-02
 -7.25940948E-03 -1.44737147E-02 -6.77612589E-04  5.46415175E-03  1.70719708E-02
  1.39712037E-01 -8.81570891E-03 -9.11176459E-03  3.67947455E-03 -6.84228129E-01
  7.73124312E-03 -1.36623749E-01 -3.97115881E-01  2.99308873E-01 -8.55358760E-02
 -4.94831096E-02  1.41707103E-01 -3.89625698E-03  4.05478945E-05 -2.36136579E-03
  3.20699739E-04  6.16753244E-04 -1.69538073E-01 -5.18950621E-02 -1.63514944E-01
  3.15787205E-02  3.74834858E-02  5.86792845E-04  1.71792730E-03 -3.94378141E-03
 -7.61671178E-03 -6.11977652E-02  6.58195210E-01 -1.09660784E+00  8.18331830E-02
  1.96525355E-01  2.70737836E-01 -4.77227545E-02 -5.13045938E-02  1.45325792E-02
  1.13003519E-02  1.18673949E-02 -4.20663272E-03  2.21823955E-01  2.45679888E-01
 -4.79211271E-02 -4.29172182E-01 -5.18151899E-01 -2.39163448E-02  7.36881943E-02
 -1.12950962E-02 -2.69076731E-01  3.32293641E-02 -1.51223464E-01 -1.30615620E-01
  3.44053593E-02  7.49772069E-02 -9.59553296E-02  2.02352617E-01  2.08693392E-01
 -8.20317789E-02  7.24486642E-02  1.92026818E-03  1.80223391E-03  6.75092900E-02
  6.56442940E-02 -3.97074508E-02  6.52183792E-02 -4.70973925E-02 -3.59984836E-02
  5.44502344E-02 -2.92308809E-01 -4.23081160E-01 -6.82916672E-01 -4.92661182E-01
  5.04087105E-01  3.82708028E-01  9.36636248E-01  1.31444955E+00  6.78206287E-02
 -4.58276901E-02 -3.56793492E-02  2.50030811E-02 -6.60924717E-02 -1.28224095E+00
  3.86903287E-01 -1.60505461E-01 -1.36050409E-01  6.13366138E-01 -3.20032071E-03
 -4.43718150E-03 -2.06845479E-02 -2.86609240E-03  5.88309017E-02 -1.89780254E-01
 -1.28073080E-01 -2.99625090E-01 -4.01791054E-01  1.92002646E+00  2.61716127E-01
 -1.84210567E-01 -1.34770509E+00 -2.06321165E+00 -9.37095773E-01 -1.33519363E+00
 -6.07553888E-01 -8.35177826E-02  1.48207336E-02 -1.42864474E-02 -1.03060429E-02
  6.18323743E-02 -4.97831884E-01  1.87458336E-01  1.28878759E-01 -1.56628848E-01
  6.04343442E-01  1.68413552E-03  5.10307185E-03 -1.30589711E-02 -1.83872851E-02
 -7.76310567E-02  1.28975314E+00 -1.90093252E+00 -7.65862306E-02  5.40628804E-02
  3.94800086E-01  5.47836478E-02  1.66394533E-02 -1.31835952E-01 -1.39443048E-02
 -5.55038083E-03  2.99738425E-02 -2.36089401E-01 -5.05799665E-02  6.25700304E-01
  3.33864630E-01 -7.98144404E-02 -1.29708440E+00 -5.11850596E-02 -5.02358965E-02
  2.87217475E-02 -5.67786816E-02  1.34780776E-01  1.97269415E-01 -8.83940281E-02
  1.81788916E-01  3.65607195E-01 -1.67220269E-01 -2.72676793E-02  6.27314101E-02
 -1.84838521E-01 -6.74801313E-04 -2.01121647E-03  4.96073230E-03  7.06777580E-03
  1.01387309E-01 -1.07931988E+00  1.07079205E+00  1.54349700E-01  2.00248741E-01
  4.61391755E-02 -2.70925568E-02 -6.52847052E-02 -9.02959299E-02  6.29442924E-03
  1.50371279E-02  2.06248775E-02  1.36584170E-01  3.14648309E-01  4.15731506E-01
 -3.53350631E-01 -6.82360006E-01 -7.16557778E-01 -3.64856911E-02 -4.71266807E-02
 -1.02194106E-02 -9.11409759E-03  2.05117904E-01  1.40032306E-01 -1.32941278E-02
 -2.56004244E-01  1.52487121E-03 -3.35578471E-01 -3.59138140E-01  9.77638213E-02
  1.16221265E-01 -1.41475665E-02 -2.94996985E-02  3.30006402E-03  1.37584374E-02
  2.67992011E-02  2.91775212E-01  1.12422903E-02  3.96232659E-02  7.15589161E-02
 -6.56385137E-01  4.33939086E-02 -1.24017607E-01 -4.77804273E-01 -1.43855565E+00
  1.62678662E-01  2.37054502E-02 -4.61332182E-01 -1.29813474E-03  1.42775727E-03
  9.23969331E-04 -4.25044915E-04  2.02469629E-04 -1.45591577E-01  1.51301622E-01
  6.37211620E-02 -2.63766084E-02 -5.06373988E-02 -2.67030835E-03 -8.11978494E-03
  2.06879677E-02  3.34271002E-02 -1.25798161E-01 -4.78299496E-01  2.86005321E+00
 -3.16816084E-01 -4.47202786E-01 -1.93868844E-01  1.20007531E-02  4.64081076E-02
  8.75391454E-02 -1.48016395E-03 -9.46237280E-03 -2.09715561E-02 -6.90082821E-02
 -2.24638681E-01 -3.88470154E-01  2.78322166E-01  5.49588670E-01  5.96793408E-01
 -3.49173817E-01 -3.97200042E-01  4.69512667E-02  3.91476759E-01  2.42046433E-01
  3.07115673E-01  1.51689140E-02 -6.33617251E-01 -3.25987057E-01 -3.18531707E-01
 -4.18725828E-01  4.45637035E-02  4.74471118E-01  2.16241794E-03  6.24499382E-03
  2.25913782E-02  2.30834268E-02 -1.02963494E-02 -1.05189467E-01  1.21266418E-01
  2.62990536E-01  3.24429628E-01 -8.19612888E-01 -1.88915896E-02  4.61815777E-01
  1.31868596E+00 -2.49199900E-01  5.87882362E-01  1.13552225E+00  1.19270987E+00
 -1.57172079E-01  7.06642791E-02  1.89806493E-02 -3.18869979E-02  1.01485563E-01
  1.65997143E-01 -1.99058019E-01 -1.67876861E-01  7.87513752E-02 -9.95926956E-02
  1.57596115E-02  4.06192606E-02 -5.30150433E-02  2.43493467E-02  2.37733204E-01
 -4.53540016E-01  1.31908057E-01  2.80513695E-01  3.37596236E-01  4.66691042E-01
  1.63357156E-01  6.53736323E-01  1.25243670E+00  1.20676545E+00  8.15467989E-01
  9.35685894E-01 -8.77494642E-02  2.22521322E-01 -6.62812736E-02  3.69089056E-02
  1.83541297E-02 -8.64110866E-02 -9.29126305E-01  1.22620259E-01 -2.79061383E-01
 -5.65007160E-02  5.15551300E-01  1.54069331E-03  4.67250174E-03 -1.16033877E-02
 -2.28116691E-02  2.29825209E-01 -8.93460769E-01 -1.84895883E+00 -8.61834594E-02
  1.68078428E-02  3.24366074E-01  2.65211750E-02  4.61745766E-02  4.00176267E-02
 -7.42437052E-03 -1.23274353E-02 -9.57236297E-03 -1.08587373E-01 -2.01345561E-01
 -1.97320496E-01  1.05332009E-01  2.68793665E-01  3.91549246E-01 -7.13425917E-02
  1.17569372E-01  5.51041687E-01  2.18579868E-01  1.52659139E-01  3.23805043E-01
 -7.86645382E-02 -2.55013637E-02 -3.01379957E-01 -1.38586159E-01 -3.64592493E-01
  8.45671398E-02  2.20489439E-02 -1.50803732E-03 -4.65517442E-03  1.22052167E-02
  2.02031917E-02 -2.35305326E-01  8.62106310E-01  3.09391605E+00  3.98573658E-01
  4.90664435E-01  4.78331286E-02  3.75001407E-02  3.57871286E-02 -2.37614366E-02
 -8.77530419E-03 -8.52840455E-03  5.14112637E-03 -1.80761566E-01 -1.78210131E-01
  9.89922109E-02  3.32940207E-01  3.54655867E-01 -1.10363031E-01  4.74922451E-01
  6.52115496E-01  2.40902660E-01  3.34230260E-01 -1.69697629E-01 -1.70375940E-01
  1.40578414E-01 -4.82289627E-01 -4.09138995E-01  1.82177259E-01  1.77844397E-01
 -1.62592455E-01  5.90983684E-01  1.62078805E-02  3.23487298E-02 -1.81909793E-03
 -2.05731460E-02 -5.01591389E-02 -3.05756181E-01  9.19234580E-03 -1.22900751E-02
 -6.32001122E-02  1.37838131E+00 -1.06929478E-01  2.19665935E-01  9.44029410E-01
  1.09267257E+00 -1.02351635E-01 -7.47656593E-03  3.10457525E-01  1.50349513E-02
 -3.08058380E-03  5.84874452E-03 -3.08218411E-04 -1.67753569E-03  5.02049621E-01
 -1.19371765E-01  1.54184226E-01  8.90696249E-03 -1.08854908E-01  7.59449323E-04
  2.44871571E-03 -7.19748120E-03 -8.15483627E-03  2.02114884E-01 -1.11971900E+00
 -2.53930775E+00  2.13448965E-01  3.73352496E-01  3.26941366E-01  6.88571558E-03
  4.31786780E-02  9.53391018E-02 -1.03301217E-03 -1.00129456E-02 -2.39308888E-02
 -5.48867692E-02 -2.21197587E-01 -4.25014098E-01  2.47899604E-01  5.28937879E-01
  6.39251338E-01  4.95403910E-01  5.46774953E-01 -1.12158453E-01 -1.14005688E-01
  1.82290353E-01  2.23875210E-01 -1.04074572E-01  2.02124522E-01  1.76560416E-01
 -2.86245030E-01 -3.63355966E-01  1.69964863E-01 -3.42729005E-01  4.01316577E-03
  1.38597585E-02  2.85329707E-02  7.68010592E-02  1.15878485E-01 -4.99641961E-01
 -1.04078528E-01 -5.62157882E-02  1.84693903E-01  6.64496772E+00  2.50973101E+00
  2.38966447E+00 -1.60368994E+00  3.73823535E+00  7.26767027E-01  1.17694922E+00
  8.57201683E-01 -3.53503183E-02 -1.45410937E-02 -1.55567146E-02 -6.06361183E-03
  6.53603749E-02 -2.57192168E-01  3.84297376E-01  5.03388705E-01 -2.43726334E-01
  5.33787514E-01  1.40897522E-03 -3.71046632E-03  1.02601907E-01  9.49366947E-02
 -7.45727702E-02  3.61594350E-01 -1.90195637E-01 -1.30572831E-01  2.61019677E-01
 -5.97493523E+00  2.22375023E+00  1.72296265E+00 -2.49581101E+00 -3.12389747E+00
  5.17928838E-01  3.37227219E-01 -7.55518628E-01  6.57820277E-02  1.06891345E-02
  7.76166960E-02 -2.45331489E-02  4.99231087E-02 -9.54056725E-01  3.39343935E-01
 -1.24039046E-01 -7.92389354E-02  2.88191372E-01  9.46099322E-04  2.89185450E-03
 -7.40914399E-03 -1.31017448E-02  1.22773293E-01 -2.92789313E-01 -2.23176476E+00
 -7.70857302E-02  8.42874912E-02  4.78593276E-01 -7.27142662E-02 -7.00308025E-02
  4.42304595E-02  1.75393452E-02  1.65941650E-02 -1.14799237E-02  3.30624782E-01
  3.18478622E-01 -2.00970495E-01 -5.00481456E-01 -4.87194749E-01  2.90388617E-01
 -2.62351820E-01 -1.50808952E-01  4.37485456E-01  4.69034800E-01 -4.52149668E-01
 -2.61759651E-01  1.32408018E-01 -8.45371408E-02 -5.52169451E-01  6.19282820E-01
  4.15165780E-01 -1.89698068E-01  1.03615338E-01 -3.18525450E-03 -9.74337932E-03
  2.54916063E-02  3.67159641E-02 -1.32051710E-01 -7.46743024E-02  1.42378888E+00
  1.73920763E-01  2.09858235E-01  9.05000247E-03 -5.37740755E-02 -3.86987700E-02
  6.84264767E-02  1.18879537E-02  7.02702710E-03 -1.92896050E-02  2.59136472E-01
  2.03591276E-01 -2.83168162E-01 -5.07118442E-01 -5.05327269E-01  2.63007291E-01
  4.04560878E-02  1.62445330E-01  3.11539161E-01 -3.15835578E-01 -1.99965222E-01
 -4.02840794E-01  8.12043127E-02  1.37680394E-01  4.60221097E-01  1.37233357E-01
  3.39517492E-01 -2.29132385E-02 -3.52352744E-01 -8.89106571E-03 -1.80542191E-02
 -5.29851720E-05  9.28519417E-04  2.71401932E-03  1.38386401E-01 -1.28848242E-02
  8.07997587E-03  6.36955424E-02  3.86433803E-01  8.84814161E-03  1.46516876E-01
  3.70065806E-01  5.74181469E-02 -2.75244311E-01 -3.07812237E-01  5.13701574E-02
  1.38870937E-03  2.76759565E-03  3.61205715E-03 -7.96373159E-04 -1.72546345E-03
  1.16203404E-01  1.25666141E-01  1.96203469E-01 -4.02347876E-02 -8.88671035E-02
 -5.68478955E-04 -1.73355146E-03  4.44529148E-03  7.09169528E-03 -1.72593344E-03
 -4.36332072E-01  5.27496600E-02  8.18283400E-03 -2.47813657E-02 -9.42105504E-02
  7.91146533E-03  2.34875400E-02  3.82774042E-02 -1.82214228E-03 -5.44466914E-03
 -8.90942693E-03 -3.78220258E-02 -1.12283257E-01 -1.83030647E-01  1.18896714E-01
  2.68909183E-01  3.47382096E-01 -1.32839242E-01  3.85103389E-03  4.40300255E-01
  2.02548085E-01  1.91665538E-01  3.24332313E-01 -6.92845761E-02 -1.15733882E-01
 -2.10919266E-01 -2.88334413E-01 -4.58036571E-01  1.13483069E-01  8.85877422E-02
  2.62181267E-07 -1.78878572E-07 -7.06894902E-01  5.95580637E-01 -2.18768232E-01
  8.91589050E-05  9.18586655E-01 -7.73974431E-01  2.84121067E-01 -2.14471767E-03
 -3.65656867E-01  3.06586494E-01 -1.12705987E-01 -1.38995225E-03  5.09221810E-01
 -4.30453821E-01  1.56646329E-01 -9.44488332E-03 -5.93249825E-04  3.31666767E-02
  1.04920351E-01  1.24712584E-02  4.75189985E-02  8.31222953E-02 -7.02112509E-02
 -3.90200227E-03  2.67118017E-02 -1.00214856E-06  5.36980918E-07 -5.49297032E-01
  4.62806253E-01 -1.69893762E-01 -9.53715737E-05  6.98142460E-01 -5.88135270E-01
  2.15892997E-01  1.61685039E-03 -3.12742536E-01  2.62600877E-01 -9.55217457E-02
  1.63335197E-03 -9.98376044E-02  8.45625574E-02 -3.03590117E-02  5.58282737E-02
  9.06608733E-02 -9.20751257E-02 -5.53415466E-02  2.31461323E-02 -1.80767906E-01
 -2.91290617E-01  3.02553693E-01  2.00584825E-01 -7.19024505E-02 -1.43011008E-06
 -4.37866261E-06  1.14377659E-05  1.74866491E-05 -1.09591879E-04  1.87094564E-04
  1.76323128E-03 -2.30228098E-01  1.94028058E-01 -7.15999221E-02 -4.66999867E-02
  3.93959005E-02 -1.44765598E-02  1.17149777E-02 -9.88186370E-03  3.63300203E-03
  2.05464314E-01 -1.73340652E-01  6.36847119E-02 -2.61962721E-01  2.21079247E-01
 -8.11513474E-02  1.84344722E-01 -1.55225687E-01  5.66888836E-02 -4.29137833E-02
 -8.85320879E-02  4.73228980E-02 -8.33358463E-02 -3.92869286E-02  6.67428405E-02
  1.30786997E-01 -8.24362761E-02  8.30423588E-02  5.31950674E-02  1.37499249E-06
  4.22991074E-06 -1.12645011E-05 -1.51978649E-05  5.25421207E-05  6.14653197E-05
 -1.24449390E-03 -2.22660835E-01  1.87294917E-01 -6.88945713E-02 -2.46563908E-02
  2.08072132E-02 -7.64868502E-03  6.10803659E-03 -5.15290464E-03  1.89576589E-03
  1.07921256E-01 -9.10969713E-02  3.34726004E-02 -1.29962125E-01  1.09892115E-01
 -4.02773913E-02  1.41700083E-01 -1.19524243E-01  4.37650122E-02  3.24001521E-02
  5.96797944E-02 -4.46867117E-02  1.41784337E-02  2.13548729E-02 -3.60812447E-02
 -6.90399266E-02  4.65651386E-02 -3.32556967E-02 -2.66759905E-02  5.66989857E-06
  1.14883681E-05  1.06525984E-02 -8.97635857E-03  3.28595344E-03 -9.55950631E-05
  2.72983985E-02 -2.29951422E-02  8.40216891E-03 -5.07507440E-05 -2.45635507E-01
  2.06799844E-01 -7.60256184E-02  1.28768909E-04  9.47896074E-02 -7.96855713E-02
  2.92850894E-02 -1.20664116E-03 -2.83869635E-03  9.46756299E-04 -4.47225259E-03
 -1.47610814E-03 -1.30918462E-01 -2.55335011E-01  1.65008261E-01 -1.46151602E-01
 -1.01815770E-01  1.12286117E-06  3.44428548E-06 -9.07685304E-06 -1.29523698E-05
  4.35164035E-05  1.92069418E-04 -7.67883799E-04 -8.46513330E-02  7.15108414E-02
 -2.61335047E-02 -3.50865762E-02  2.95492826E-02 -1.08682843E-02  8.86079786E-03
 -7.46416902E-03  2.74442696E-03  1.54062303E-01 -1.29727934E-01  4.77280480E-02
 -1.94548888E-01  1.63637743E-01 -6.03128659E-02  1.57717991E-01 -1.32741008E-01
  4.86286790E-02 -7.18508435E-02 -1.27823351E-01  1.04858091E-01 -1.62961380E-03
 -4.22310298E-02  8.05477152E-02  1.48494876E-01 -1.11495659E-01  3.47070672E-02
  5.30951111E-02 -1.11817958E-02 -3.29929661E-02  2.37091559E-02  1.34681084E-01
  2.89641964E-01  7.59196832E-01  1.86318600E-01  1.24795156E-01 -2.61604765E-01
 -2.90380079E+00 -4.25064803E-01  6.36751156E-01  3.10784369E+00  9.47422670E-01
  7.04074156E-01  1.61769172E+00  2.13082322E+00 -1.08487974E-01  3.90440979E-02
 -1.03459824E-02 -1.11860776E-02  4.09578658E-02 -1.33174670E-01 -7.02194013E-02
 -2.63610398E-01  9.70397287E-02 -2.19346949E-01 -6.40146393E-03 -1.24927801E-02
 -5.96741195E-02 -1.88719550E-01 -3.21555203E-01 -1.47687928E-01  1.48143584E-01
  1.66307844E-01 -2.53261750E-02  4.01094586E+00 -1.22737747E+00 -1.74342173E+00
 -7.81587732E-01 -1.60030226E+00 -7.33321203E-01 -1.18313788E+00 -8.52177552E-01
 -1.01508177E-01 -6.76463720E-03 -5.46403277E-02  1.27918741E-03  5.70717896E-02
  9.13939215E-02  6.08513363E-01  9.01934854E-01 -3.03709579E-01  2.55747660E-01
  5.10296174E-03  1.56642883E-02 -4.13006977E-02 -6.08537073E-02  4.13647845E-01
 -1.25732053E+00 -3.30421983E+00 -1.91493112E-01  6.51789132E-03  6.36641411E-01
 -1.37971028E-02  1.84741212E-02  9.48563212E-02  4.49396165E-03 -5.42812646E-03
 -2.92967257E-02  5.48861548E-02 -8.07017882E-02 -3.96954814E-01 -5.09944250E-02
  1.08018452E-01  4.58678796E-01 -8.73182558E-03  2.55286890E-01  7.24081531E-01
  4.53383433E-01 -5.42651130E-02  2.24693439E-01 -2.48157943E-02 -4.66949271E-02
 -3.98269448E-01  1.06857264E-02 -2.40436641E-01  3.46545066E-02  4.54807012E-02
 -1.99053158E-03 -6.11705142E-03  1.60320861E-02  2.58202324E-02 -2.81550860E-01
  1.39947396E+00  2.20851913E+00  1.88754780E-01  2.91755956E-01  1.84127960E-01
  6.61681531E-02  7.96749381E-02  3.09816983E-03 -1.69091222E-02 -2.06261170E-02
 -1.51439475E-03 -3.09860339E-01 -3.73005369E-01 -1.42232596E-02  5.62131889E-01
  6.84055648E-01  4.59151451E-02  4.25682033E-01  4.86849226E-01 -5.00895372E-02
  2.69588917E-01 -4.45585922E-02  1.69218172E-02  5.25073202E-02 -2.82730582E-01
 -3.91127154E-01  6.10177162E-02 -1.96206505E-02 -8.05178741E-02  4.33504043E-01
 -1.95564643E-02 -3.92984801E-02 -1.78615463E-02 -4.28909416E-04  5.65740130E-02
  3.57803520E-01 -5.08802700E-02 -1.92508775E-02  1.12054005E-01 -1.26418873E+00
  5.13663073E-01  2.95187476E-01 -8.56591514E-01 -1.06376901E+00  1.20480796E-02
 -4.82933748E-02 -1.70494089E-01 -1.59395076E-02  8.45404832E-03  4.03390146E-04
 -1.82390457E-03  2.57063626E-03 -4.15706072E-01  3.94896993E-01  2.39568381E-01
 -1.24205652E-01  1.11231198E-01 -3.82669980E-03 -1.18699309E-02  3.25247146E-02
  3.85442097E-02 -1.60904022E-01  9.88959864E-02  1.99508317E+00 -2.01619880E-01
 -2.90256697E-01 -1.38804208E-01  2.76930651E-02  5.50988559E-03 -7.45576025E-02
 -3.45899800E-03  3.05405055E-03  1.95114325E-02 -1.56723244E-01 -6.56987891E-02
  3.27873465E-01  3.96764572E-01  3.22749767E-01 -4.03757689E-01 -1.66523333E-01
 -2.30149821E-01 -8.82037817E-02 -7.28976625E-02 -1.72631781E-01 -2.92702859E-01
  9.50362621E-02 -8.46672061E-02  2.66795246E-01  2.01041632E-01  3.55931066E-01
 -6.64740848E-02 -1.74198760E-01  1.67152862E-02  3.80732704E-02  1.19633945E-01
  1.08680851E-01 -9.05519369E-02 -5.36130548E-01 -2.63743470E-01 -2.74835850E-01
  1.03723490E-01 -4.00626619E-01  1.22012779E+00  1.92547146E+00  1.30019452E+00
 -2.99161423E+00  2.02715585E-02  4.73339538E-01  1.22342274E+00 -6.10682593E-02
  8.63627297E-02  9.19174527E-02 -4.26830763E-02  7.23809159E-02  1.43382566E+00
 -5.32774061E-01 -2.60158562E-02  2.41511650E-01 -8.96624959E-01 -9.67386430E-03
 -2.68589532E-02 -1.21558742E-01 -1.76080300E-01 -8.65132983E-02  4.72932390E-01
  3.09355236E-02  4.46269307E-02  2.13636238E-02 -1.42971155E+00 -1.07156536E+00
 -2.03244084E+00 -2.07150097E+00  1.80424082E+00 -1.13239957E+00 -1.33673503E+00
  1.95980893E-02 -1.09548963E-01  9.29412769E-02  1.51304038E-02 -7.35907585E-03
 -5.69730064E-02  1.53052101E+00 -1.19091678E+00 -8.12242630E-01  5.11215357E-01
 -1.03359857E+00 -2.40084833E-03 -7.24145730E-03  1.82325552E-02  3.00088871E-02
  2.41650730E-03 -1.36741333E+00 -7.25064671E-01  7.83651742E-02  1.10186604E-01
  4.68856182E-02  3.33648014E-03  2.39123964E-02  5.43894063E-02 -6.10317858E-04
 -4.35306795E-03 -9.89388627E-03 -1.39496077E-02 -1.31839415E-01 -3.14213843E-01
 -1.25202362E-02  3.50193174E-01  9.94690273E-01 -2.56489165E-01 -1.85349677E-01
  3.24429751E-01 -3.69591700E-02 -8.76293325E-02 -1.62627813E-01  5.68286750E-02
 -7.80062599E-02 -2.92777138E-01  9.84106522E-02 -2.68921267E-02 -3.32679426E-02
  1.33513681E-01 -2.77567921E-03 -8.48083602E-03  2.18008722E-02  3.87810452E-02
 -4.73514054E-01  2.44751628E+00  1.13161767E+00  5.74318288E-02  1.00987178E-01
  8.94280027E-02  9.44460145E-02  1.46066245E-01  9.25242172E-02 -2.56852028E-02
 -3.85494309E-02 -2.19653247E-02 -4.42697640E-01 -6.91014371E-01 -4.50992286E-01
  8.25479321E-01  1.30265079E+00  8.79417637E-01  3.85864296E-01  5.25461727E-01
  1.83599445E-01  1.64243936E-01 -1.45991266E-01 -1.68909054E-01  9.84175477E-02
 -2.60258647E-01 -2.10938590E-01  3.56248271E-01  4.70628310E-01 -2.20293076E-01
  4.57419405E-01 -1.23046799E-02 -2.48197359E-02  5.20074304E-03  1.75613377E-02
  3.10176128E-02  2.44443777E-01  2.90031198E-02  4.10421099E-02  1.80247679E-02
 -1.48825610E+00 -4.22268530E-01 -7.65782356E-01 -7.20780206E-01 -1.22697393E+00
  3.27173071E-01  2.91249670E-01 -2.64449217E-01 -4.20556631E-03 -5.49383690E-03
 -8.71026186E-03  2.09770894E-03  2.03875851E-03 -6.95026876E-02 -4.22834766E-01
 -5.32570733E-01  1.51459711E-01  6.80122533E-02 -3.72556435E-04 -1.11630019E-03
  2.37928804E-03  1.11188993E-02 -3.99052906E-01  3.06969904E+00  1.32538209E+00
 -9.36325369E-03 -7.15303988E-02 -1.64440906E-01 -1.41061189E-01 -1.67532864E-01
 -2.80171885E-04  3.43562046E-02  4.05503598E-02 -6.21797959E-04  6.89642734E-01
  8.27079485E-01  2.32168620E-02 -1.43745833E+00 -1.79373211E+00 -2.38608131E-01
 -5.03862171E-01 -6.46656236E-01 -1.32502739E-01  3.04620005E-01 -2.62322418E-02
  6.40328592E-02  4.05572633E-02 -2.80131656E-01 -6.50820540E-01  1.62218237E-01
  6.16851279E-02 -1.69582228E-01  7.73287694E-01 -2.01424408E-03  6.34466630E-03
 -1.87936144E-01 -1.77912677E-01  1.22325874E-01 -4.97750908E-01 -4.01863439E-02
 -1.34972704E-02  9.39603525E-02  1.88082566E+00 -6.40662070E-01 -3.26885076E-01
  1.18031814E+00 -4.96067315E-01  6.17986190E-01  9.52165325E-01  5.96088823E-01
 -6.37737522E-02 -1.00451405E-01 -1.55311823E-01  3.97807561E-02  2.47100140E-02
  8.80141118E-01 -2.06269627E-01  2.48250657E-01  3.02743340E-02 -2.55307771E-01
 -2.81290748E-02 -5.64856100E-02  2.12948897E-01  1.79176870E-01 -1.99645346E-01
  1.94620262E-01 -5.83993183E-02 -1.54633299E-01 -2.33378104E-01  3.44946546E+00
  7.03312045E-01  3.05313958E-01 -1.44148101E+00 -3.89439360E-01 -1.83260289E-01
 -4.01286933E-01 -5.00869961E-01 -1.13699575E-01 -9.19805715E-02 -2.13068232E-01
  6.37298318E-02 -6.03461907E-02  1.04563338E+00 -6.34676294E-01 -9.19102970E-02
  1.30522227E-01 -8.98083789E-02  2.11935129E-03  6.33454732E-03 -1.50191859E-02
 -3.57166519E-02  4.09815905E-01 -1.84684762E+00 -4.86370704E-01 -3.28151314E-02
 -4.11446329E-02 -6.09152412E-03  5.98302880E-03  6.01366749E-02  1.44473511E-01
 -1.16930089E-03 -1.50149760E-02 -3.71211946E-02 -2.55420347E-02 -2.86191005E-01
 -6.97034068E-01  1.76081328E-02  5.02202480E-01  1.31116086E+00 -3.86836772E-02
  1.37187980E-01  4.98955079E-01  2.70323027E-01 -4.63271264E-03  1.69933728E-01
 -2.66955984E-02 -2.18412156E-02 -5.79928843E-01  1.35041087E-02 -3.61943651E-01
  5.69905916E-02  4.26064807E-02  2.89078439E-03  8.79509588E-03 -2.25385211E-02
 -3.80106861E-02  2.47302650E-01 -4.83500358E-01  1.33604436E+00  1.01894002E-01
  2.11372460E-01  2.46083784E-01 -2.97384809E-02 -4.31860962E-02 -2.15293645E-02
  8.81786039E-03  1.32587243E-02  7.61719503E-03  1.30097349E-01  1.84048844E-01
  8.09041231E-02 -1.45362916E-01 -1.80008970E-01 -2.06108131E-02  4.04601100E-02
 -5.73767337E-02 -2.86854528E-01  2.72276089E-02  1.28210766E-01  2.00549831E-01
 -6.81054146E-02  6.66242617E-02 -2.85457927E-02 -8.11973004E-02 -1.43407021E-01
  4.98747682E-02 -6.39603354E-02 -2.79937522E-02 -5.74015451E-02 -4.03034621E-03
  1.53472320E-02  5.48225710E-02  5.67751164E-01  2.95439475E-02  7.14252282E-02
  9.90153234E-02 -2.16312065E+00 -2.48029821E-01 -7.64433222E-01 -1.28019154E+00
 -1.42629294E+00  4.58897236E-02 -3.79235292E-02 -2.51732871E-01 -1.09349088E-02
 -5.15233517E-03 -1.40596539E-02  3.53182659E-03 -8.98461848E-04 -3.17248708E-01
 -2.43123930E-01 -5.30005476E-01  1.43080944E-01 -4.75827880E-02  4.84938706E-03
  1.46368313E-02 -3.64969588E-02 -6.81782283E-02  4.32595615E-01 -7.72928686E-01
  2.45110945E-02  9.36323276E-03 -1.97358138E-03 -3.54399724E-02  3.95759843E-02
  7.56342561E-02  7.80966857E-02 -1.28943843E-02 -2.30562651E-02 -2.11223620E-02
 -1.62057429E-01 -3.19385033E-01 -3.46154068E-01  1.03766572E-01  2.79413280E-01
  4.25741939E-01  1.67218427E-01  2.75662664E-01  2.10056500E-01 -5.20330976E-02
  1.99575586E-01  3.01497048E-01 -1.27209304E-01  2.38150941E-01 -4.56711949E-02
 -2.09204154E-01 -3.57665826E-01  1.29473632E-01 -1.82774047E-01 -7.41186013E-07
 -8.13850775E-07  6.48339792E-01 -5.46324965E-01  2.00576187E-01 -2.55166857E-05
 -9.56813523E-01  8.06203876E-01 -2.95994467E-01 -4.27793954E-04  5.46986511E-01
 -4.61697308E-01  1.69870329E-01 -5.06807679E-04 -4.07124355E-01  3.42737283E-01
 -1.26376517E-01  8.77354122E-04  1.95911609E-02  2.00515050E-02  1.16604930E-01
  2.05802755E-02  1.43596480E-01  2.01533755E-01 -2.73373691E-01 -3.43761737E-01
  2.47346201E-02 -3.16605450E-06 -6.60064052E-06 -7.13465771E-01  6.01201439E-01
 -2.20735185E-01 -6.68520674E-06  1.07938525E+00 -9.09520623E-01  3.33883264E-01
  1.32648626E-03 -5.05418799E-01  4.25601942E-01 -1.56193990E-01  2.32645137E-04
  2.87161088E-01 -2.41861809E-01  8.89531772E-02  2.38422069E-02  4.19667161E-02
 -3.55073972E-02 -2.51983881E-03  1.35304324E-02  6.33094847E-03 -5.14092940E-02
 -8.25596172E-02 -4.01172335E-01 -6.55319007E-02  4.46621221E-07  1.36682153E-06
 -3.53728504E-06 -6.21500059E-06  7.91858844E-05 -4.20827243E-04  7.04478951E-04
  1.74481115E-01 -1.47027826E-01  5.37893734E-02  5.59199117E-03 -4.68101812E-03
  1.75164649E-03 -1.56128172E-03  1.30770309E-03 -4.88697750E-04 -2.12089792E-02
  1.77258773E-02 -6.66928746E-03 -4.67950468E-04  6.25362657E-04  9.32471317E-05
 -1.66805916E-01  1.40633703E-01 -5.15559667E-02 -1.33440717E-02 -4.00283202E-02
  2.46912283E-04 -1.05737627E-01 -2.60013115E-02  3.29108727E-02  7.83756377E-02
 -2.49149446E-02  1.28462405E-01  4.13994948E-02  9.60101045E-07  2.99648379E-06
 -8.34669036E-06 -9.72306725E-06  6.01443721E-05 -1.18867345E-04 -2.95334236E-04
  1.47166140E-01 -1.24069831E-01  4.55846288E-02  2.16295244E-02 -1.82247546E-02
  6.67616788E-03 -5.76481361E-03  4.85876625E-03 -1.77891634E-03 -9.41626333E-02
  7.93321147E-02 -2.90646406E-02  1.00913699E-01 -8.49717507E-02  3.11457067E-02
 -1.86043063E-01  1.56686626E-01 -5.76548469E-02  3.24543418E-02  5.16579675E-02
 -5.45471626E-02 -3.86397637E-02  1.23334333E-02 -4.32699731E-02 -7.13735515E-02
  6.97153062E-02  3.50441538E-02 -1.92426560E-02 -2.80143320E-06 -5.78347705E-06
  3.73221293E-04 -3.13328110E-04  1.20386903E-04  6.18831087E-05  1.76020155E-02
 -1.48142223E-02  5.44514286E-03 -3.49181848E-04 -1.14090816E-01  9.59572784E-02
 -3.54784963E-02 -1.80813959E-04  7.19566665E-02 -6.05696381E-02  2.21908205E-02
 -1.95621089E-03 -2.73017544E-03  3.74897873E-03  4.81926267E-03 -3.16029427E-04
 -1.12729738E-01 -1.85340683E-01  1.82918628E-01  9.67461793E-02 -4.93722676E-02
  8.54854090E-07  2.63530394E-06 -7.06177943E-06 -9.95603096E-06  6.22880995E-05
 -9.25429060E-05 -1.29856972E-04 -1.37894726E-01  1.16201780E-01 -4.26387831E-02
 -1.14423967E-02  9.65264064E-03 -3.53196403E-03  3.11951529E-03 -2.63273633E-03
  9.62839951E-04  4.72160364E-02 -3.98281163E-02  1.45731234E-02 -3.11754381E-02
  2.62810823E-02 -9.61014808E-03  1.95994081E-01 -1.65048694E-01  6.06017560E-02
  1.75595999E-02  3.75339477E-02 -1.82826222E-02  4.06514711E-02  1.73348716E-02
 -2.58442699E-02 -5.95854592E-02  2.16762244E-02 -8.82887728E-02 -3.03653160E-02
 -3.03050127E-02 -3.71795032E-02 -1.73439302E-01 -1.83418889E-01  6.07381540E-02
 -7.39620096E-01  2.79056222E-01  2.68896694E-01 -1.69020429E-01  9.15662217E+00
  6.78257401E-02  2.36719630E-01  4.26079885E-01 -1.35727506E+01 -2.71727102E+00
 -1.92487993E+00  3.54037653E+00 -6.96888963E-02 -4.82204261E-03 -3.99341136E-02
  2.33144467E-03  3.35702839E-02  1.02167911E+00 -3.39486044E-01  6.29488002E-01
 -2.11377304E-01  8.61638296E-01  4.15707726E-02  6.91994599E-02 -1.32287350E-01
 -1.26018825E-01  8.42613626E-02  3.29808975E-01  2.27205258E-01  3.30683993E-01
  1.66546132E-01 -9.61163242E+00 -1.91381225E-01 -2.94365037E-01 -1.82845146E-01
  1.46615326E+01 -2.43021963E+00 -2.07545449E+00  2.20200205E+00  7.28927407E-02
 -1.27119603E-02  5.08837097E-02 -1.45533641E-02  4.15979621E-02 -4.94563476E-01
  9.15408825E-02 -7.33221064E-01  3.38833949E-01 -1.26885036E+00  1.21760562E-03
  2.97799446E-03 -9.23541994E-04 -4.99465715E-02  6.19270790E-01 -3.07876299E+00
 -1.42155904E+00  1.98631985E-01  2.41061031E-01  1.45989693E-02 -6.62501987E-03
  6.87302523E-02  2.08658132E-01  4.87945903E-04 -1.84601561E-02 -5.18680334E-02
  4.60502875E-02 -3.36778566E-01 -1.06635535E+00 -1.69571165E-01  6.03781059E-01
  2.19308003E+00 -1.29404444E-01  2.00471386E-01  9.64534581E-01  2.93624368E-01
  8.50994485E-03  2.00506143E-01 -3.38354761E-02 -2.49009294E-02 -8.73250457E-01
  1.12674936E-01 -4.47589358E-01  5.99242827E-02  2.79367036E-02  2.52594741E-03
  7.09114237E-03 -1.28304090E-02 -5.99202292E-02  5.74896535E-01 -2.24762296E+00
 -9.83448999E-02  1.90414871E-01  1.51161606E-01 -2.03756229E-01 -9.46573319E-02
 -1.41911885E-01 -8.05146925E-02  2.39861697E-02  3.66959459E-02  2.24050210E-02
  4.72302746E-01  7.00754655E-01  3.81776332E-01 -8.96957598E-01 -1.28979527E+00
 -6.13328955E-01 -4.02093983E-01 -5.81379438E-01 -2.83669622E-01 -4.21151750E-02
  1.32890868E-01  2.30411574E-01 -1.05138591E-01  2.45545787E-01  1.70866634E-01
 -2.27761943E-01 -3.95868696E-01  2.09793665E-01 -5.91719784E-01  2.23100374E-02
  4.77530651E-02 -7.49416137E-03 -1.08035063E-02 -5.20881265E-03 -5.31853669E-01
 -6.56467943E-03 -3.26982051E-02 -6.78491460E-02  2.30236143E+00 -1.66203475E-01
  3.00189201E-01  1.35490838E+00  1.42137325E+00 -2.72309562E-03  1.63352194E-01
  4.53739811E-01  9.26632249E-03 -4.61218009E-04  6.53596438E-03 -1.46426980E-03
  1.94777051E-03  3.70682190E-01 -1.34617227E-01  1.28609111E-01 -1.95927884E-02
  9.75932874E-02 -2.33449289E-03 -6.44933518E-03  1.05560113E-02  6.13027390E-02
 -6.75981763E-01  3.15303945E+00  3.54620788E-02  2.46042026E-01  2.16360776E-01
 -2.05957172E-01 -1.32615441E-01 -1.78896091E-01 -5.85517092E-02  3.37657462E-02
  4.57543293E-02  1.54654585E-02  6.67514337E-01  8.98626338E-01  2.89710516E-01
 -1.32476247E+00 -1.77669102E+00 -5.56629080E-01 -5.83251075E-01 -7.32827781E-01
 -1.10510991E-01  1.60743618E-01 -7.48927069E-02 -1.02451732E-01  8.26872634E-02
 -3.03674155E-01 -4.01174880E-01  1.80113478E-01  2.65220544E-01 -2.14697917E-01
  8.02352720E-01 -5.96896284E-03  6.43882496E-03 -9.11323779E-02 -3.85340358E-02
  1.89720215E-01 -6.91196575E-01  1.46950194E-02 -4.84003730E-02 -1.79500815E-01
  5.23495970E-02 -7.22717927E-02 -9.30190118E-02 -1.98411795E-02  3.52307888E-01
  5.32101241E-01  8.70081897E-01  6.50032872E-01 -1.59433950E-01  4.51738112E-01
  2.09357578E-01 -9.60572985E-03 -5.73827353E-01 -1.10138875E-01 -5.99484393E-01
 -5.06975366E-01  5.89460231E-02  7.37144067E-01 -3.78993097E-03  9.92000175E-03
  1.12322424E-01  1.57656411E-01  6.62226745E-02 -6.78609933E-01 -4.13604851E-02
 -1.61598546E-01 -3.06251354E-01  5.03631503E-01 -3.31348160E-01 -3.05447952E-01
  2.39112858E-01 -8.95848621E-01 -3.56893384E-01 -5.68707983E-01 -3.95407763E-01
 -1.73788537E-01  4.74994824E-01  2.55864954E-01 -3.38165704E-02 -5.03449891E-01
  1.06487884E-01 -7.27862740E-01 -5.76697226E-01  1.18242745E-01  5.82360330E-01
  2.48774055E-03  8.01547370E-03 -2.45514092E-02 -1.61057849E-02  1.06475698E-01
 -1.52124701E-02 -8.79277900E-01 -7.78241973E-02 -3.49044709E-02  1.56452804E-01
  1.29589371E-02  1.80083411E-02  7.15386302E-03 -2.20646132E-03 -5.11789852E-03
 -6.80598253E-03 -7.40475618E-02 -9.04146537E-02 -6.87847912E-03  1.69979969E-01
  1.55723455E-01 -1.25352532E-01 -2.50908693E-02  3.01387124E-03  8.94327921E-02
  5.70375019E-02 -3.84215078E-02  2.73939059E-02 -1.41863843E-02  8.77996957E-02
  6.12368174E-02 -6.13236175E-02 -9.35089452E-02  5.29062581E-02 -1.52668719E-01
  1.52300362E-03  4.81293788E-03 -1.38608654E-02 -1.48708317E-02  1.50010823E-01
 -4.26075463E-01  9.39191128E-01  8.66972621E-02  1.53995551E-01  1.38985824E-01
 -1.02033513E-02 -2.37016361E-02 -3.15741443E-02  4.37570119E-03  8.16650222E-03
  8.09899420E-03  4.32678997E-02  1.11890344E-01  1.64887292E-01 -5.04190163E-02
 -1.77044601E-01 -3.19202312E-01 -2.67626606E-02 -5.29686165E-02 -5.76597504E-02
  4.69136478E-02 -1.59924581E-02  3.77649479E-02 -1.52840767E-02  6.29008404E-02
 -1.55212511E-01 -3.75105373E-02 -1.72343471E-01  4.64976661E-02 -5.25762289E-02
 -7.93277699E-03 -1.55240917E-02  8.76589474E-04  1.23756686E-02  3.08747445E-02
  1.43177572E-01 -1.17284679E-02 -4.77057433E-03  2.49083560E-02 -2.98135742E-01
 -1.34132200E-01 -2.27013752E-01 -1.84702478E-01  6.24534728E-02  7.59445648E-02
  1.44908090E-01  1.49180451E-01 -1.39356263E-03  4.72380395E-03  3.02060780E-03
 -5.30512773E-04 -4.38493337E-03  2.06576126E-02  8.08376844E-03 -2.97005983E-02
  2.72763365E-02 -1.34082938E-01  1.63090768E-03  5.38019625E-03 -1.75479495E-02
 -5.48554319E-03  4.48563334E-02  2.06689818E-02  6.55837154E-01 -5.85303214E-02
 -8.79485482E-02 -5.02447812E-02 -7.69606057E-03 -1.46571487E-04  2.44745205E-02
 -8.07852577E-04 -3.14198844E-03 -5.94537548E-03  5.38494321E-02  1.65010227E-02
 -1.29105249E-01 -1.44616731E-01 -7.85445417E-02  2.53507853E-01  4.53087236E-03
  2.59232389E-04 -1.39471988E-02  5.37721206E-02 -3.10272000E-02  2.34819647E-02
 -1.00257865E-02  6.10840731E-02 -2.00323167E-01 -1.48576751E-02 -1.40251239E-01
  2.18586408E-02  3.59749314E-02 -1.93492851E-07  1.24972987E-06 -8.43236689E-02
  7.10725853E-02 -2.60640771E-02 -7.56048071E-05  6.16030059E-02 -5.19877684E-02
  1.90450339E-02  9.87487394E-04 -2.47230043E-01  2.08856097E-01 -7.70304595E-02
 -4.03466074E-04  2.67412220E-01 -2.25791014E-01  8.24674137E-02  2.16363798E-01
  2.99050447E-01 -4.18505559E-01 -5.51602074E-01  3.18741414E-02 -1.24323814E-01
 -1.61974489E-01  2.52355026E-01  3.80995760E-01 -7.24924183E-03  1.58929527E-06
  1.70507130E-06 -1.53288784E-01  1.29244391E-01 -4.74098130E-02  7.09861829E-05
  1.70687347E-01 -1.43972282E-01  5.28072920E-02 -1.15530413E-03 -2.37817395E-01
  2.00943290E-01 -7.39455822E-02  7.21449110E-04 -5.42863746E-02  4.61567595E-02
 -1.66003902E-02 -1.87791611E-01 -2.36456356E-01  3.90776649E-01  6.28441751E-01
 -1.88400740E-03  9.56834611E-02  9.42870376E-02 -2.30208165E-01 -4.89185288E-01
 -2.82265643E-02 -2.43358470E-07 -8.56704717E-07  3.19315851E-06 -7.46912556E-07
 -6.45710789E-06  5.39048672E-05  4.49613331E-04 -1.28684471E-01  1.08490068E-01
 -3.98981467E-02 -5.19698057E-03  4.37039712E-03 -1.60013284E-03  2.05189331E-03
 -1.72653215E-03  6.33334303E-04  1.71298873E-02 -1.43901532E-02  5.26369539E-03
  5.79488461E-03 -4.95881398E-03  1.84113240E-03  1.34238015E-01 -1.13200271E-01
  4.14850097E-02  3.07150245E-03  1.50561763E-02  6.96112207E-03  6.24521761E-02
  1.25265486E-02 -3.37931351E-02 -7.44135052E-02  3.23789234E-02 -9.36158258E-02
 -3.58680647E-02 -3.45581486E-07 -1.20252691E-06  4.42749160E-06 -1.19583359E-06
  1.03858868E-05 -6.34897693E-05 -2.71984825E-04 -1.29573620E-01  1.09119358E-01
 -4.01202435E-02  5.71248561E-04 -4.96089155E-04  1.82536677E-04  3.48266195E-04
 -2.90761715E-04  1.06043316E-04 -8.54478840E-03  7.27773987E-03 -2.67245952E-03
  3.63283639E-02 -3.07613813E-02  1.12882670E-02  1.02798437E-01 -8.66612711E-02
  3.18684468E-02 -3.23246076E-02 -5.56661403E-02  4.93655584E-02  1.10625593E-02
 -1.69928318E-02  5.41264532E-02  1.03041342E-01 -7.09297584E-02  4.52615994E-02
  3.93937708E-02  1.02591675E-06  2.14305023E-06 -1.43329903E-03  1.21244645E-03
 -4.47202062E-04 -2.13923824E-05  1.91209383E-02 -1.61077657E-02  5.90515457E-03
  8.26166551E-05 -5.65017765E-03  4.68582558E-03 -1.66112991E-03  3.97090234E-05
  7.57296722E-02 -6.38684483E-02  2.34322807E-02 -3.12774487E-03 -4.79998922E-03
  5.49218330E-03  4.92115462E-03 -9.86525617E-04 -5.04097271E-02 -7.45429806E-02
  9.18666763E-02  9.76019361E-02 -1.27521326E-02  3.15243625E-07  1.12568532E-06
 -4.40350102E-06  2.69408463E-06 -3.57234803E-05  1.55583780E-04 -5.34364191E-04
 -6.41763606E-02  5.42194642E-02 -1.98724476E-02 -1.94076301E-03  1.61368232E-03
 -5.96938943E-04  1.16016373E-03 -9.73279065E-04  3.57924826E-04  5.16027846E-04
 -3.16832634E-04  1.42147152E-04  3.63058202E-02 -3.08373753E-02  1.12615555E-02
  1.46035335E-01 -1.23061364E-01  4.52426210E-02  2.65168681E-02  5.00542939E-02
 -3.53069292E-02  1.92037479E-02  1.88118246E-02 -4.74506007E-02 -1.01719335E-01
  4.86657270E-02 -1.13305649E-01 -4.71804914E-02  1.00172507E-04 -1.08628714E-04
  3.49806458E-01  6.73254045E-01  7.02928035E-01  1.29220101E-01 -6.62582744E-01
 -1.26882117E+00 -1.31394615E+00 -1.09735212E+00 -7.07377086E-01 -8.15364331E-01
  6.57292341E-02 -7.43071239E-01  2.07701901E-01  7.58963674E-01  1.39586970E+00
  1.13064289E-02 -9.91292145E-02 -8.00747481E-02  1.61567136E-02  8.03625499E-02
 -4.03623600E-01  4.56089474E-01  3.21376596E-01 -1.48522086E-01  1.10128550E-01
 -4.88622905E-03 -1.76889703E-02  2.69003359E-01  5.17779147E-01  5.40701343E-01
  5.20516099E-01 -6.12856879E-01 -1.08931809E+00 -9.85887371E-01 -4.82028181E-02
 -8.98481082E-01 -9.30655368E-01  3.69544726E-01  1.07718970E+00 -3.09448917E-01
 -4.41814854E-01 -2.03297312E-01 -1.22454544E-01 -7.49994384E-02 -2.04802071E-01
  6.22685799E-02 -7.63166490E-02  1.10598268E+00 -2.93813675E-01  8.22445940E-02
  1.66530448E-01 -7.90751024E-01  2.80274405E-03  9.69739633E-03 -3.56893586E-02
  1.12178351E-02 -1.69229877E-01  8.93850550E-01 -1.62740425E+00 -5.21374303E-02
  6.28627231E-02  3.39921537E-01  6.52286288E-03 -1.46280037E-02 -6.09300964E-02
 -4.08010488E-04  2.47810912E-03  8.06698543E-03 -3.96476166E-02  9.09129191E-02
  3.75814367E-01  9.09815875E-02 -2.13282954E-01 -8.75143140E-01 -1.54762621E-02
 -2.72158323E-02 -2.42118784E-02  1.63065903E-02 -2.87757603E-02 -9.28860706E-03
 -7.69787212E-05  3.62156484E-02  3.47265500E-01 -1.21170390E-02  1.95429351E-01
 -2.25242435E-02 -6.66455657E-02 -3.01852492E-03 -1.04981793E-02  3.91488000E-02
 -1.53548259E-02  2.40758245E-01 -1.29377498E+00  1.31260305E+00  1.84910220E-01
  2.45175785E-01  6.98795890E-02 -3.91939996E-02 -5.60903077E-02 -2.60741261E-02
  4.21410264E-03  6.62957132E-03  4.43585274E-03  2.50240049E-01  3.54161520E-01
  1.55687021E-01 -6.25340599E-01 -8.70752972E-01 -3.50116208E-01 -9.05136605E-02
 -1.57637940E-01 -1.36634932E-01 -3.14419927E-03  4.03138231E-02  2.36266525E-02
 -6.34740395E-04 -5.77464914E-02  2.08792830E-01 -2.14859347E-01 -2.42704436E-01
  1.31561028E-01 -3.12223876E-01  9.30574512E-03  1.76110066E-02  7.09808629E-03
 -3.41252013E-03 -3.22429197E-02 -8.34109203E-02  1.54621926E-02 -3.12676906E-02
 -1.35131095E-01 -9.12763887E-01  2.16713080E-02 -1.57877008E-01 -5.00097595E-01
  2.77560279E-01  4.04465707E-02  1.31430860E-01  2.27276190E-01  1.02960201E-02
 -7.83726486E-03  4.44922592E-04 -1.28107132E-04  7.30852640E-03 -1.08205876E-01
 -6.34740582E-02 -8.99460722E-02  1.50506093E-04  1.52022833E-01  3.54995190E-03
  1.23305428E-02 -4.57005379E-02  1.57276917E-02 -2.87784984E-01  1.87843723E+00
 -9.12699056E-02  7.58705456E-02  1.10209371E-01  5.50531774E-02 -5.45187008E-02
 -8.46091486E-02 -5.42000040E-02  8.23295623E-03  1.42520247E-02  1.22008107E-02
  3.31333079E-01  5.04082511E-01  3.01841552E-01 -8.45281490E-01 -1.24145566E+00
 -6.48805706E-01 -1.78834674E-01 -2.80710864E-01 -1.86546771E-01  6.39530478E-03
 -7.46882949E-02 -7.41110972E-02  1.99745517E-02  3.01157076E-02 -2.31397175E-01
  3.28500615E-01  4.08969137E-01 -1.98582387E-01  4.22305384E-01  7.07854787E-07
  1.41605695E-06  8.28415440E-03 -6.89201671E-03  2.62355838E-03  2.15341040E-05
 -1.92862055E-02  1.60788029E-02 -6.05724877E-03 -2.72833943E-04 -4.94594066E-03
  3.67303857E-03 -1.75866487E-03  4.16044075E-04 -1.21486299E-01  1.02173952E-01
 -3.81627771E-02  1.98153096E-01  4.15015934E-01 -2.15764267E-01  4.07373086E-01
  1.86161320E-01 -1.19932408E-01 -2.53121275E-01  1.27977755E-01 -2.60388288E-01
 -1.14990559E-01 -2.79501972E-07 -1.34951261E-06  8.21029135E-02 -6.90683069E-02
  2.54284366E-02  5.68252039E-05 -1.26538141E-01  1.06369658E-01 -3.91928687E-02
  2.24880846E-05  4.38025733E-02 -3.68526491E-02  1.38577001E-02 -4.00982659E-04
  1.45810550E-01 -1.22348622E-01  4.51027301E-02  2.81067206E-01  5.75768585E-01
 -3.21588546E-01  4.93668275E-01  2.49588527E-01 -1.07401084E-01 -2.36627888E-01
  1.03537556E-01 -2.94728591E-01 -1.13767086E-01  6.52044873E-08  2.13684373E-07
 -7.70353134E-07  8.34393443E-07 -4.52102020E-05  3.17662459E-04  6.01776321E-04
 -2.85522794E-02  2.40332949E-02 -8.92463664E-03 -6.08131646E-03  5.12357214E-03
 -1.89213803E-03  2.26027509E-03 -1.90441324E-03  7.01919292E-04  2.25555893E-02
 -1.90000500E-02  7.04516091E-03 -7.31698052E-03  6.14347565E-03 -2.45106522E-03
  1.12287486E-01 -9.45917707E-02  3.45907774E-02  8.39568154E-03  9.95788727E-03
 -1.82313977E-02 -3.22113676E-02 -6.09417856E-04 -3.92129219E-02 -6.29236888E-02
  6.58328650E-02  4.46520621E-02 -1.53450960E-02 -1.01984257E-07 -3.09475195E-07
  8.83451774E-07  2.35320417E-07  3.76699332E-05 -3.00835486E-04 -3.53591487E-04
  9.06537973E-02 -7.64506565E-02  2.80560450E-02  6.67671170E-03 -5.63425199E-03
  2.06499691E-03 -2.46261217E-03  2.07659294E-03 -7.61723055E-04 -2.50763807E-02
  2.11897826E-02 -7.75299917E-03  1.01610081E-02 -8.76285920E-03  3.12353257E-03
 -1.25400125E-01  1.05509124E-01 -3.87879488E-02 -1.15800950E-02 -1.55903965E-02
  2.28506129E-02  3.21057302E-02 -1.25985089E-03  5.65326346E-03 -7.43662428E-03
 -2.88798760E-02 -1.12390162E-01 -1.60996351E-02  2.09649156E-06  4.05826998E-06
  6.71952938E-03 -5.66189041E-03  2.06913122E-03 -3.10415324E-05 -3.92278069E-02
  3.30530011E-02 -1.21528635E-02  1.22395894E-05  4.86409637E-02 -4.09929710E-02
  1.50520922E-02  1.73574471E-04 -1.25107928E-01  1.05410284E-01 -3.86634272E-02
  5.12924432E-03  9.74403812E-03 -6.76948845E-03  4.09328364E-03  3.70884656E-03
  7.09537206E-02  1.36463279E-01 -9.17900868E-02  6.70122919E-02  5.31171697E-02
  6.08898028E-07  2.14985982E-06 -8.18899822E-06  3.32350540E-06 -2.36643741E-05
  8.17863093E-05 -3.00132176E-04 -9.06169302E-02  7.64008835E-02 -2.79939884E-02
 -6.88484537E-03  5.78717525E-03 -2.13515087E-03  2.59968787E-03 -2.18913680E-03
  8.05586913E-04  2.46677852E-02 -2.07032104E-02  7.65890031E-03 -3.77953921E-03
  3.01344319E-03 -1.21951606E-03  1.15673330E-01 -9.74274336E-02  3.57566760E-02
 -7.09035325E-03 -1.09781489E-02  1.23026537E-02  1.04974197E-02 -2.34219991E-03
  2.32253125E-03 -1.06115656E-02 -2.09453068E-02 -9.57464085E-02 -1.50620639E-02
 -1.43490595E-02 -4.01308773E-02  3.68048081E-01  1.92102148E-01 -6.66596434E-01
  3.24639845E-01 -3.20419351E-01 -4.13784339E-02  9.23313825E-01  2.17273566E+00
  3.84293746E-01  4.03730976E-01 -1.42402687E-01 -5.07324849E-01  9.92084456E-03
  2.06572943E-01  5.30530472E-01 -1.36549268E-01 -9.36184234E-02 -2.91512444E-01
  1.04592577E-01 -2.12579011E-01  3.65995889E-01  2.11984313E-01  5.66099131E-01
 -1.62408513E-01  1.49394744E-01 -1.42590354E-02 -4.04146730E-02 -4.55141799E-01
 -2.91880947E-01  6.76299530E-01  3.98702220E-01  6.12240978E-01  3.14022237E-01
 -1.12391345E+00  1.72728509E-02  3.68629578E-01  3.40113514E-01 -2.65205687E-01
 -5.36407490E-01 -9.63676018E-02 -2.45165904E-01 -3.56243414E-01 -2.74478683E-01
 -8.64129235E-02 -3.57370109E-01  1.07237636E-01 -1.64071849E-01  3.44704580E-01
  4.40833141E-01  8.15558927E-01 -2.37913872E-01  1.16094450E-01  2.06237588E-04
  2.00731108E-05  5.72531928E-03 -3.19827128E-02  3.67197611E-01 -1.29307198E+00
 -1.11197490E-01  5.83878196E-02  2.41213807E-02 -1.23003868E-01 -3.20347220E-02
 -4.21719808E-03  9.20753385E-02  9.09631075E-03  2.39862618E-03 -2.28724296E-02
  1.70986787E-01  1.10024252E-02 -5.22809598E-01 -3.07548745E-01  2.87234275E-02
  1.07254626E+00 -1.16403713E-01 -1.82427515E-02  3.26631617E-01  9.98275181E-02
 -9.62605225E-02 -4.86492285E-02  2.38483552E-02 -2.02263738E-04 -5.19331743E-01
  2.90784554E-01  5.79920528E-03 -4.92741244E-02  1.88392867E-02  3.48941348E-04
  1.26745184E-03 -4.93044949E-03  7.71817220E-04  8.88037181E-02 -4.80150932E-01
  5.63795949E-01  1.49011759E-01  1.56664415E-01 -5.50093260E-02 -1.74599510E-02
 -1.76402260E-02  8.39675653E-03  5.96537633E-03  6.33820636E-03 -2.02110347E-03
  1.02336005E-01  1.06439462E-01 -4.09185693E-02 -2.55436977E-01 -2.87301684E-01
  4.32553868E-02 -1.14256040E-01 -1.01607021E-01  9.25710848E-02 -2.92947376E-02
 -2.65750472E-02 -4.06217340E-02  6.58785945E-03  2.89449114E-02  1.23121609E-01
  4.56217240E-02  7.45322381E-02  7.15089812E-03 -1.61992398E-01 -7.27614874E-03
 -1.47751966E-02 -1.40784652E-02 -9.50380766E-03  1.96185383E-02  2.00996252E-01
 -2.84720587E-03 -2.50065901E-02 -5.89088574E-02 -1.18500319E+00  2.70031674E-01
  6.02422896E-02 -7.08760499E-01  1.00834398E-01 -9.91539972E-02 -3.41566607E-02
  2.27464947E-01  2.82124853E-03  2.42859773E-03  5.03412471E-03 -1.37187284E-03
  4.19712674E-04 -9.99629993E-02  9.07584486E-02  4.29832224E-02 -2.24338873E-02
  2.95428434E-03  2.40914258E-04  5.79999901E-04  9.21298512E-05 -1.26259035E-02
  1.95884195E-01 -8.71082698E-01  6.44373944E-01 -1.47815795E-01 -1.79873341E-01
 -1.20829056E-02  3.56171451E-02  3.91226800E-02 -8.57734729E-03 -9.81792777E-03
 -1.06341935E-02  2.77305999E-03 -2.03922364E-01 -2.25841679E-01  4.40742754E-02
  4.52563805E-01  5.10840975E-01 -7.15886306E-02  1.15748888E-01  1.45454737E-01
  2.20283648E-02 -2.55326278E-02 -1.66907350E-02 -2.10973065E-02 -6.68559250E-04
  4.14075241E-02  1.71173848E-01  3.82827101E-02  5.51492314E-02  3.04724965E-02
 -2.70276207E-01 -7.10338499E-03 -1.35526829E-02  2.67344696E-01  5.08490457E-01
  5.20766534E-01 -2.50133542E-01 -3.95085413E-01 -8.64023981E-01 -1.07619046E+00
  2.69843625E+00  4.36739373E-01  1.70085735E-01 -9.48318837E-01 -2.59028474E+00
 -5.23722309E-01 -6.34297313E-01 -3.48958949E-02  1.86818464E-02  2.95831107E-02
  3.73930837E-03  1.40319731E-02 -1.12131055E-01 -1.91117306E-02 -9.46254917E-02
  5.53435253E-02 -7.43629518E-02  4.57872525E-01  1.10843724E-03  3.01700034E-03
 -5.37503203E-01 -7.78525907E-01 -3.82981235E-01 -2.14692848E-01  1.04783948E+00
  1.52097914E+00  7.55526815E-01 -1.03940688E+00  6.88130517E-01  6.94440511E-01
 -3.32888000E-01  1.95069078E+00 -2.38584972E-01 -8.34832661E-02  5.43819473E-01
  2.33704093E-01 -7.03565401E-02  3.76509520E-02  1.97017185E-02 -9.13678358E-02
 -4.14914813E-01  8.84385035E-03 -1.67334601E-01 -1.58919063E-02  2.62656754E-01
  2.18074077E-04  1.22331826E-03 -8.39045109E-03  2.20298873E-02 -1.87447784E-01
  4.44696790E-01  5.78741057E-01  8.02473853E-02  5.36860416E-02 -1.13187444E-01
  1.43985234E-02  3.68631119E-03 -3.64989188E-02 -3.82409372E-03 -2.33561276E-03
  5.99819240E-03 -7.39725629E-02 -7.58340657E-03  2.18442374E-01  9.69450396E-02
 -2.85385435E-02 -3.91062680E-01 -9.75762533E-03 -5.84897154E-02 -1.27798446E-01
 -3.00672741E-02  4.70885206E-02  3.60155542E-02 -1.36642282E-02 -1.34047712E-03
  2.43701371E-01 -1.14824582E-01  1.68428674E-02  1.90673127E-02 -2.55539358E-02
  1.28621795E-04 -5.97375147E-04  1.06887399E-02 -4.55984911E-02  4.36043822E-01
 -1.39925155E+00 -1.35047298E-03  1.03624006E-01  1.19319977E-01 -9.91479490E-03
 -6.99919620E-02 -8.89042828E-02 -1.58890440E-02  1.72960498E-02  2.13330346E-02
  2.19325721E-03  3.85727796E-01  4.96966000E-01  1.06658265E-01 -7.14516472E-01
 -9.50502224E-01 -2.79075344E-01 -2.13162003E-01 -2.64262041E-01 -3.06969351E-02
 -9.18093235E-02 -1.24181068E-02 -2.09898834E-02 -1.86406840E-02  1.41839757E-01
  2.84455544E-01 -1.08357426E-01 -1.48676658E-01  1.35128109E-01 -5.29028855E-01
 -3.12049212E-03 -5.87977395E-03 -1.69937076E-03  4.21985675E-04  6.64069595E-03
  2.58221421E-03  2.95907357E-02  6.02903284E-02  6.85623312E-02  5.82372895E-01
 -2.70171157E-01 -1.63810965E-01  4.27198681E-01 -4.08862178E-02  5.15830618E-02
  9.46039389E-03 -1.40956668E-01 -2.01390575E-03 -7.90826959E-03 -1.25396875E-02
  4.20794241E-03 -3.96556646E-03  1.49556727E-01 -2.25173807E-01 -2.06786440E-01
  8.82711397E-02 -8.99188912E-02 -1.01508845E-03 -4.29688266E-03  2.23363991E-02
 -3.96558755E-02  4.09729077E-01 -1.36467785E+00  7.87028076E-02 -5.48896251E-02
 -8.80146815E-02 -6.23226484E-02  5.29586750E-02  7.64820389E-02  3.71172605E-02
 -1.09993859E-02 -1.59735286E-02 -7.95006669E-03 -3.14730031E-01 -4.53730384E-01
 -2.18412149E-01  6.37506681E-01  9.27098706E-01  4.64295153E-01  1.56318167E-01
  2.15806807E-01  8.24750907E-02 -2.12701657E-02  9.52910831E-03  1.80093419E-02
 -1.38139882E-02  5.24888930E-02  2.01777521E-01 -1.84782590E-01 -2.63833304E-01
  1.53510867E-01 -4.44372534E-01 -5.04622269E-03  2.23705029E-03  4.92276635E-01
  4.17762593E-01 -4.53364877E-01 -5.28318767E-01 -1.24652323E+00 -1.05759122E+00
  1.14868897E+00 -3.57706901E+00 -1.80094212E+00 -1.53690296E+00  1.63544189E+00
 -9.52315321E-01 -3.09422249E-01 -7.17131408E-02  8.04592107E-01  4.35515346E-01
  2.25643513E-02  4.47676477E-01 -1.38808708E-01  3.08124246E-01 -1.21772369E-02
  2.34207214E-01  1.77625090E-01 -2.67935645E-02 -2.44053778E-01 -3.04921822E-02
 -6.31750707E-02  6.13650334E-02  8.89092842E-02  4.37371808E-02  2.68217302E-01
 -4.18002337E-01 -4.51970877E-01  1.20225634E-01  5.52607245E+00 -1.89766817E+00
 -1.59262012E+00  1.79584812E+00  5.29162399E-01 -2.69122741E-01 -3.92012747E-01
 -1.97666463E-01 -6.54058845E-02  2.93947567E-01  3.79638539E-01 -1.44518025E-01
  1.70999603E-01  4.91401921E-01 -9.98202727E-01 -7.66056343E-01  2.48392754E-01
  2.70563191E-01  6.96143020E-04  6.27095276E-04  1.16482570E-02 -6.88929553E-02
  4.54815534E-01 -1.03351952E+00 -5.59026503E-01  2.15967086E-03  2.31426716E-02
  5.63068031E-02 -9.93451551E-05  4.12328353E-02  1.12633875E-01 -3.61102105E-04
 -9.68098710E-03 -2.52029110E-02 -9.43423934E-04 -2.18153319E-01 -5.91152823E-01
  1.83610847E-02  3.56571414E-01  9.11790093E-01  7.62399393E-02  1.77979211E-01
  2.38170909E-01  1.59021756E-01 -3.63747044E-03  1.11977036E-01 -2.34080732E-02
  1.99179401E-02 -4.81873978E-01  1.26003892E-02 -3.23659111E-01  6.18864567E-02
 -2.58025849E-02 -4.51879061E-04 -2.73346435E-03  1.92187404E-02 -4.81049656E-02
  3.33626474E-01 -9.58930740E-01  1.63692402E-01  6.42873472E-02  5.49884415E-02
 -5.80241090E-02 -3.56453467E-02 -6.28001087E-02 -5.58013238E-02  6.01145341E-03
  1.22185238E-02  1.38427472E-02  1.98993061E-01  3.44641906E-01  2.95319969E-01
 -3.57223242E-01 -5.99443013E-01 -4.77712741E-01 -3.79172425E-02 -1.29222998E-01
 -2.29292804E-01  1.78049882E-02  8.31380199E-02  1.22002086E-01 -3.91917529E-02
  2.28030320E-02  2.18263507E-02 -2.25205055E-01 -3.41049363E-01  1.33263982E-01
 -2.07804393E-01 -5.71849446E-03 -1.31295745E-02  8.06591874E-03  2.77230031E-03
 -1.85155696E-02  1.67776871E-01 -1.55700698E-02 -4.56710478E-03  3.78690926E-02
 -6.92398542E-01 -1.33329913E-01 -3.17416169E-01 -4.33746119E-01  2.06060365E-01
  1.71831169E-01  2.45703433E-01  1.13795809E-01 -5.09539823E-03  1.53081192E-03
 -1.43665171E-03 -5.23542511E-05  4.63028346E-04 -1.42713066E-01 -3.26352928E-02
 -1.46220331E-01  3.59369520E-02 -2.34823900E-02  2.02934213E-03  5.74592440E-03
 -1.12534322E-02 -4.30903435E-02  2.04407297E-01  8.73421231E-02  6.25962476E-01
 -9.92854018E-02 -9.29902018E-02  6.75625828E-02  3.01781568E-02  4.13978433E-02
  1.52127427E-02 -9.22548688E-03 -1.21202386E-02 -3.19232040E-03 -1.25926567E-01
 -1.78530321E-01 -7.92630489E-02  2.53264528E-02  6.82529874E-02  1.04196827E-01
  8.50438897E-03 -4.27207284E-02 -1.43644879E-01 -6.63288446E-02  5.76011363E-03
  1.92586554E-02 -2.91909990E-02  1.43959567E-01 -1.10793436E-02 -2.32628231E-02
 -8.23835291E-02  3.87665764E-02 -1.16769214E-01  3.44416219E-06  1.12815040E-05
 -2.10650802E-02  1.80546105E-02 -6.72544983E-03 -2.05485183E-04  4.10284372E-02
 -3.54422525E-02  1.33312386E-02 -2.29034017E-03 -5.90910686E-02  4.81037908E-02
 -1.73188920E-02  1.13815434E-03  3.94506322E-02 -3.30679252E-02  1.21048895E-02
  2.64035448E-01  5.64900919E-01 -2.73601357E-01  6.18470147E-01  2.61303224E-01
 -2.87611338E-01 -6.03426920E-01  3.12053432E-01 -5.98685588E-01 -2.71707076E-01
 -8.70584065E-06 -1.95400071E-05  3.31938202E-02 -2.77585864E-02  1.01347295E-02
  1.32054503E-04 -6.36865463E-02  5.29545038E-02 -1.92578703E-02  2.57181135E-03
  1.11517102E-01 -9.53984109E-02  3.57618175E-02 -1.19375007E-03 -5.58052653E-02
  4.70647984E-02 -1.75426665E-02 -2.22457684E-01 -4.57264275E-01  2.52852813E-01
 -4.00315924E-01 -1.99386440E-01  2.49535878E-01  5.20883626E-01 -2.73933089E-01
  5.02747572E-01  2.33025783E-01 -2.26429589E-07 -9.86128009E-07  5.22776988E-06
 -8.83461261E-06  5.29172421E-05 -6.33643157E-05 -1.81556380E-04 -6.25105768E-02
  5.26227895E-02 -1.92724878E-02  1.09163368E-02 -9.18474514E-03  3.38406883E-03
 -2.37049530E-03  1.99363558E-03 -7.33353759E-04 -6.85691224E-02  5.77071141E-02
 -2.12553172E-02  1.60717919E-01 -1.35315663E-01  4.97770054E-02  1.00290928E-01
 -8.43809043E-02  3.10189875E-02  1.74200308E-02  2.71205842E-02 -3.00937724E-02
 -2.49484263E-02  5.91364874E-03 -9.46478548E-02 -1.60810549E-01  1.47393070E-01
  4.75049037E-02 -4.72436497E-02  1.36334662E-07 -1.92411263E-08  3.96348235E-06
 -1.97631019E-05  1.50800184E-04 -4.68556938E-04 -2.05534536E-04  4.16589721E-02
 -3.51547099E-02  1.28955865E-02 -1.14664652E-02  9.61836626E-03 -3.55625531E-03
  2.35964028E-03 -1.97877274E-03  7.32062664E-04  7.27762819E-02 -6.10817957E-02
  2.25612371E-02 -1.72126601E-01  1.44598805E-01 -5.33255866E-02 -8.01938493E-02
  6.74357570E-02 -2.48860417E-02 -1.97139751E-03  1.80511919E-03  9.19905044E-03
  3.41927968E-02  4.76268218E-03 -1.66620148E-02 -6.45915734E-02 -1.69582746E-02
 -2.25255422E-01 -4.87057036E-02 -3.52367260E-06 -7.24818617E-06 -9.83787408E-03
  8.28574339E-03 -3.03670754E-03  6.58171042E-05  1.18168781E-02 -9.97095771E-03
  3.69298591E-03 -5.77196805E-05  1.74051432E-01 -1.46622631E-01  5.37655700E-02
  1.73868110E-04 -1.63580618E-02  1.38826024E-02 -5.00423569E-03 -1.44704420E-03
 -2.96374053E-03  1.64070097E-03 -2.59477004E-03 -1.29414615E-03  2.22313307E-02
  3.24420826E-02 -4.11537620E-02 -4.62947572E-02  5.04244279E-03  1.64854964E-07
  7.65435952E-07 -4.36655397E-06  8.43891245E-06 -4.97395922E-05  8.66732714E-05
  3.86332681E-04  5.86843714E-02 -4.95887978E-02  1.82249514E-02 -1.25516535E-02
  1.05638570E-02 -3.88279785E-03  3.10537414E-03 -2.61565361E-03  9.60688576E-04
  7.49506340E-02 -6.30803855E-02  2.31819243E-02 -1.63479885E-01  1.37636667E-01
 -5.05473671E-02 -8.95365111E-02  7.54206744E-02 -2.77858523E-02  2.18442616E-03
 -4.05212162E-03 -1.26575435E-02 -5.13359279E-02 -7.55406110E-03  5.62177775E-03
  4.51625377E-02  3.33997707E-02  2.26988996E-01  4.24375419E-02 -1.78864024E-02
 -4.39694906E-02 -3.35197710E-01 -2.39220310E-01  4.31889431E-01  4.93627256E-01
  1.10564886E+00  8.25655324E-01 -1.32496490E+00  5.88082369E+00  2.10900239E+00
  1.61066069E+00 -2.43032260E+00 -5.61889090E+00 -7.89866451E-01 -3.11116110E-01
  1.70566019E+00  3.76027185E-01  6.70111927E-03  1.14445113E-01  4.27091534E-02
 -3.75020834E-01 -2.16987170E-01 -7.61437810E-01 -8.19103548E-01  1.59802314E-01
  6.28547346E-01  3.14548833E-03  1.69525167E-02 -3.23996509E-01 -1.57059746E-01
  6.19527817E-01 -2.63205641E-01  1.15239679E+00  7.00566095E-01 -1.81685579E+00
 -5.86986494E+00  1.99495246E+00  1.49414969E+00 -2.37821484E+00  6.11751023E+00
 -6.22018726E-01 -4.48069864E-01  7.89890068E-01 -2.33101375E-01  4.24133207E-02
  1.50147928E-01 -1.45055565E-01  6.44299418E-01  9.80646230E-01  3.01899008E-01
  5.26325161E-01  7.54761326E-02 -1.27105839E+00  2.40690802E-03  7.61093409E-03
 -2.25950966E-02 -1.92323783E-02  2.90087099E-02  5.90615409E-01 -5.33031399E-01
  1.22575275E-01  1.62795361E-01  4.72060242E-02 -7.93223155E-03 -3.72182338E-03
  1.55210207E-02  3.71988749E-03  1.27058289E-03 -8.56816977E-03  2.54380609E-02
  2.41317146E-02 -1.65990902E-02  4.09336637E-02 -5.77392596E-02 -2.89391409E-01
 -1.13404606E-01 -1.73422235E-01 -1.05703502E-01  1.26349780E-01 -9.05689499E-02
 -1.50853393E-02  1.30941331E-02  2.13484235E-02  2.58015283E-02  4.19393425E-02
  4.50465830E-02 -4.63475949E-03 -5.87301902E-02 -1.22628885E-03 -3.18301533E-03
  3.32769928E-03  3.97297021E-02 -2.69521987E-01  4.58976839E-01  1.19515402E+00
  2.47192756E-01  2.53171141E-01 -1.09461780E-01  3.55650722E-02  4.60336097E-02
  1.03919880E-02 -9.11234708E-03 -1.12935643E-02 -1.29925565E-03 -1.88019776E-01
 -2.41321703E-01 -4.93587720E-02  2.70174963E-01  3.38182822E-01  4.74374575E-02
  5.18378406E-02  1.27774388E-01  1.80307068E-01  9.77464288E-03 -2.64005557E-04
 -3.60175885E-02  2.49157617E-02 -1.06029382E-01 -1.19565829E-01  1.78230172E-02
  5.89555090E-02 -6.48673298E-02  2.97525011E-01  8.67802888E-03  1.52960319E-02
  1.73111599E-02 -3.43232639E-03 -6.53204070E-02 -4.06186544E-02  3.55009442E-02
 -1.68661991E-03 -1.19321077E-01 -1.07208573E+00 -1.54544446E-01 -3.98387123E-01
 -5.85267155E-01 -4.82450753E-01 -1.81749531E-02 -3.76047208E-02 -4.37534203E-02
  1.01074672E-02 -9.76342266E-03 -1.50008581E-03  3.05243487E-04  8.59921974E-03
 -1.43385934E-01 -1.24291035E-01 -1.93132949E-01  3.08716316E-02  1.38320799E-01
  2.29061183E-03  6.13022922E-03 -8.53225992E-03 -6.39889125E-02  2.80125778E-01
  2.38287982E-01 -1.18063957E+00  2.83539463E-01  2.92712981E-01 -1.19186951E-01
  2.88555316E-02  3.72057063E-02  8.04136546E-03 -5.99021205E-03 -7.56716689E-03
 -1.24203758E-03 -1.27601303E-01 -1.59108426E-01 -2.07844926E-02 -4.35417570E-02
 -1.01657510E-01 -1.36293484E-01 -6.22828197E-02  8.49479054E-03  2.24300912E-01
 -2.05232660E-02  3.86655654E-02  7.79469000E-02 -3.97382023E-02  1.12872773E-01
  2.54894300E-02  1.84418826E-02 -9.02318437E-03  1.98645318E-02 -1.22049787E-01
 -1.95493627E-06 -5.38613532E-06  4.27733756E-02 -3.60658135E-02  1.32610176E-02
  8.37480567E-05  1.17203339E-02 -9.75287194E-03  3.51592219E-03  4.75692598E-04
  5.62661782E-01 -4.73771602E-01  1.73736413E-01 -3.39697359E-04 -2.47304772E-01
  2.08345156E-01 -7.64891690E-02  2.28486026E-01  3.09252315E-01 -4.49695379E-01
 -6.24760322E-01  2.63261445E-02 -2.40728764E-01 -3.30422956E-01  4.68325917E-01
  6.28747357E-01 -3.27945233E-02  2.24813458E-07  6.40825075E-07 -3.05834893E-02
  2.57279641E-02 -9.38604324E-03 -6.58179053E-06 -3.26918645E-02  2.76808268E-02
 -1.03181294E-02 -5.14663219E-04 -5.46687917E-01  4.60976993E-01 -1.69393368E-01
  3.00407093E-04  1.97647241E-01 -1.66541965E-01  6.12175622E-02  1.86759185E-01
  2.26420044E-01 -3.99061230E-01 -6.81597139E-01 -7.81922234E-03 -1.81411982E-01
 -2.09783559E-01  3.99915978E-01  7.28014846E-01  1.88558378E-02  2.50126545E-07
  7.13380768E-07 -1.46872115E-06 -4.92340518E-06  1.22450673E-05  8.48936923E-05
  8.30898455E-05  6.93126370E-02 -5.83873248E-02  2.14218884E-02  2.77671796E-03
 -2.34379662E-03  8.63201671E-04 -3.88301661E-04  3.28573966E-04 -1.21305505E-04
 -2.19283856E-02  1.85000170E-02 -6.79726505E-03  6.52645847E-02 -5.50369785E-02
  2.01569248E-02 -4.94143307E-02  4.16004149E-02 -1.53070772E-02 -9.23014343E-03
 -1.20074065E-02  1.88267440E-02  2.86949246E-02 -4.83831714E-04 -1.74303503E-02
 -4.19213831E-02  1.25654388E-02 -7.09263968E-02 -2.24050768E-02 -1.24380133E-07
 -4.09399902E-07  1.31735561E-06  8.46208732E-07 -1.43970673E-05  3.62992452E-05
  7.74207608E-05  5.25898623E-02 -4.42861333E-02  1.62625276E-02 -1.17414719E-03
  9.91038734E-04 -3.61061440E-04  6.85321255E-04 -5.78176735E-04  2.11378882E-04
  1.55998459E-03 -1.32508190E-03  4.70314235E-04  1.47413008E-02 -1.23983223E-02
  4.58522021E-03 -4.65960248E-02  3.92673472E-02 -1.43865656E-02 -8.34929368E-03
 -9.05303137E-03  1.90703445E-02  3.72790328E-02  1.52749512E-03  2.86856884E-02
  4.65092915E-02 -4.72924777E-02 -2.86945670E-02  1.18703130E-02  6.85555517E-07
  1.16332085E-06  2.79257124E-03 -2.35429296E-03  8.56708600E-04 -3.95322791E-07
 -1.74331598E-02  1.46913307E-02 -5.40594105E-03 -1.16255646E-04 -9.49534108E-04
  8.05656861E-04 -3.60243196E-04 -2.23877956E-05  2.61323258E-02 -2.20442594E-02
  8.08749271E-03  2.34116038E-03  3.62179497E-03 -4.06759610E-03 -3.46283729E-03
  7.75881688E-04  1.67848093E-02  1.81744185E-02 -3.85078616E-02 -7.55054615E-02
 -3.13619444E-03  1.51082616E-07  3.77327004E-07 -2.52548385E-07 -5.31270492E-06
  2.65217988E-05 -2.42960121E-05 -1.10694147E-04 -4.95917910E-02  4.18264424E-02
 -1.53637767E-02 -2.88516614E-03  2.43825417E-03 -8.95185615E-04  4.07642911E-04
 -3.45044028E-04  1.26831738E-04  2.32810225E-02 -1.96520527E-02  7.21912270E-03
 -7.20597538E-02  6.07446249E-02 -2.23360070E-02  4.72517624E-02 -3.98013053E-02
  1.46393441E-02 -1.00732119E-02 -1.31045850E-02  2.04443575E-02  3.09127740E-02
 -5.69144637E-04  3.34262160E-02  6.40617557E-02 -4.34030740E-02  3.03406449E-02
  2.47767553E-02  2.64342963E-02  6.24332129E-02  2.62245034E-01  2.53357352E-01
 -1.57693935E-01 -1.21127252E+00 -8.63580038E-01 -7.76559406E-01  6.76448884E-01
  5.89939927E-02 -1.18616004E+00 -9.20755377E-01  1.32634353E+00 -1.53323459E+00
  4.83055947E-01  3.29643887E-01 -6.63789461E-01  3.90360665E-02 -3.88897658E-01
 -6.58875705E-01  2.73387251E-01 -5.36214504E-01  2.74349648E-01  9.76917993E-01
  1.62920250E+00 -5.61522242E-01  6.46716866E-01 -4.07391793E-03 -2.30878816E-02
  2.49800735E-01  1.37225527E-01 -4.33658747E-01  9.81890528E-01 -8.86058058E-01
 -4.99099205E-01  1.50457355E+00 -9.25914494E-01 -1.51988507E+00 -1.48188191E+00
  8.76658182E-01  4.31437195E-01 -9.11638548E-02  5.10308208E-02  4.33782886E-01
 -1.88623281E-02  2.24481905E-01  3.76519432E-01 -1.54424180E-01  2.93714435E-01
 -5.94822683E-01 -7.36911339E-01 -1.51893894E+00  4.87856648E-01 -5.51670213E-01
 -1.41730169E-03 -4.88076490E-03  1.79433238E-02 -4.35978747E-03  1.55616644E-01
 -1.33748082E+00  7.89708424E-01 -1.03738948E-01 -1.94849651E-01 -1.95491728E-01
 -1.68279140E-02 -4.19523215E-03  4.29925245E-02  3.14699888E-03 -4.46252199E-05
 -1.03009271E-02  1.17472797E-01  3.33627525E-02 -2.88998413E-01 -3.41548509E-01
 -8.58231765E-02  8.70607007E-01  3.51386965E-02  1.49494146E-01  2.93766070E-01
 -1.17747203E-02  1.95247723E-02  2.18712026E-02 -9.74182028E-03  1.57019203E-02
 -2.94503650E-01  2.23775290E-01  6.48153325E-02 -4.40655378E-02 -1.41181269E-02
 -4.62462589E-03 -1.44092726E-02  4.08853992E-02  4.88281159E-02 -9.28514268E-02
 -1.41874230E+00  8.60143260E-01  9.67173608E-02  2.06495226E-01  2.49718866E-01
  1.15535022E-03  3.69814908E-03  6.34925869E-03 -2.44150457E-03 -3.12187951E-03
 -6.14494485E-04  6.67039591E-02  7.46595817E-02 -1.23522020E-02 -5.86605546E-01
 -7.53058650E-01 -1.54637710E-01 -1.01031284E-01 -2.02180698E-01 -2.23972676E-01
  6.79935655E-02 -1.78121815E-02 -3.26185033E-02  3.34690912E-02 -1.43687955E-01
  1.43430480E-01 -5.45371880E-02 -4.09795888E-02  4.73214583E-02 -1.81941978E-01
  7.83848177E-03  1.82571906E-02 -5.00562656E-03  6.91860545E-03  3.50126982E-02
 -2.92918818E-01 -1.47537738E-02 -6.72018390E-03  2.93826325E-02  1.94139169E+00
 -3.14454612E-01  6.01807775E-02  1.18052444E+00  3.13024184E-01  2.26711406E-01
  2.02819019E-01 -1.80434219E-01  1.08982901E-03 -1.70582730E-03  2.60019734E-04
 -4.67775121E-04  3.96899462E-03  2.81138558E-01 -1.33744266E-01  4.42790948E-02
  6.23357128E-03  3.67049000E-02  2.26930006E-03  7.38949114E-03 -2.38393756E-02
 -9.72092528E-03 -1.47292244E-01  1.93775640E+00 -3.64264540E-01  1.43245140E-01
  1.85661253E-01  4.25901900E-02 -2.69657101E-02 -3.20040372E-02  4.12743927E-06
  6.25864340E-03  7.98547707E-03  1.51642114E-03  2.04137472E-01  2.42473160E-01
  5.08941078E-04 -7.49430981E-01 -9.04448205E-01 -4.08090456E-02 -2.67930901E-01
 -4.04666144E-01 -2.35982374E-01 -2.69213329E-02 -1.34301410E-02 -1.24331678E-02
 -5.19393711E-03  5.55624295E-02 -1.94820743E-01  1.01301980E-02 -2.33425068E-03
 -5.21052417E-02  2.95990363E-01  5.84024592E-03  9.08881759E-03  9.42296649E-02
  7.74595378E-02 -9.36469928E-02 -4.33929143E-01 -1.56007348E-01 -2.07277245E-01
 -6.01860548E-02  3.55244516E+00  3.45512291E-01  1.29838333E-02 -1.08117150E+00
 -9.66624391E-01 -9.99977232E-02 -4.96176980E-02  1.87902941E-01 -8.39793201E-01
  3.33931723E-01 -1.25759188E-01 -4.68218883E-02  1.05924226E-01  1.76528329E+00
 -6.15111036E-01  3.53084137E-01  7.57515291E-02 -2.63821168E-01 -4.32083479E-02
 -7.82851173E-02 -4.46037792E-02  6.59669436E-02  3.23810792E-01  9.06435772E-01
  1.82388327E-01 -1.57902379E-01 -1.01956912E+00 -3.10119775E+00  7.05447269E-01
  9.54906731E-01  3.20530586E-01  8.79965806E-01  2.72715908E-01  2.34538191E-01
 -2.42732568E-01  4.02738928E-01 -5.30071713E-02  3.87651060E-01 -1.39312412E-01
  4.43856879E-01  8.17399998E-01 -3.84125566E-01 -3.77258970E-01  3.30796090E-01
 -1.17475498E+00 -4.01533184E-03 -1.22019140E-02  3.18552622E-02  5.64721714E-02
 -1.77925558E-01 -8.95452897E-01  7.45340474E-01  1.06021707E-01  4.38823258E-03
 -3.30712928E-01  8.07777456E-03  4.05571390E-03 -1.50501558E-02 -1.96460760E-03
 -1.10809606E-03  3.32774984E-03 -3.93386214E-02 -4.97477482E-02 -8.43993153E-03
  1.31339574E-02  2.75518382E-01  7.08301217E-01 -4.16212422E-02 -2.62089972E-03
  1.27373834E-01 -1.12935559E-01  2.63530803E-02 -4.44045595E-02  3.79040978E-03
  1.67320357E-03 -1.54530500E-01 -3.22834134E-02 -1.39398304E-01  2.84119547E-02
  1.25279965E-02  1.53121435E-03  4.04997860E-03 -5.10858582E-03 -4.67330662E-02
  2.94352486E-01 -6.39074806E-01  1.91081357E-01  5.89350317E-02  5.11403056E-02
 -5.11957251E-02 -3.93001264E-02 -4.71465369E-02 -1.36786624E-03  9.91528697E-03
  1.25099549E-02  2.02001401E-03  2.15911504E-01  2.48880127E-01 -2.00963849E-02
 -3.38130528E-01 -3.24403762E-01  2.09455004E-01 -1.03567535E-01 -1.28747476E-01
 -1.58388001E-02 -2.67641040E-02  3.08720483E-02  4.84186093E-02 -2.62841506E-02
  7.32647255E-02  1.44761653E-01  6.14998994E-02  8.16649205E-02  1.49749949E-02
 -2.29270023E-01 -6.97646602E-03 -1.91900130E-02 -1.49022235E-02 -5.21954415E-02
 -9.39981746E-02  3.11011349E-01 -1.93289457E-02  1.97748214E-02  1.16338002E-01
 -1.00740035E+00 -5.89920742E-02 -4.49361940E-01 -1.03330709E+00  7.17623209E-01
 -1.00812134E-01  8.48919616E-02  5.57133188E-01 -1.51118527E-02  6.37890977E-03
 -2.59808158E-03 -5.00902632E-04 -5.51402175E-05 -5.65959193E-01  2.88338844E-02
 -3.30490450E-01  4.73832750E-02  5.12636331E-02  3.15634089E-03  9.91596116E-03
 -2.87070756E-02 -3.25896836E-02  9.14199451E-02  6.90403699E-01 -1.03286957E+00
  1.74376432E-01  2.57456797E-01  1.37502430E-01 -4.95243941E-03 -6.67503623E-03
 -2.15812037E-03  1.07253749E-03  1.51602217E-03  6.58156081E-04  6.61746059E-02
  8.93549187E-02  2.93758902E-02 -4.10531228E-01 -5.60238867E-01 -1.98641340E-01
 -1.72379880E-02 -1.79129845E-02  6.95814589E-03 -2.99983200E-02  2.19800198E-02
  1.98388136E-02 -1.29228362E-02  3.41979537E-02 -1.02979023E-01  6.53585623E-02
  9.67878241E-02 -6.57478918E-02  2.19778543E-01 -9.43630908E-03 -1.00816157E-02
 -4.07605196E-02  6.36584102E-03  1.49088976E-01  9.50732764E-02  2.15941163E-02
 -1.77527856E-01 -5.53314284E-01 -1.27816993E+00 -9.04101912E-01 -1.48751719E+00
 -1.12907791E+00 -1.48890164E+00 -6.91684885E-01 -1.19817524E+00 -1.02765022E+00
 -4.84629082E-01  3.59143915E-02 -9.97925593E-02 -6.78486015E-02  4.68613323E-01
  1.45890735E+00 -4.76681199E-01 -1.22909327E-02  2.61033251E-01 -1.07550408E+00
  3.17872232E-02  5.30460147E-02 -8.06267743E-02 -1.69799040E-01 -2.01888517E-01
 -3.69249042E-01  2.87214958E-01  7.17795146E-01  1.02670642E+00 -8.95035576E-02
 -2.33750073E-02  8.01294839E-01  2.25781265E+00  2.46442494E+00  6.86905864E-02
  4.20243839E-01  9.22459883E-01 -9.30645691E-01  4.14823098E-01 -2.44829077E-02
 -1.05995638E-01  2.69192720E-01  1.48529216E+00 -7.18882437E-01 -2.23101876E-01
  3.09365009E-01 -9.13656145E-01 -2.75282812E-03 -8.04830034E-03  1.80521446E-02
  5.59452851E-02 -3.44152066E-01  4.69868490E-01  1.70689010E+00  9.22360086E-02
 -2.06995550E-02 -3.54625811E-01  1.63796916E-02  1.40191806E-03 -4.91227085E-02
 -3.87265011E-03  3.37769534E-04  1.34360835E-02 -1.00409370E-01 -2.72949317E-02
  2.50180741E-01  2.01921813E-01  1.96443765E-01 -1.17474396E-01  8.72711599E-02
  7.50848571E-03 -2.61794420E-01 -9.59073057E-02  2.82135246E-02 -2.49813560E-02
 -2.44638177E-03  1.55554469E-02  1.00412458E-01 -1.54336071E-01 -1.21103057E-01
  4.71949326E-02 -6.48156666E-03  3.30426833E-03  1.02729261E-02 -2.87920882E-02
 -4.23037500E-02  2.53987843E-01 -2.22135054E-01 -1.80471057E+00 -2.31566161E-01
 -3.22632250E-01 -1.30090506E-01 -2.14336049E-02 -2.29457395E-02  6.77846280E-03
  5.49917933E-03  6.22863933E-03 -8.08638251E-04  1.06524700E-01  9.98819448E-02
 -7.22283768E-02 -2.85160093E-02  9.38015690E-02  3.47448260E-01 -1.39620344E-01
 -1.86623559E-01 -5.68604219E-02 -3.17681000E-02  2.50808513E-02  2.96836823E-02
 -1.83684776E-02  5.24716532E-02  1.05947206E-01  1.07022140E-01  1.85085489E-01
 -4.32754735E-02 -4.22598457E-02  1.41330139E-02  3.60908686E-02 -2.65042183E-02
  1.91936950E-02  1.37965682E-01 -5.22206109E-01  2.75109260E-02 -6.23868791E-02
 -2.58851230E-01  8.67772098E-01 -3.78156600E-01 -7.67559197E-02  1.01315878E+00
  1.34266546E+00  7.47919799E-02  1.32036533E-01  1.18029157E-01  1.27845166E-02
 -5.68813276E-03  2.11334770E-03  3.67386985E-04  7.19226636E-04  5.87114081E-01
 -2.30033351E-01  1.19744123E-01  1.44095316E-02 -4.73443940E-03  3.50615797E-03
  1.02627390E-02 -2.30975238E-02 -7.11206295E-02  4.33140057E-01 -3.18658056E-01
 -1.24567515E+00  1.90406379E-01  2.36652326E-01  2.90121442E-02  3.98628070E-02
  4.65468604E-02 -2.07087166E-03 -1.00631268E-02 -1.18599659E-02  2.23648729E-04
 -2.09646020E-01 -2.35026356E-01  3.74954961E-02  1.30654787E-01  5.52466953E-02
 -2.71712146E-01  1.41063142E-01  1.55905916E-01 -3.14000431E-02 -4.44035856E-02
  1.62379531E-02  3.19292788E-02 -2.67052194E-02  1.06484564E-01  8.89101130E-02
  8.94917725E-02  9.96929056E-02 -2.25812729E-03 -1.73709282E-01  6.16519728E-02
  8.43354961E-02  3.00978086E-01  2.56905518E-01 -2.73183034E-01 -9.82179357E-01
 -1.18079569E+00 -1.00438224E+00  1.08119774E+00  1.67218747E+00 -5.20865557E-02
 -1.68353912E-01 -2.90023992E-01 -3.21134721E-01 -2.25946340E-02 -8.19484320E-01
 -2.15915576E+00 -8.48158372E-02  5.66398766E-01  4.24038180E-01 -7.74460060E-02
 -5.11582673E-01  3.63684308E-01  1.43078136E-01  5.09783807E-01 -1.53838231E-01
  2.21369953E-01 -3.50809904E-02 -4.07242533E-02  3.16159036E-01  1.93930074E-01
 -4.93746528E-01  5.64842475E-01 -1.21169672E+00 -6.97982056E-01  2.01555662E+00
 -2.04769916E+00  1.33264382E-01  2.38754046E-01  2.19577352E-01  4.12293158E-01
  8.32395976E-01  1.30800873E+00  8.72006679E-01 -1.76695465E-01 -5.13890117E-01
 -5.19254408E-01  7.84120280E-02  5.60371606E-01 -3.16581521E-01 -1.53101559E-01
 -5.51476008E-01  1.89585862E-01 -3.75732179E-01 -2.48459713E-03 -8.99762063E-03
  3.67669610E-02 -1.87163534E-02  1.16500548E-01 -7.72055171E-01  2.49951504E+00
  5.62696522E-02 -1.24437349E-01 -5.21021471E-01 -7.68469358E-04  9.13585013E-03
  2.73769777E-02 -4.54142076E-04 -2.46350578E-03 -5.24476625E-03  1.02283546E-02
 -6.53116619E-02 -2.11020897E-01 -6.89652279E-02  1.53014967E-01  6.39866282E-01
 -2.26760554E-03  5.10458954E-03  2.12359832E-02 -4.47369242E-03  9.50635145E-03
  5.90761512E-03 -1.45518558E-03 -6.40373412E-03 -2.55290667E-01  4.15019036E-02
 -1.16744039E-01  1.20024584E-02  1.75027287E-02 -1.91032516E-03 -7.18441298E-03
  3.14233799E-02 -2.57849098E-02  1.84331016E-01 -9.75539701E-01 -7.04980477E-01
 -5.60112564E-02 -4.60538037E-02  5.57553317E-02 -1.94399160E-02 -2.86235870E-02
 -1.51140201E-02  4.35582674E-03  6.62458282E-03  3.96068585E-03  1.42425113E-01
  2.07837627E-01  1.05638326E-01 -3.99851032E-01 -5.63662148E-01 -2.42585538E-01
 -1.48256412E-01 -1.86728466E-01 -2.92949681E-02 -1.06165079E-02  9.13652677E-03
  8.40607876E-03 -4.93704012E-03  1.14644053E-02  1.26079868E-01 -1.03639472E-01
 -1.38674147E-01  8.42047076E-02 -2.47986375E-01  5.95451278E-03  1.73132702E-02
 -2.55836551E-02  3.05063095E-02  1.65787721E-01 -3.46571616E-01  2.17687748E-02
 -2.35846703E-02 -1.34601872E-01  1.77311657E+00 -1.61518029E-01  3.04143917E-01
  1.35049973E+00  2.84785166E-01  6.00339507E-03 -1.15926027E-01 -3.35103327E-01
  1.36551502E-02 -5.24462918E-03  1.10595562E-03  1.40394378E-03 -4.63020845E-03
  4.38006014E-01 -8.37187479E-02  1.88866006E-01 -1.81263364E-02 -2.09144236E-02
  2.05467273E-03  7.34285033E-03 -2.93371021E-02  1.25156637E-02 -1.14200989E-01
  8.15377541E-01 -1.90606193E+00  2.62053233E-01  3.40135667E-01  7.91979988E-02
 -1.30763726E-02 -1.78517654E-02 -6.34712280E-03  3.08890020E-03  3.97881014E-03
  8.49806680E-04  1.06695573E-01  1.46256111E-01  5.34189730E-02 -3.60035252E-01
 -4.83608241E-01 -1.53279628E-01 -6.14608437E-02 -8.64607996E-02 -3.68203029E-02
  5.42044396E-04  3.18800435E-03  7.56757710E-03 -3.31695723E-03  8.34195515E-03
 -9.43841444E-02  5.85681988E-02  8.48257975E-02 -5.83465483E-02  1.95795526E-01
  2.11811957E-07  1.32295396E-07 -6.27807487E-03  5.28843409E-03 -1.94199799E-03
  1.16463604E-06  1.89889505E-02 -1.59981760E-02  5.87508976E-03  8.21496522E-06
 -6.82709959E-02  5.75287975E-02 -2.11807791E-02 -3.31185971E-04  3.68406636E-01
 -3.11131407E-01  1.13886738E-01 -1.71157157E-03 -3.32494891E-03  2.17146143E-03
 -1.85033403E-03 -1.32048668E-03  1.11245555E-02  2.07599422E-02 -1.51517683E-02
  6.41201865E-03  7.61955435E-03  7.11482324E-07  4.94693351E-07  7.74370774E-03
 -6.52601002E-03  2.39142788E-03 -8.71430177E-06  1.90022369E-02 -1.60058524E-02
  5.89177363E-03 -6.25163508E-06  8.20822577E-02 -6.91100493E-02  2.53886969E-02
  8.44410760E-04 -4.92117815E-01  4.14866627E-01 -1.52029875E-01  9.17116358E-03
  1.72100240E-02 -1.23923626E-02  5.82984546E-03  6.37946805E-03 -3.60050151E-02
 -6.72592434E-02  4.89058979E-02 -2.12371162E-02 -2.47408343E-02 -7.60208299E-08
 -2.78311488E-07  1.19699148E-06 -4.59939817E-07 -6.06405717E-06  2.93403532E-05
  2.79305050E-04 -7.45178045E-02  6.28537251E-02 -2.31227829E-02 -3.46102591E-04
  2.91562454E-04 -1.07539957E-04  2.10945812E-04 -1.77625672E-04  6.57247895E-05
  3.11585730E-03 -2.62479041E-03  9.68456103E-04 -7.94953444E-03  6.69695189E-03
 -2.47080537E-03  1.85757818E-02 -1.56490143E-02  5.71286784E-03  1.43192518E-03
  1.99331930E-03 -2.76409113E-03 -3.59750942E-03  2.21339944E-04 -1.56814440E-03
 -1.72387593E-03  3.59474253E-03  6.98707243E-03  2.78398995E-04 -6.27210637E-08
 -2.39273644E-07  1.10085267E-06 -7.60486642E-07 -2.83143581E-06  1.44532885E-05
 -5.30148847E-04 -7.05533284E-02  5.93277792E-02 -2.18731785E-02  4.25743952E-04
 -3.58398566E-04  1.31794669E-04 -4.78050392E-04  4.02453709E-04 -1.47979929E-04
 -4.31852019E-03  3.63518665E-03 -1.33680735E-03  1.11761319E-02 -9.40590173E-03
  3.45967255E-03 -4.83925605E-03  4.04827842E-03 -1.49556249E-03 -1.29373528E-03
 -1.88646706E-03  2.38403770E-03  2.65474014E-03 -2.99917421E-04  3.81438725E-03
  6.43391745E-03 -5.99841460E-03 -2.21073167E-03  1.85381732E-03  1.59939195E-07
  3.29101906E-07 -9.39379461E-01  7.91527248E-01 -2.90623752E-01 -5.48758931E-06
  1.15744375E+00 -9.75269973E-01  3.58086406E-01  2.15986598E-05 -7.87500125E-01
  6.63557393E-01 -2.43615928E-01 -1.92903132E-05  4.20377216E-01 -3.54230801E-01
  1.30027005E-01 -9.41930434E-03 -1.70176390E-02  1.34836460E-02 -1.80358626E-03
 -5.82921761E-03 -1.42326044E-02 -2.57018038E-02  2.04009079E-02 -2.61110565E-03
 -8.79018643E-03 -5.04889908E-08 -1.96611517E-07  9.38464185E-07 -8.40428484E-07
  2.22615114E-06 -1.88836008E-05 -3.04061353E-04  1.59072735E-01 -1.33961669E-01
  4.92167390E-02  4.20957904E-04 -3.54272276E-04  1.30144681E-04 -6.55312462E-04
  5.51911016E-04 -2.02691143E-04 -4.56187762E-03  3.83965354E-03 -1.41049546E-03
  1.08524806E-02 -9.13059386E-03  3.35535408E-03 -4.58094575E-02  3.86183568E-02
 -1.41685596E-02 -2.71269654E-03 -4.74030635E-03  4.07111967E-03  5.09260665E-04
 -1.50062185E-03  8.13493361E-03  1.42530775E-02 -1.21563224E-02 -1.25822362E-03
  4.54184904E-03  1.85970589E-03  1.95541477E-03  1.23151520E-02  8.90674039E-03
 -1.55588963E-02 -5.77999859E-02 -4.97298038E-02 -3.69733165E-02  6.00767701E-02
 -6.07121645E-01 -3.89783125E-01 -3.20130645E-01  3.87992653E-01  6.46955952E+00
  4.20197770E-01  1.41471273E-01 -9.72477221E-01 -6.20228034E-02  1.70184842E-02
 -1.70129049E-02 -1.51585966E-03  1.16725365E-02  3.12709983E-01 -5.40204640E-02
  1.05095643E-01  7.44932078E-03 -1.06865186E-01 -1.70026181E-03 -2.00104893E-03
 -1.14821607E-02 -1.43553556E-02 -1.98435372E-03  6.17547837E-02 -5.55760613E-03
  1.28359778E-02  5.29237335E-02  2.60830297E-01 -5.50838364E-01 -3.92058847E-01
  7.12650375E-01 -4.78532283E+00  1.59838285E+00  1.54798692E+00 -9.50452871E-01
 -3.34338870E-03 -7.32625679E-03 -3.45508768E-03 -1.55380531E-03  1.92887729E-02
  1.16368121E-01 -4.84559324E-02 -3.04631509E-02  3.51190923E-02 -1.27970945E-01
 -1.09809868E-03 -4.15325644E-03  1.90043719E-02 -1.34565980E-02  2.89333774E-02
 -3.22813309E-01 -1.97942294E-01 -6.31880541E-02 -6.28882208E-02  3.28949743E-02
  7.36140661E-05  1.38405053E-03  3.53420808E-03 -7.26978781E-05 -8.41969068E-04
 -2.06054357E-03  4.45132447E-04 -1.52670392E-02 -4.30470199E-02 -1.08056325E-02
  5.96282810E-02  1.97411631E-01  4.49517496E-02  9.54358470E-02  1.14667987E-01
 -1.55128279E-03  6.05124085E-03  7.32635724E-03 -2.73430380E-03  2.64293315E-03
 -7.61064572E-02 -7.11690797E-03 -6.10904566E-02  1.25682742E-02 -1.49790504E-03
  5.54707872E-04  1.92362704E-03 -7.49159212E-03 -8.33588345E-04  5.29964200E-02
 -9.49630651E-02 -1.03326230E+00 -1.47924608E-01 -2.13168141E-01 -1.02432173E-01
 -3.08735941E-03 -2.83510752E-03  2.25743940E-03  1.89045968E-03  1.95528438E-03
 -7.84922795E-04  2.55800619E-02  2.25476760E-02 -2.12693365E-02 -4.15605668E-02
 -2.50279799E-02  6.61580885E-02 -5.26733739E-02 -6.91175071E-02 -1.79596469E-02
  4.89509968E-03 -4.23778823E-03  8.07314089E-04 -6.15369754E-04  6.51957499E-03
 -1.10403207E-03  4.45425757E-02  4.07759130E-02 -9.01329583E-03 -3.11585816E-02
 -2.29260817E-04 -2.28786898E-04  8.36033377E-01  9.38633260E-01 -1.45889392E-01
 -2.46887676E-03 -1.05686775E+00 -1.18833405E+00  1.79618882E-01 -1.91288659E-03
  7.64226769E-01  8.69631996E-01 -1.01738522E-01  6.45365408E-01 -4.95129962E-01
 -4.71446846E-01  3.16442106E-01 -4.29314150E-03  1.56179333E-02  1.83698074E-02
 -6.81120299E-03  5.94015760E-03 -1.66095251E-03  1.30257318E-02  1.83028238E-02
 -6.94863630E-03  9.13793826E-03  1.49656462E-04  5.60967385E-04 -2.58968470E-03
  2.37960757E-03 -4.23519844E-02  3.76165845E-01 -7.47340334E-01 -6.84364910E-02
  3.65588196E-02  3.20732374E-01 -9.13858230E-04 -1.87266397E-03 -2.14571007E-03
  1.29590050E-04  1.51007202E-04 -8.23180681E-06  1.15054088E-02  2.15143567E-02
  2.13991401E-02 -7.13859075E-02 -1.19045963E-01 -9.34638056E-02 -9.85261967E-03
 -7.54567383E-02 -1.73641374E-01 -3.65485763E-03 -2.48420380E-03 -6.70841369E-04
 -1.57401492E-03  1.20963766E-02  1.07361827E-02  3.77680167E-02  5.39005382E-02
 -1.60907023E-02  2.03325506E-03 -2.25984485E-02 -1.96199080E-02 -5.17121949E-02
 -4.12905719E-02  5.46921490E-02  4.13402872E-01  3.28079834E-01  2.57442664E-01
 -3.59262590E-01  3.36605280E-01  2.38697620E-01 -1.57142485E-03 -7.75822452E-01
 -9.94379560E-01 -1.06919949E+00 -1.72600417E+00 -1.24495390E+00  3.35414778E-02
 -6.43368765E-02 -2.70985784E-02  2.87610036E-03  7.00597094E-02 -5.49213465E-02
 -1.66551591E-01 -2.68309289E-01  8.75571695E-02 -7.28318849E-02 -2.54290041E-02
 -1.81833935E-03 -6.67602188E-02  1.92177880E-02  2.68123908E-01 -6.23319311E-02
  2.91970873E-01  3.29229834E-02 -8.54043929E-01 -1.37509309E+00  2.74289355E-01
  5.18657035E-01  5.26034556E-01  2.76375512E+00  5.52859121E-01  1.14930119E+00
  1.34309725E+00  2.41944983E-01  1.47722718E-03  1.56244596E-01 -2.43850600E-02
 -2.63153179E-02  2.97070218E-01  1.41064874E-01  2.66020942E-01 -2.43547859E-02
 -2.69052958E-01  1.33249902E-03  5.21816060E-03 -2.53767636E-02  2.39087210E-02
 -6.30111140E-02  4.66396279E-01  1.41327451E+00  1.36995436E-01  7.19703717E-02
 -2.46934205E-01  1.22358653E-03 -9.70151771E-04 -6.59870787E-03 -3.35978417E-04
  1.15462337E-03  4.23181828E-03 -1.32361666E-02  1.06743886E-02  7.18712622E-02
  5.40840817E-02 -2.54486578E-02 -2.44173904E-01 -6.24038216E-03 -6.93552715E-02
 -1.68812379E-01 -2.64240582E-03 -6.36892024E-03 -7.31907023E-03  1.38536940E-03
  5.49201636E-03  8.98427204E-02 -2.36798089E-02  2.59337573E-02  1.74584994E-03
 -1.65542341E-02  1.51840446E-03  5.93066256E-03 -2.86849088E-02  2.59843216E-02
 -4.21501747E-02  1.81560325E-01 -1.87170924E+00 -1.55519630E-01 -2.74114432E-01
 -2.43670771E-01  3.46207922E-03  4.41122370E-03  8.21491311E-04 -2.01760459E-03
 -2.42206417E-03 -7.30949790E-05 -3.57731182E-02 -4.55698800E-02 -8.45906111E-03
  1.10829505E-01  1.43492999E-01  3.25155534E-02 -6.18924393E-02 -4.54822598E-02
  7.61926160E-02 -3.39210495E-03 -1.65905428E-03 -4.60167499E-03  1.22124176E-03
 -6.95128618E-04 -2.47801756E-02  2.21569376E-02  3.73302288E-02 -2.20834072E-02
  6.85259590E-02  2.58949498E-03  3.82220429E-03 -1.21510794E-01  3.00667899E-01
  1.21163625E+00  4.37110827E-02  1.60972132E-01 -3.99682668E-01 -1.60885298E+00
 -5.24906493E-01 -5.34739776E-02  2.02847344E-01  7.25237514E-01  1.16363656E+00
 -2.83551407E-02 -9.45343577E-02 -1.65707069E-01 -2.07416751E-02 -1.39088872E-04
 -6.37197135E-03 -2.22870360E-03  1.98709364E-02 -1.64647202E-01  2.58396634E-02
 -6.96528548E-02  3.91947457E-03  2.82960328E-02  2.23396961E-03  8.61980546E-03
 -4.09103610E-02  3.32461377E-02 -3.35993833E-03  4.47673683E-02 -1.82455161E+00
  2.05320107E-01  2.70907628E-01  7.40554327E-02 -5.49575882E-04 -2.19586952E-03
 -4.20354691E-03 -2.06733264E-03 -1.50730185E-03  2.57676545E-03  1.64374218E-03
  1.78718670E-02  4.33557648E-02 -2.81009258E-02 -8.63951517E-02 -1.44450469E-01
  6.92407857E-02  7.05988964E-02 -3.15640008E-02 -1.15760898E-03 -8.25955859E-03
 -6.21245120E-03  4.39162102E-04  1.14834787E-02  4.75313756E-03  7.00299326E-02
  9.04625491E-02 -2.84525378E-02  5.90177559E-03  1.06906591E-06  2.99062190E-07
 -1.60170842E-02  1.34982689E-02 -4.95699462E-03 -1.89742224E-05  5.55115977E-02
 -4.67888884E-02  1.71855708E-02  7.26430388E-05  6.08839125E-02 -5.12652813E-02
  1.87655139E-02  1.33980822E-04 -4.58716244E-02  3.86364899E-02 -1.44080716E-02
  7.81974751E-04  1.43789594E-03 -1.09755383E-03  2.80695222E-04  5.06042691E-04
 -3.00420915E-02 -4.40703940E-02  5.51308002E-02  6.02561303E-02 -7.23015723E-03
 -3.11870503E-07 -1.15847486E-07  7.28960346E-03 -6.13923179E-03  2.25352185E-03
  7.57819313E-06 -2.65422218E-02  2.23564098E-02 -8.20641640E-03 -1.08216196E-04
 -4.59871573E-02  3.87752872E-02 -1.42388503E-02 -1.74264705E-04  3.04704362E-02
 -2.54865833E-02  9.41535027E-03  3.01930467E-03 -2.39941440E-04 -1.10805577E-02
 -3.62399120E-02 -4.46541908E-03 -2.08022561E-02 -8.22684850E-03  6.46151632E-02
  1.85842801E-01  1.97820653E-02 -1.72954856E-07 -6.97644300E-07  3.76710651E-06
 -4.24751558E-06  2.42831242E-06  3.94489477E-06  2.28948795E-04  1.46605798E-02
 -1.23637358E-02  4.48917896E-03  7.07128990E-05 -5.95769776E-05  2.19115917E-05
 -3.76967785E-04  3.18026083E-04 -1.16766918E-04 -2.68968632E-03  2.26819902E-03
 -8.33262973E-04  8.16237069E-03 -6.88255153E-03  2.52791089E-03 -5.69266174E-03
  4.79014967E-03 -1.77779630E-03  2.47367545E-04  8.45623178E-04  1.17502308E-04
  2.62506539E-03  5.96490534E-04 -3.48592226E-03 -7.44684052E-03  3.62622661E-03
 -8.11508783E-03 -3.43718927E-03 -7.32256080E-08 -3.01351933E-07  1.67140348E-06
 -2.09524719E-06  4.46651719E-06 -1.80356454E-05 -6.91788681E-05  1.20083022E-02
 -1.01359466E-02  3.72052656E-03 -1.45284244E-04  1.22256970E-04 -4.49330579E-05
 -5.96787363E-04  5.03396194E-04 -1.84858864E-04 -1.66455672E-03  1.40691419E-03
 -5.16241969E-04  3.72582549E-03 -3.15292390E-03  1.15613925E-03 -1.17440429E-02
  9.88032335E-03 -3.62212741E-03 -6.85122813E-04 -8.71481663E-04  1.40953921E-03
  2.22160812E-03 -1.73046517E-05  2.35573984E-03  3.16514965E-03 -4.64190049E-03
 -6.53298163E-03  2.46422909E-04  4.86572980E-08  8.46824180E-08  1.11331761E-03
 -9.36514547E-04  3.44033342E-04 -1.67488435E-06 -2.13947628E-03  1.79961227E-03
 -6.61344007E-04  1.28982874E-05  1.27643316E-03 -1.07305354E-03  4.02484507E-04
  9.27199410E-06  1.65919063E-03 -1.40323529E-03  5.09327945E-04 -6.65724913E-02
  4.82483853E-02  2.95306255E-01  1.07679076E+00  1.46324235E-01  3.23168771E-02
 -2.38525803E-02 -1.43862563E-01 -5.25493973E-01 -7.15097056E-02  6.84457294E-07
  2.76500067E-06 -1.49587552E-05  1.69662071E-05 -1.27890114E-05  3.61048892E-05
 -1.14827160E-04 -3.44542291E-03  2.93159252E-03 -1.05730527E-03 -3.59620450E-05
  3.00514714E-05 -1.11523578E-05  3.76095692E-03 -3.16831296E-03  1.16353883E-03
  1.87410265E-02 -1.57846905E-02  5.79822996E-03 -4.49363699E-02  3.78368803E-02
 -1.39031040E-02 -5.77559847E-04  4.82146408E-04 -1.79010452E-04 -2.30626722E-03
 -5.58853920E-03  1.61381879E-03 -9.63360709E-03 -3.00948768E-03  9.93655349E-03
  2.52592103E-02 -5.56003523E-03  4.90975390E-02  1.42812307E-02 -9.86419278E-03
 -2.49225395E-03 -3.75208114E-03  5.72645153E-03  2.77147741E-02  1.38446722E-01
  6.10474378E-02  7.59683384E-03 -1.76593254E-01  1.70608659E-01 -3.57303318E-02
  5.85474866E-02  2.74990936E-01 -1.22493950E+00 -2.93772848E-01 -2.13804405E-01
  3.67252636E-01  7.62668888E-03 -2.03485637E-02 -1.70929535E-02  5.26962358E-03
  5.90779018E-03  1.14321377E-01 -1.68019381E-02  3.60480243E-02  5.27259909E-03
 -5.39672148E-02 -2.54083563E-04 -6.13426105E-04 -6.51923525E-03  3.45365585E-03
  3.04781936E-02  1.20761590E-01  3.01984970E-02  7.53789876E-03 -7.70812176E-02
 -4.67185598E-01 -2.01750952E-01 -3.48653840E-01 -2.97479268E-01  1.74288452E+00
 -2.34486083E-01 -1.82114104E-01  2.61862380E-01 -1.55571599E-02 -7.37489056E-04
  3.77770573E-03 -7.16537117E-03  3.82551589E-02  2.20584042E-01  2.63057809E-02
  4.34508721E-02  4.77765304E-02 -3.47546787E-01  6.93172756E-04  2.81876014E-03
 -1.53963258E-02  1.79972496E-02 -2.72757175E-04 -1.83129009E-01 -1.99496140E-01
  1.15445070E-02  1.95416670E-02  1.59130541E-02  2.94777016E-05 -5.13065202E-06
 -1.09240685E-04  1.75119698E-05 -7.55368077E-04 -2.11505910E-03  7.77859697E-05
 -4.13020096E-03 -1.15067390E-02 -5.29148775E-03  1.99897034E-02  7.15728319E-02
  7.59229439E-03  3.79985216E-02  7.89905378E-02  5.51029107E-04  2.95694236E-03
  2.96095323E-03 -5.71474940E-04 -2.49195121E-03 -1.65471818E-02 -7.44650299E-03
 -1.66107876E-02  2.61190129E-03  9.22350955E-03 -7.04104464E-04 -2.80457846E-03
  1.49230499E-02 -1.58418429E-02 -4.21305979E-03  8.54381367E-02 -1.53816488E-01
 -6.98844925E-03 -2.76679839E-02 -5.27544870E-02 -5.03312802E-04 -3.89817162E-04
  5.65141504E-04 -3.90625891E-03 -3.91738533E-03  1.95767192E-03 -1.40750251E-02
 -1.54174843E-02  3.50796063E-03  3.59244062E-02  4.33176599E-02  1.84883475E-03
 -1.94328156E-02 -1.92673430E-02  1.03227283E-02  3.22255856E-03 -1.14417439E-03
  8.61442632E-04 -2.18413386E-06  1.25400561E-04 -3.45868671E-03  9.90782277E-03
  9.49734026E-03 -3.21384562E-03 -3.75988284E-04  9.68082322E-04  1.39845672E-03
  1.88797156E-03  1.13372037E-02  2.47791480E-02 -6.92974615E-03 -3.50997495E-03
 -2.39771890E-02 -5.39651859E-02 -1.94394534E-01  1.86566484E-02  6.25768577E-03
 -4.32588559E-02 -5.15056596E-02  1.16881803E-02  1.14564760E-02 -6.57271851E-03
  2.78701078E-02  2.81267993E-01 -7.18610321E-02  1.55681064E-01 -1.08068660E+00
 -2.56039056E-02 -1.41576628E-01  2.96498477E-02 -7.77561586E-02  5.47398700E-01
  6.35533468E-03  2.57404929E-02 -1.39920259E-01  1.61192827E-01 -1.61873156E-01
  6.59938780E-01 -2.22153634E-01  9.43908416E-02  1.04373494E-01 -2.08389334E-02
 -1.11694829E-03 -1.80676730E-03 -1.31034993E-03  4.57561894E-03  7.65259890E-03
  6.05060177E-03  3.83006555E-02  6.18518763E-02  4.46459945E-02 -1.64964717E-01
 -2.50868302E-01 -1.49998076E-01 -1.19027378E-01 -1.41965118E-01 -1.87747247E-03
  2.13390794E-03 -1.38205939E-03 -9.03540653E-04  6.75063616E-04 -1.70847676E-03
 -3.17323292E-02  4.73503244E-02  6.71557580E-02 -3.31942040E-02  7.86333309E-02
 -6.72887033E-07 -2.16422900E-07 -2.68221022E-03  2.25841662E-03 -8.29045024E-04
  1.72556084E-05  1.78948102E-02 -1.50752572E-02  5.52893200E-03 -1.23574235E-04
  1.50805316E-02 -1.26962202E-02  4.73114860E-03  9.19401413E-05 -3.45506137E-02
  2.91322236E-02 -1.07192435E-02 -6.41524686E-03 -1.32988590E-02  7.14748850E-03
 -1.23056472E-02 -5.87055205E-03  2.47794200E-02  5.64570563E-02 -2.14843508E-02
  8.07622513E-02  2.83611252E-02  2.72091453E-07  1.56080670E-07 -2.78538003E-02
  2.34681660E-02 -8.61603805E-03 -7.30289571E-06  9.43885082E-02 -7.95230859E-02
  2.91996641E-02  7.91717699E-05  3.61275664E-02 -3.04969204E-02  1.12186889E-02
 -9.77161848E-05  1.85956548E-02 -1.56598861E-02  5.73197063E-03 -1.41939315E-02
 -2.53461186E-02  2.06580244E-02 -8.34949802E-04 -8.45716945E-03 -9.69657307E-02
 -1.75952346E-01  1.37980301E-01 -2.32719071E-02 -6.08361114E-02 -6.95611160E-07
 -2.80799760E-06  1.52523953E-05 -1.73226978E-05  1.12008342E-05 -3.73073237E-05
  1.93393187E-05  8.78324690E-03 -7.40436628E-03  2.70987085E-03 -1.46596657E-05
  1.24462735E-05 -4.43059394E-06  1.95046628E-03 -1.64358799E-03  6.03242034E-04
  1.00366259E-02 -8.45860230E-03  3.10248865E-03 -2.49312310E-02  2.10138806E-02
 -7.69773095E-03 -1.77241067E-04  1.51617781E-04 -4.47978927E-05 -1.97854114E-03
 -3.45679586E-03  2.97098095E-03  3.77513891E-04 -1.09407102E-03  1.10536301E-02
  1.91970483E-02 -1.67622157E-02 -2.92923085E-03  5.97498114E-03  1.19490867E-06
  4.83509716E-06 -2.63462208E-05  3.03206776E-05 -2.55197426E-05  8.45017936E-05
 -2.99765638E-05  7.98026127E-03 -6.74752423E-03  2.47175263E-03  3.06434281E-05
 -2.55331814E-05  9.55635051E-06 -1.60634221E-03  1.35190013E-03 -4.97177196E-04
 -8.55377646E-03  7.19484061E-03 -2.64841041E-03  2.15641664E-02 -1.81173297E-02
  6.67977406E-03  6.33521608E-03 -5.30701886E-03  1.95959290E-03 -8.11638013E-04
 -2.45180357E-03 -6.42239862E-06 -6.51941913E-03 -1.59873396E-03  4.06773225E-03
  1.20703259E-02 -2.36617798E-04  3.11935367E-02  7.76963536E-03  9.14432998E-08
  1.46467663E-07 -2.91362264E-02  2.45519526E-02 -9.01246866E-03 -1.36911584E-06
  5.48209299E-02 -4.61956748E-02  1.69562495E-02 -1.79992044E-05 -1.60264009E-01
  1.35043132E-01 -4.95859351E-02  1.49667101E-05 -1.32897265E-02  1.12019222E-02
 -4.10537129E-03  4.39034347E-01  7.99308771E-01 -6.21137511E-01  1.23859513E-01
  2.78502884E-01 -2.51585967E-01 -4.57922705E-01  3.56075347E-01 -7.02288887E-02
 -1.59465570E-01  4.48252796E-07  1.81005923E-06 -9.83492395E-06  1.11560068E-05
 -5.25142080E-06  9.55954925E-06  1.29631000E-05 -5.30181947E-03  4.46434545E-03
 -1.63571892E-03  5.41237679E-05 -4.56230846E-05  1.66649217E-05 -3.64268694E-04
  3.06506964E-04 -1.11910890E-04 -2.85773816E-03  2.40607603E-03 -8.79356904E-04
  1.06223916E-02 -8.94849247E-03  3.27335344E-03  2.47657703E-03 -2.08685024E-03
  7.59354121E-04 -3.91049135E-03 -6.27567014E-03  6.53184502E-03  4.35405571E-03
 -1.54014145E-03  1.04546045E-02  1.50306100E-02 -1.95286587E-02 -2.29366438E-02
  2.17098367E-03  5.62194050E-03  3.05052691E-03  7.51341248E-03  2.43665119E-02
  4.20848362E-02 -2.49990484E-01 -1.04692172E-01 -1.59136365E-01 -9.50578373E-02
  3.66214349E-01  1.87392206E-02 -7.12788491E-03 -7.99929565E-02 -3.33715181E-01
 -1.07792756E-01 -2.15192703E-01 -2.37697460E-01  2.25552495E-04  4.60459587E-03
  4.47301397E-03 -9.91752586E-04 -3.14695654E-03  3.39920058E-01 -1.21782574E-01
  3.33235862E-02  3.46396053E-02 -1.27443546E-01 -4.41651224E-03 -4.65789777E-04
 -1.98529083E-02 -3.17352465E-02 -2.22689923E-02  4.54080592E-02  7.57145973E-02
  1.14967143E-01  6.84115809E-02 -3.42631164E-01  1.69106851E-02  8.66060070E-03
 -3.10266525E-02  7.45822549E-01  1.34306127E-01  2.09857556E-01  1.37413415E-01
 -1.95165199E-02  8.24375748E-03  5.81479460E-03 -6.27505945E-03  2.28621016E-02
  3.71067414E-01 -4.47641313E-01 -3.85753326E-01  1.81572023E-01 -2.41289324E-01
 -7.27581133E-03 -2.94047097E-02  1.60706225E-01 -1.84447850E-01  1.17426920E-01
 -2.84027281E-01  4.80976598E-01  4.05796726E-02 -6.92098750E-03 -1.50060252E-01
  1.26311594E-04  3.27557687E-04  4.84034277E-04 -1.74920895E-03 -2.64363715E-03
 -1.54879162E-03 -9.82442353E-03 -1.83573971E-02 -1.82590448E-02  1.82032764E-02
  6.85510771E-02  1.27927388E-01 -1.50782910E-02  6.23007631E-03  6.57231227E-02
  6.00804074E-04  2.00445831E-03  3.12905339E-03 -1.01004436E-03  7.32818871E-04
 -5.30544479E-02 -1.15077920E-02 -4.90570888E-02  1.03330586E-02  2.61200772E-03
  5.35859038E-03  2.16373427E-02 -1.18074682E-01  1.34462142E-01 -5.92130419E-02
  6.34089561E-02 -2.73920954E-01 -3.40088849E-02 -5.41120437E-02 -3.74220840E-02
 -7.28835165E-04 -6.60624057E-04  5.56565120E-04  1.33632637E-04  1.72318956E-04
  3.84328776E-05  6.91890205E-03  5.65318984E-03 -6.96097575E-03 -2.31275694E-03
  1.31908601E-02  4.33762956E-02 -1.21163191E-02 -6.62015889E-03  2.11400679E-02
 -2.33305287E-03 -1.02188838E-03 -1.65111294E-03 -4.77472916E-05  2.95390850E-03
  1.95526928E-02  2.23221683E-02  3.49261742E-02 -7.51239213E-03 -1.36778021E-02
  8.90502260E-05  2.66754340E-04 -2.61460657E-02 -3.10101018E-02  5.29741763E-05
 -6.95006090E-03  5.65856576E-02  6.44018088E-02 -7.49729125E-03 -8.92301083E-02
 -2.74373494E-01 -3.25001472E-01  1.68003039E-03 -1.01920591E-02  3.48563352E-02
  3.88532740E-02 -6.83855847E-03 -2.25487023E-01  7.33600402E-01  7.77258038E-01
 -2.74309357E-01  1.05497471E-01  1.50153815E-01 -4.80954908E-01 -5.06942880E-01
  1.78903882E-01 -6.65358793E-02  2.33832658E-02  9.44954280E-02 -5.16499591E-01
  5.92707075E-01 -3.33732609E-01  5.77735462E-01 -6.95505567E-01  1.42992755E-01
  1.92381117E-01  6.17318077E-02 -7.48456496E-04 -7.78651136E-04  2.98592614E-04
  2.32973297E-03  3.44923919E-05 -7.43954712E-03  2.70543510E-02  1.85662526E-02
 -3.68999654E-02 -1.67118673E-01 -1.80520067E-01  4.85863098E-02 -8.00620308E-02
 -1.02734263E-01 -2.10077426E-02  8.60608308E-03  6.57222988E-03  1.30183074E-02
 -3.05442632E-03 -2.03842489E-03 -1.01393457E-01 -7.33089297E-03 -3.62747165E-02
 -1.02042043E-02  1.04503404E-01 -1.04008620E-02 -2.56898625E-03 -9.37531283E-03
 -1.26933861E-02 -4.26631005E-03  1.72350151E-01  1.00578493E-01  8.98736193E-02
 -8.03222777E-02 -3.52886800E-01  2.26111935E-01  2.52234132E-01 -4.39612475E-02
 -2.91796697E-01 -4.72877405E-02  1.50887107E-01  5.63816934E-01 -1.02629481E-02
 -1.36078635E-02 -1.10768170E-02 -1.20564065E-03  3.10591415E-02  3.47023775E-03
 -9.57952094E-02 -1.42925200E-01  5.36495945E-02 -7.31509710E-02 -4.98152519E-02
 -1.49420764E-02 -2.35038239E-02 -2.23186375E-03  6.98938912E-02  2.45071304E-01
  1.59045354E-01 -1.32627022E-01 -8.75332979E-01  1.50663449E+00  8.08207509E-02
 -2.54551014E-01 -9.54524299E-01  5.42652681E-01 -2.12629233E-01 -3.37859355E-01
 -2.32931233E-01  1.78149175E-01 -1.42046728E-02  9.29327676E-02 -9.98229939E-03
 -2.83647882E-02  4.02385005E-01 -7.68638485E-03  2.53039198E-01 -4.00866742E-02
 -3.00945940E-02  2.32193081E-02  9.43175100E-02 -5.23297263E-01  6.21811757E-01
 -4.12244514E-01  4.22173502E-01 -5.55970065E-01  4.61903892E-03  6.24911256E-02
  1.55329901E-01  4.23164396E-04  1.45644358E-04 -9.71283873E-04  6.39153264E-05
  6.76936895E-04  1.63791508E-03 -4.45687689E-03  1.50473752E-03  1.85101914E-02
  2.00640954E-02 -1.37323753E-04 -6.52451348E-02  6.77332335E-03 -3.80658069E-02
 -1.25576365E-01 -6.12593759E-03 -5.65349984E-04 -4.55128607E-03  7.89170333E-04
  7.77885677E-04  4.27197053E-02 -1.79414715E-02  7.31356758E-03  1.46294921E-03
 -1.82439643E-04  1.45168193E-02  5.89964964E-02 -3.27541195E-01  3.90473339E-01
 -2.93945775E-01  5.15406472E-01  1.94871989E-01 -3.73483031E-03 -6.68185203E-03
 -6.13931603E-03  2.93741451E-04  4.93856653E-04  3.95663895E-04 -3.50300366E-03
 -5.28197000E-03 -3.06101467E-03 -2.43362079E-02 -3.69683825E-02 -2.20126253E-02
  9.05651121E-02  1.36212913E-01  7.82151295E-02  1.06041861E-01  1.35206638E-01
  2.54423224E-02  1.79695143E-03  2.89256612E-04 -1.30273167E-03  1.43633088E-03
 -7.20493870E-03 -2.90912614E-02  2.21608885E-02  3.32022106E-02 -2.08134346E-02
  6.55443234E-02 -1.04280199E-02 -1.83156807E-02 -1.84519966E-03  4.39922702E-03
  1.79469371E-02  3.18690218E-01 -2.74816332E-03  9.46024449E-03  3.46499209E-02
 -1.37346172E+00  1.17736355E-01 -2.82838340E-01 -1.15094823E+00 -1.25889873E+00
  3.94126158E-02 -4.04069086E-02 -2.37479576E-01  1.03444606E+00 -1.91482623E-01
  4.52167842E-01 -4.42680079E-02 -5.30079567E-02 -8.57621020E-01  1.57723472E-01
 -3.76397805E-01  3.72578811E-02  4.32554411E-02  1.11236537E-02  4.51679578E-02
 -2.50529526E-01  2.97184598E-01 -1.83644241E-01  1.39121638E-01  2.41780482E-01
 -1.40426270E-02 -1.89048768E-02 -6.07053649E-03 -6.32882916E-04 -6.72408256E-04
  2.14582363E-04 -2.78504419E-04 -5.79688711E-04 -6.78149457E-04  3.37178327E-03
  2.15941854E-03 -5.01708667E-03 -5.61208280E-03 -2.98499239E-03  1.00100837E-02
 -2.95592000E-02 -3.19060137E-02  8.64957065E-03 -1.54205826E-03 -5.21479629E-04
 -2.47713984E-03  8.77260645E-04 -1.98661242E-03 -5.06682064E-03  1.31963057E-02
  1.67912345E-02 -6.95723657E-03  1.06520100E-02  5.48199936E-03  2.45181909E-03
  1.89533581E-02  6.36744246E-03 -4.39331955E-02 -2.19684041E-02 -4.54095289E-02
 -1.27181217E-02  1.12156639E-01 -1.80153547E-02  3.95776841E-01  3.29471857E-01
 -3.82084855E-01 -1.15416487E+00 -1.07345007E+00 -6.69135640E-01  1.64757450E+00
 -1.60521470E-03  2.96962961E-03 -1.72973294E-03  1.67895190E-03 -1.05981347E-02
 -7.78486719E-02  1.04419797E-01  8.72092523E-02 -3.80867065E-02  3.44824136E-02
  8.39324797E-03  2.99813737E-03  3.57511564E-03 -1.80238982E-02 -6.06377398E-02
  8.22148578E-02 -1.01841557E-01  2.42160967E-02  3.95120983E-01 -1.44485998E+00
 -2.79052335E-02 -8.59531712E-02 -1.43760037E-01  4.90184351E+00 -3.25278125E-01
 -1.62477768E-01  6.08554517E-01 -2.42581354E-02 -1.62307746E-02 -2.74395024E-02
  3.77456888E-03  2.19391229E-02 -3.26701124E-01  1.02588084E-01 -1.01353767E-01
  3.97611236E-03 -7.20003570E-03  8.64425240E-02  3.51323862E-01 -1.95620722E+00
  2.33846245E+00 -1.52787782E+00  1.35156555E+00 -2.33470227E+00  2.41551469E-02
  2.85148964E-01  6.98693331E-01 -2.75582861E-04  1.69927546E-04  1.35367608E-03
  8.60631278E-04  4.18419314E-03  8.61549440E-03  9.02352286E-03  2.13480839E-02
  2.89817241E-02 -3.35653169E-02 -6.24081583E-02 -6.14941374E-02 -4.17158313E-03
 -1.12514478E-01 -2.92997862E-01 -2.29909136E-02 -3.86731857E-04 -1.69538823E-02
  3.51958639E-03 -2.02606471E-03  6.32377615E-02  2.37506349E-02  7.56274287E-02
 -1.91609345E-02  9.34626373E-03  4.47238109E-02  1.81812308E-01 -1.01259629E+00
  1.21169396E+00 -7.95375271E-01  6.92858151E-01 -7.10862955E-01 -5.80409689E-02
 -1.69801195E-01 -2.74836445E-01  2.28973736E-04 -6.66083078E-05 -9.21708590E-04
 -2.61404067E-05 -2.45879362E-03 -6.61433912E-03  7.57418258E-04 -8.80435346E-03
 -2.64382971E-02 -1.91972896E-02 -1.44716802E-03  5.81434853E-02  7.69083052E-02
  1.31397811E-01  1.09255243E-01 -4.25013321E-04 -1.05601013E-02 -1.48240822E-02
  5.10289152E-03 -4.35043603E-03  2.03779987E-02  2.83934863E-02  4.68273226E-02
 -1.23482518E-02 -3.68637326E-03  2.97156433E-03  5.37402146E-03  9.25760068E-03
 -2.05918794E-03 -3.55369212E-02 -1.08799518E-01 -1.84861383E-02 -1.49902872E-03
  5.56795399E-02  6.67337222E-01  1.71014201E-02  1.66023658E-01  3.96914021E-01
  2.83270242E-02 -1.15817715E-02 -3.50499694E-02 -5.80303351E-02 -2.47185321E-01
 -1.92315582E-02 -1.76172849E-01  2.85602440E-02  3.92378714E-02  2.31613256E-01
  1.05290110E-02  1.59483047E-01 -2.60778749E-02 -2.80414459E-02  5.98442809E-02
  2.43318174E-01 -1.35573792E+00  1.62401958E+00 -1.08849559E+00  1.03800733E+00
 -1.20553418E+00  2.76397795E-01  3.58074375E-01  8.18468234E-02  1.08133465E-03
  1.26794838E-03 -4.20484339E-05  7.45425097E-03  8.94537627E-03  2.67694041E-04
  2.87224663E-02  3.40421427E-02 -1.28265411E-04 -6.47483665E-02 -7.25380612E-02
  1.17331122E-02 -1.64780871E-01 -2.17308315E-01 -5.92200447E-02  8.10352022E-03
 -3.65815741E-03 -7.37975427E-03  5.57147534E-03 -2.12091531E-02 -2.16782953E-02
 -2.73163493E-03  8.46253190E-03 -1.25732344E-02  6.64731717E-02 -9.38959275E-03
 -2.41203838E-03 -3.60991287E-02 -4.99212858E-02 -1.92733059E-02  1.15024978E-01
  9.85709250E-02  1.17207841E-01  6.04726384E-04 -4.21621851E-01 -4.52925325E-01
 -5.18147754E-01  5.28071452E-02  1.67967003E-01  9.95738043E-01  1.28721380E+00
  2.87224121E-01 -1.78139792E-02  5.79171912E-03  1.00484860E-02 -9.27519554E-03
  3.79821323E-02  2.04930888E-02 -6.96767651E-02 -1.00120881E-01  4.19287985E-02
 -7.42268915E-02  6.33753562E-03  1.59137401E-03 -2.84818417E-02 -3.37960749E-02
  1.29118753E-05 -1.23962936E-01  9.42660434E-02  8.49928233E-02 -7.31925243E-02
  5.96049668E-01 -2.95106381E-01 -2.19158048E-01  3.56964070E-01 -6.20875416E-01
  7.41519716E-01  7.83561153E-01 -2.62783955E-01  1.23050047E-02  3.79435455E-03
 -2.06872848E-03  6.27706689E-03 -3.76765464E-02  1.53762346E-02  6.22152097E-02
  1.28213307E-01 -5.14026263E-02  1.05944983E-01  1.04941330E-02  4.26689928E-02
 -2.38169552E-01  2.85944021E-01 -1.89946279E-01  1.94930019E-01 -5.59434999E-01
 -1.27642645E-01 -8.99550906E-02  1.67645266E-01 -4.68400293E-04 -2.47906712E-04
  8.39140380E-04 -4.66030034E-03 -4.32392706E-03  3.28931558E-03 -2.22265856E-02
 -2.27866313E-02  9.79213176E-03  6.32123918E-02  6.50945863E-02 -2.70583945E-02
  4.68552884E-02  4.11158238E-02 -3.94922621E-02 -6.53942417E-03  9.82996843E-03
  6.92349640E-03 -2.56147413E-03 -1.32896895E-03  2.21440225E-02 -5.29212105E-02
 -4.84708660E-02  1.68360166E-02  1.41392640E-03 -1.00396236E-01 -4.08221728E-01
  2.27861631E+00 -2.73635434E+00  1.80440802E+00 -1.51613159E+00  2.87418441E+00
  5.07240279E-01  7.00960217E-01  2.69362733E-01  1.39829464E-03  1.93590171E-03
  7.52527403E-04  4.65191047E-03  6.90449972E-03  3.76872164E-03  5.87399013E-03
  1.07934310E-02  1.04153862E-02  2.32690305E-02  2.32090108E-02 -1.20226039E-02
 -1.98021706E-01 -2.80518504E-01 -1.23870417E-01 -7.09504581E-03  7.83559914E-03
  1.55342304E-02 -8.75078530E-03  2.72264780E-02 -1.34195513E-03 -1.14382120E-02
 -3.08236891E-02  1.43410729E-02 -4.01698051E-02 -1.32198666E-03 -2.08253140E-03
  5.64567632E-03  5.96874079E-03 -1.99207532E-03  3.03070787E-02 -1.53008530E-02
 -1.51066504E-02  8.31392608E-03 -1.19614815E-01  9.54063045E-02  7.91405419E-02
 -9.28691008E-02  1.95177146E-01 -4.46835203E-02 -1.68922538E-02  9.84297512E-02
  5.42695769E-02 -6.25775919E-02 -2.73361448E-02  9.74059084E-03  2.87834806E-02
 -4.88264287E-02  5.50991723E-02  2.47071435E-02 -9.27528564E-03 -2.19670845E-02
  6.08680543E-02  2.47486710E-01 -1.38167252E+00  1.65922371E+00 -1.07147622E+00
  7.41463717E-01 -1.84220153E+00  3.09434594E-01  4.35466301E-01  1.85811341E-01
  8.27262471E-04  1.02219819E-03  1.09910983E-04  3.49616693E-04  9.80237548E-04
  1.53919616E-03 -1.21800276E-02 -1.24178666E-02  5.54831796E-03  7.50948263E-02
  8.75581720E-02 -4.26328040E-03 -6.94768260E-02 -1.18193782E-01 -9.73273132E-02
  2.61946225E-03 -6.13478825E-03 -1.10735904E-02  5.31980070E-03 -1.35812306E-02
  2.40615302E-02  1.36104501E-02  2.83840541E-02 -5.37029428E-03 -1.13083064E-02
 -7.40293458E-03 -2.02052971E-03 -6.49408589E-03  1.43450659E-03  2.49044907E-02
  1.66327547E-01  7.65363734E-02  9.33194337E-02  6.76548580E-03 -6.09814732E-01
  9.44651584E-02  4.87971534E-01  1.02368015E+00 -1.96965144E-01 -3.15058530E-02
 -5.85994658E-01 -1.49437108E+00  6.71185086E-02 -2.86198318E-02  4.43899457E-03
  6.47996159E-03 -1.66717131E-02 -5.78026801E-01  1.92457579E-01 -6.25857523E-02
 -6.06634015E-02  2.46327467E-01  8.15296304E-03  1.40594355E-03 -1.29638565E-02
 -1.46529053E-02  2.00346240E-03 -1.14138630E-01 -4.20724928E-03 -3.59244139E-02
 -8.42626043E-02  7.07198382E-01 -4.77984522E-01 -7.98625241E-01 -6.30134560E-01
  5.13464125E-01  5.94103519E-01  8.12837129E-01  2.93609857E-01  4.52822864E-02
 -1.57964836E-02 -8.83556852E-03  1.29260320E-02 -5.15143436E-02 -4.87004963E-01
  3.04373053E-01  1.89517740E-01 -1.47702251E-01  3.82610695E-01 -7.61793903E-02
 -3.10037036E-01  1.73729420E+00 -2.10259396E+00  1.41663256E+00 -1.14571174E+00
  2.23269382E+00  9.52667723E-02 -1.32048038E-01 -6.67782009E-01  1.71061941E-04
 -8.12724197E-04 -2.76623471E-03  3.16723760E-03  9.17268607E-04 -7.73508792E-03
  1.52185168E-02  1.79778254E-02 -2.00500177E-04 -3.20011297E-02 -8.88697726E-02
 -1.38707971E-01 -4.56509222E-02  5.66175344E-02  3.01886764E-01  2.95648692E-02
 -1.13323491E-02  5.88829125E-03  9.02282538E-04 -1.34646064E-03  1.43986589E-02
  3.91842563E-02  5.69277046E-02 -1.63540499E-02 -8.76086269E-04  4.07258176E-02
  1.65812686E-01 -9.29551670E-01  1.12713000E+00 -7.88752718E-01  8.04939665E-01
 -9.29640979E-01 -2.05581540E-01 -2.53858217E-01 -2.67479003E-02 -7.98928941E-04
 -1.28184247E-03 -9.08550528E-04 -7.43387878E-03 -7.71981512E-03  3.00259165E-03
 -3.08893387E-02 -2.52504529E-02  3.10655722E-02  5.35463344E-02  1.65899295E-02
 -1.27861486E-01  1.61579206E-01  2.03255334E-01  3.12124452E-02  1.42517173E-02
 -2.13531821E-03 -1.10076842E-03  4.08271192E-03 -2.06129577E-02 -6.40525640E-02
 -4.16797694E-02 -7.24798589E-02  1.03953321E-02  5.43604361E-02 -2.30402634E-03
 -3.61047621E-03  1.43038074E-03 -4.63708850E-03 -1.72519632E-02  4.76484467E-02
 -9.75286457E-03  7.09839459E-03  5.08543109E-02  1.46383069E-02  1.71372598E-01
  1.84225533E-01 -5.21252823E-02 -5.88095703E-01  1.42233084E-02 -6.01805858E-02
 -2.09920260E-01  6.65098382E-02 -1.60171988E-01 -1.43537537E-01  4.88909939E-02
  1.29308472E-02 -5.80520149E-02  1.49468519E-01  1.37704721E-01 -4.67559521E-02
 -9.50728904E-03  7.73027921E-02  3.14683525E-01 -1.76416367E+00  2.13782657E+00
 -1.45227268E+00  1.12270767E+00 -1.55535002E+00  2.98333841E-01  4.09841648E-01
  1.51787378E-01  1.53078668E-03  2.15405336E-03  9.19109227E-04  4.75571001E-03
  6.44702785E-03  2.19104031E-03  9.72089522E-04  1.78933639E-04 -2.63235130E-03
  9.49734108E-02  1.35385773E-01  6.16698777E-02 -2.01942592E-01 -2.74384946E-01
 -9.44978942E-02  1.09624879E-02 -7.47265581E-03 -1.29732505E-02  8.44622382E-03
 -2.85218011E-02  1.94278944E-02 -1.95122128E-02 -1.49826863E-02  7.75391485E-03
 -1.14725496E-02 -1.55841209E+00  1.68705926E+00  3.36887914E-04  2.76291008E-04
 -3.32295059E-04 -5.90563331E-01 -5.61550837E-02 -4.14244124E-02  6.86659219E-02
  7.37061328E-01  5.97355497E-02  3.80808023E-02 -8.92990288E-02 -2.33293695E+00
 -8.42671484E-01 -1.02497246E+00 -6.79436238E-02 -1.48623124E-03  8.80326771E-03
  4.21850144E-04  2.53666226E-03 -2.31071339E-02 -1.77274326E-02 -5.49532506E-03
  2.51259227E-02 -2.26610679E-02  1.09824923E-01 -1.29047139E+00  1.39896199E+00
  2.57335710E-02  6.50031344E-03 -6.54783935E-02 -4.18988492E-01 -9.51965722E-02
  2.93551438E-03  3.15717617E-01 -3.11679454E-02  4.45316605E-02  5.05655535E-02
 -6.25020142E-03  2.90327986E+00 -7.15596722E-02  1.50763064E-01  6.41869567E-01
 -3.22388156E-02 -5.81732791E-03 -2.48756370E-02  3.67739730E-03  1.04004350E-02
 -1.83326084E-01 -6.76143542E-02 -1.73094559E-01  2.76624282E-02  8.47015002E-02
 -2.06905185E-04 -6.28694191E-04  4.15693035E-03 -4.97818639E-03  5.33889050E-03
 -6.54103537E-02  5.61241313E-01  1.11045622E-01  8.05479613E-02 -1.39580196E-01
 -6.81817195E-03  2.28035276E-02  8.41552375E-02 -5.68963197E-03  1.91597591E-02
  7.05818258E-02  6.97421482E-03 -1.97353121E-02 -7.63025748E-02 -9.53747542E-03
  4.80420759E-03  4.39216564E-02 -4.73449263E-03 -3.80553602E-04  1.42551998E-02
 -9.83688554E-03  1.35499706E-03 -3.77460819E-03 -7.17932290E-05  3.22831088E-03
  2.06898219E-02  2.12649556E-03  1.23557849E-02 -7.34505101E-04 -1.08291199E-02
 -3.18610149E-05 -2.75016913E-05 -3.53017088E-04  2.71314396E-03  1.81886352E-03
 -1.19450237E-01 -7.27598154E-01 -1.79432226E-02 -5.83589991E-02 -1.00830494E-01
 -3.31428064E-02 -4.92157995E-02 -2.69244021E-02 -2.78334643E-02 -4.12488671E-02
 -2.23857765E-02  3.15192291E-02  4.75671835E-02  2.76795000E-02 -3.79622433E-02
 -5.72764130E-02 -3.32768239E-02 -4.82095529E-02 -6.95277542E-02 -3.35323267E-02
  4.01576027E-03 -3.94380334E-03 -3.74752296E-03  2.03371394E-03 -4.27500858E-03
 -4.57728974E-03 -1.19981585E-03 -7.48381453E-03  2.81393505E-03 -7.27147828E-03
  3.62795169E-03  1.94480080E-03  3.27196217E-03 -6.75112997E-03 -2.89650326E-02
 -8.85547286E-02 -5.59712688E-03  1.10980161E-02  4.83213531E-02  4.84704086E-01
 -5.00267993E-02  5.44670592E-02  3.10060408E-01 -1.84142345E-01  1.44606853E-02
 -5.03160825E-02 -1.83765285E-01 -4.42368422E-02  7.28529249E-03 -1.71303079E-02
  2.06501827E-04  1.05280626E-02  1.39896628E-01 -2.56040974E-02  5.41418700E-02
 -1.57475099E-03 -2.55963194E-02 -2.21687087E-04 -6.69771685E-04  4.36462993E-03
 -4.71990782E-03 -8.69645181E-03 -2.53685025E-03 -5.36423713E-01  5.97687169E-02
  7.26722689E-02  4.67734027E-03  8.01902665E-02  8.65748376E-02 -2.34155197E-02
  6.73426603E-02  7.27264477E-02 -1.96037692E-02 -6.81778139E-02 -7.44106266E-02
  1.77170100E-02  8.30060081E-03  1.86536808E-02  2.39692183E-02 -6.95997508E-04
  9.85236630E-03  2.90921482E-02  6.01155798E-03 -4.98213147E-04  5.00279311E-04
  1.27630777E-03 -7.49950027E-03 -2.76774224E-02 -1.50213853E-02 -2.49480405E-02
  1.67705586E-03  3.03636012E-02  1.29771290E+00 -1.43490876E+00 -6.10605057E-02
 -5.13216185E-02  5.75849933E-02  6.28900586E-01  3.00018961E-01  2.54813754E-01
 -2.75722971E-01 -2.76829043E-01  1.64717386E-01  1.34575218E-01 -1.65943585E-01
  1.46261917E+00  1.78856319E-01 -1.05685686E-01 -8.65955414E-01  2.20268307E-02
 -4.73040694E-02 -1.97969161E-02  1.26274711E-03  5.63133486E-02 -1.33519517E-01
 -1.46747622E-01 -2.51237430E-01  6.12458699E-02  4.40831856E-02 -1.56981013E+00
  1.73857739E+00 -5.16232110E-02 -4.79296058E-02  3.63149321E-02 -7.42885927E-01
  2.63673874E-01  2.52817818E-01 -1.63667228E-01  3.42903949E-01  1.92622540E-01
  1.71233912E-01 -1.56259184E-01 -1.40473058E+00  4.64240682E-01  5.37987520E-01
 -3.52589926E-02 -3.54782031E-02  4.69555016E-02  9.26784091E-03  1.12692506E-03
 -5.86525171E-02 -4.92218793E-02  2.17821755E-01  2.42783933E-01 -8.36252508E-02
  3.10972342E-02 -7.22068612E-04 -2.46228882E-03  1.86978632E-02 -3.19922594E-02
  8.33906910E-03  2.26452076E-01  6.73975339E-01 -3.39864908E-03 -4.18217423E-02
 -1.02987347E-01 -2.11448997E-02 -3.78149373E-02 -3.46131940E-02 -1.77226080E-02
 -3.10582851E-02 -2.72781473E-02  1.43813857E-02  3.82936306E-02  5.77864375E-02
  2.70907368E-02 -2.76289877E-02 -1.62842507E-01  2.38663723E-02 -1.23298127E-02
 -1.10754666E-01  5.81534649E-03  5.78984824E-05  4.78366319E-03 -1.20819689E-03
  1.87097000E-03  5.86344213E-02 -3.33062701E-02 -4.61708215E-03  7.81788738E-03
 -1.05857753E-02 -6.02314425E-04 -2.04971479E-03  1.55306865E-02 -2.63545950E-02
  4.00645352E-03  1.97366923E-01 -3.29987972E-01 -5.66426312E-02 -6.04340790E-02
  1.85274615E-02  9.55511962E-03  3.61743459E-02  6.76487295E-02  7.05545709E-03
  2.88201061E-02  5.56969599E-02 -2.42121448E-02 -5.28809631E-02 -6.57701477E-02
  8.80658245E-02  1.15506136E-01  2.99154197E-02  3.56873158E-02  4.78317467E-02
  1.49137889E-02  3.40845927E-04  1.71274281E-03  5.01676968E-03 -2.35260812E-03
  6.77771700E-03 -3.99757943E-02  1.27051217E-04 -1.13574672E-02 -4.72434177E-03
  3.94315456E-02  4.39267459E-03  1.94629162E-03 -5.45455074E-04 -2.94350483E-03
 -6.25549417E-03 -6.07316185E-02  3.70611511E-03 -1.69371008E-03 -1.65888190E-02
  7.03056814E-02  4.34968602E-02  8.85392130E-02  1.00540682E-01 -2.06515564E-01
 -1.69255143E-02 -7.88378708E-02 -1.60005724E-01 -3.12737973E-02 -3.40400833E-04
 -2.30515309E-02  4.84935017E-03 -3.28801163E-03  7.59957026E-02  6.07126648E-03
  6.19715447E-02 -1.35171640E-02  6.99323425E-03  7.73190675E-04  2.65836825E-03
 -2.03505145E-02  3.54970491E-02 -1.47135386E-02 -2.53407047E-01 -3.74311712E-01
  4.13921756E-03  2.55710202E-02  5.62286038E-02  2.22256964E-02  5.00163670E-02
  6.43843456E-02  1.74643777E-02  4.02198144E-02  5.30926612E-02 -3.86792977E-02
 -6.88091643E-02 -6.23817161E-02  1.15623848E-01  1.50232568E-01  3.54198799E-02
  6.64611048E-02  7.40775989E-02 -1.30855601E-02 -1.10067388E-03 -3.09264304E-03
 -7.80033558E-03  3.33245007E-03 -8.26454285E-03  5.30878594E-02  1.90003548E-03
  1.79254039E-02  5.28534018E-03 -5.15160597E-02  3.43815328E-06 -4.06424910E-06
 -7.19876511E-03  6.06515328E-03 -2.22600986E-03  6.93981457E-06  2.43732847E-02
 -2.05337385E-02  7.53814419E-03 -3.03277320E-05 -1.04914573E-02  8.86810209E-03
 -3.20625678E-03 -2.08239322E-04  1.27623055E-02 -1.06771164E-02  4.12277923E-03
  1.88795860E-03  3.90800941E-03 -2.09983202E-03  3.61735597E-03  1.72692933E-03
  7.49747792E-03  1.33786579E-02 -1.10584397E-02 -7.78110161E-05  4.40510429E-03
 -3.43881569E-06  4.05188569E-06 -8.59199549E-03  7.23845578E-03 -2.65740659E-03
 -7.20818490E-06  2.71680734E-02 -2.28915982E-02  8.40042020E-03  6.91469728E-05
 -3.55774058E-02  2.99423230E-02 -1.10481021E-02  1.50123342E-04  3.64055702E-02
 -3.08664935E-02  1.12711624E-02  2.09376479E-03  4.20518265E-03 -2.48801228E-03
  3.16426247E-03  1.76631263E-03 -5.26803969E-03 -3.93317015E-03  1.40939487E-02
  3.47673118E-02  2.93649467E-03 -6.64798197E-08 -2.15725332E-07  1.67600757E-06
 -2.94103759E-06  2.36275552E-06  6.66714031E-06 -1.69733049E-04 -1.30845890E-01
  1.10278765E-01 -4.04416654E-02 -1.07895543E+00  9.09198555E-01 -3.33741656E-01
 -8.57847926E-01  7.22878949E-01 -2.65348790E-01  1.17310615E+00 -9.88535312E-01
  3.62865773E-01 -6.07145379E-01  5.11617439E-01 -1.87812848E-01  2.77608887E-01
 -2.33947401E-01  8.58815500E-02 -1.74613190E-03 -2.87432107E-03  2.83584574E-03
  1.49407117E-03 -7.66580508E-04  5.81578481E-03  9.79931082E-03 -9.15320408E-03
 -3.45225879E-03  2.81204112E-03  3.25623992E-08  1.04681856E-07 -8.12295262E-07
  1.43383219E-06 -2.16701580E-06  9.35367068E-06  1.40795186E-04  2.71883263E-02
 -2.28853825E-02  8.43962529E-03  1.37351689E-01 -1.15809195E-01  4.26352124E-02
  1.09210649E-01 -9.20818483E-02  3.39000355E-02 -1.49418260E-01  1.25983253E-01
 -4.63798344E-02  7.89704825E-02 -6.65849616E-02  2.45078898E-02 -4.31646435E-02
  3.64090640E-02 -1.34027688E-02  1.54785490E-03  2.57585507E-03 -2.47508879E-03
 -1.12493203E-03  7.12416043E-04 -4.29240889E-03 -7.14195262E-03  6.85993961E-03
  3.12995189E-03 -1.97332376E-03 -3.38386225E-07 -1.22532758E-07  3.81673379E-04
 -3.22023365E-04  1.17380183E-04  4.19363999E-06 -3.50006735E-04  2.95509905E-04
 -1.05293293E-04 -1.10944824E-05 -4.19613980E-03  3.54879141E-03 -1.31230360E-03
 -5.08778821E-05  8.11787982E-04 -6.80646500E-04  2.41277128E-04  6.89644296E-04
  2.14796252E-03  8.54078584E-05  5.97847700E-03  1.43334723E-03 -2.02817306E-03
 -5.68015362E-03  5.04147330E-04 -1.34672733E-02 -3.50666215E-03  1.21463683E-07
  3.95049102E-07 -3.07184823E-06  5.41261234E-06 -6.00142277E-06 -1.11364273E-05
  1.05295822E-04 -1.58290721E-01  1.33348161E-01 -4.89899809E-02 -1.24518698E+00
  1.04914649E+00 -3.85226379E-01 -9.89890768E-01  8.34043654E-01 -3.06244835E-01
  1.35453685E+00 -1.14128300E+00  4.19055839E-01 -7.02566656E-01  5.91975379E-01
 -2.17352926E-01  3.25916558E-01 -2.74610654E-01  1.00837820E-01 -2.72521648E-04
 -1.19408422E-03 -4.42348530E-04 -4.58921907E-03 -9.50399216E-04  1.48089329E-03
  5.06456126E-03  7.24979878E-04  1.57838988E-02  3.57880383E-03  5.08188266E-06
 -6.01709459E-06 -1.08152541E-02  9.11142948E-03 -3.34503997E-03  9.39366384E-06
  2.87116149E-02 -2.41855964E-02  8.87673432E-03 -1.34886975E-05 -7.22865877E-02
  6.08936291E-02 -2.23626042E-02  1.59886377E-04  6.96979313E-03 -5.81356721E-03
  1.99544701E-03 -8.36970938E-04 -1.57270903E-03  1.12465275E-03 -5.56369457E-04
 -5.84893973E-04  1.07966630E-02  1.08132869E-02 -2.57637664E-02 -5.41052001E-02
 -2.99789182E-03 -1.15616236E-06  1.35116554E-06  6.22470436E-04 -5.24958955E-04
  1.94267457E-04  1.41429585E-06  3.47895335E-03 -2.93442177E-03  1.07117288E-03
  3.70315609E-05  3.99464232E-02 -3.36467625E-02  1.23417389E-02 -2.02438745E-04
  3.30293942E-02 -2.76501539E-02  1.01752104E-02 -1.08152822E-03 -2.16024281E-03
  1.29875672E-03 -1.55185742E-03 -9.01526789E-04  7.68402964E-03  9.78764740E-03
 -1.57990428E-02 -2.48360126E-02  2.17479418E-04 -2.72933762E-10  1.05786863E-10
 -5.64124684E-09  3.10871381E-08 -2.65853866E-07  5.56958902E-07  1.40899622E-04
 -8.98821031E-02  7.56867550E-02 -2.78206947E-02 -7.61730898E-01  6.41670340E-01
 -2.35570272E-01 -6.05370014E-01  5.09954337E-01 -1.87214645E-01  8.29525168E-01
 -6.98779340E-01  2.56536107E-01 -4.31266615E-01  3.63292348E-01 -1.33371691E-01
  2.07292972E-01 -1.74609365E-01  6.40952267E-02 -6.98568593E-04 -2.06769337E-03
  4.27384062E-05 -5.34851937E-03 -1.33008471E-03  2.68367368E-03  7.20834157E-03
 -1.03722162E-03  1.57956528E-02  4.29153728E-03 -1.93398769E-08 -6.70917187E-08
  5.33074431E-07 -9.59262318E-07  1.00693686E-06  1.70058736E-08  6.79944910E-06
 -1.71671953E-01  1.44639708E-01 -5.31015195E-02 -1.37810651E+00  1.16108352E+00
 -4.26302405E-01 -1.09526527E+00  9.22783848E-01 -3.38808490E-01  1.50064820E+00
 -1.26432793E+00  4.64209395E-01 -7.81440352E-01  6.58382856E-01 -2.41730217E-01
  3.71843970E-01 -3.13285216E-01  1.15031072E-01  1.60270894E-03  3.28460190E-03
 -1.83427004E-03  2.81603822E-03  1.42404424E-03 -5.38951174E-03 -1.13223108E-02
  5.83796614E-03 -1.12710444E-02 -5.09765630E-03 -9.59760281E-08 -3.66566947E-08
  2.20699975E-04 -1.85808922E-04  6.88380331E-05  1.94085088E-06 -8.38214605E-04
  7.05705047E-04 -2.60934037E-04 -2.07599105E-05  6.14758327E-03 -5.17963101E-03
  1.89108999E-03 -1.28029226E-05 -1.78163903E-02  1.50027440E-02 -5.51627913E-03
 -6.58272845E-05 -7.46929868E-04 -6.49669080E-04 -4.06888358E-03 -7.38999093E-04
  4.32271442E-04  2.17345186E-03  1.02691206E-03  9.06515727E-03  1.81433871E-03
  3.09927380E-09  1.26129883E-08 -1.02173136E-07  1.93248431E-07 -4.79032306E-07
  6.22010048E-07 -1.02009959E-04  6.46951468E-02 -5.44926849E-02  2.00346337E-02
  5.08115608E-01 -4.28160814E-01  1.57211295E-01  4.03765168E-01 -3.40230480E-01
  1.24925224E-01 -5.53725400E-01  4.66593739E-01 -1.71322801E-01  2.90164598E-01
 -2.44505578E-01  8.97768193E-02 -1.47836174E-01  1.24579941E-01 -4.57454645E-02
  5.14093657E-04  8.94503053E-04 -7.74737625E-04 -1.14919038E-04  2.81282980E-04
 -1.70243296E-03 -3.11572894E-03  2.38535053E-03 -6.10646445E-04 -1.10262365E-03
 -3.39531504E-06  4.04005961E-06  1.12511563E-03 -9.47181086E-04  3.48515811E-04
 -8.28892823E-06 -6.13386622E-03  5.16230231E-03 -1.90063870E-03  5.85955561E-05
 -2.67313977E-02  2.25628813E-02 -8.26300094E-03 -7.14543673E-04  7.85889772E-02
 -6.63921362E-02  2.45438856E-02 -3.57660827E-03 -7.20930926E-03  4.20959114E-03
 -5.59392524E-03 -3.05283337E-03  4.07796966E-02  8.00125089E-02 -5.06057775E-02
  4.96150481E-02  3.23639737E-02  2.41379013E-06 -2.87959140E-06  3.96605738E-03
 -3.34553854E-03  1.22447929E-03  3.30362960E-06 -9.88249739E-03  8.34275909E-03
 -3.04563231E-03  7.48111173E-06  4.71193495E-02 -3.96682423E-02  1.45335657E-02
  6.60494951E-04 -1.20465225E-01  1.01113622E-01 -3.71373122E-02  3.49173858E-03
  7.66397273E-03 -3.39163607E-03  9.42474298E-03  3.66827772E-03 -2.34411586E-02
 -5.57832854E-02  1.77374079E-02 -9.08665925E-02 -2.94104011E-02  2.33849670E-07
  7.60608291E-07 -5.94529013E-06  1.05772080E-05 -1.29328353E-05 -3.34423094E-05
 -5.85021353E-05 -1.84416040E-01  1.55533368E-01 -5.70719905E-02 -1.00031219E+00
  8.43349714E-01 -3.09493413E-01 -7.92971814E-01  6.68543888E-01 -2.45343140E-01
  1.10037283E+00 -9.27709334E-01  3.40448036E-01 -5.98346559E-01  5.04461623E-01
 -1.85095788E-01  2.94122809E-01 -2.48002536E-01  9.10140351E-02 -2.29039275E-03
 -3.87647559E-03  3.58892622E-03  1.25577978E-03 -1.12651497E-03  1.28819820E-02
  2.22763036E-02 -1.96814168E-02 -4.16045491E-03  6.84248314E-03 -1.14007234E-07
 -3.70039440E-07  2.90107600E-06 -5.20723451E-06  5.36636569E-06  2.98230805E-05
  2.87083369E-06  1.29380038E-01 -1.09051202E-01  4.01212772E-02  9.09403518E-01
 -7.66404151E-01  2.81836938E-01  7.20936580E-01 -6.07572871E-01  2.23428357E-01
 -1.00014101E+00  8.42870697E-01 -3.09958305E-01  5.42857808E-01 -4.57471580E-01
  1.68245256E-01 -2.54661896E-01  2.14633996E-01 -7.89510220E-02  4.42647649E-04
 -2.41834799E-04 -1.86852764E-03 -6.64607533E-03 -8.84633346E-04  2.08518945E-04
  5.50507811E-03  5.77996340E-03  3.31306495E-02  5.83196126E-03 -6.33265710E-08
 -1.76255957E-08 -1.60291781E-03  1.35109908E-03 -4.96665570E-04  2.32262853E-07
  5.44698143E-03 -4.59060085E-03  1.68716292E-03 -9.95047986E-06 -3.64800794E-02
  3.07207808E-02 -1.12975288E-02 -8.28625568E-05  2.16385031E-02 -1.82137273E-02
  6.66550248E-03  2.39820496E-03  3.62696093E-03 -4.27149778E-03 -4.11243813E-03
  6.98700022E-04 -6.98229009E-03 -1.08724311E-02  1.20658654E-02  9.95724542E-03
 -2.38046410E-03 -6.40469262E-09 -2.73578587E-08  2.61206750E-07 -6.84143496E-07
  1.90339414E-06  1.00358056E-07  1.34077520E-04  1.87073311E-01 -1.57640694E-01
  5.78271099E-02  9.67845415E-01 -8.15470678E-01  2.99460174E-01  7.67141227E-01
 -6.46364830E-01  2.37360554E-01 -1.06510479E+00  8.97417618E-01 -3.29552032E-01
  5.79222704E-01 -4.88037554E-01  1.79210527E-01 -2.82108702E-01  2.37684047E-01
 -8.72619460E-02  9.33832624E-04  2.59219831E-03 -2.63388125E-04  6.01731796E-03
  1.58267238E-03 -3.77192520E-03 -1.18044498E-02 -5.26508468E-04 -3.29744389E-02
 -7.88204986E-03  2.09621703E-02 -2.49846168E-02 -1.04072088E-03 -1.34257923E-03
 -2.92683383E-04  5.11811777E-02  1.28737571E-02  1.14848465E-02 -1.03335126E-02
 -1.65045024E-01 -5.39523318E-02 -6.25247933E-02  4.05284891E-03  1.98132953E+00
  1.25342467E-01 -6.63613306E-02 -5.85654760E-01  1.81520199E-02 -6.59091199E-03
  1.45259458E-03  2.01993256E-03 -7.37344788E-03 -2.55197219E-01  8.93909102E-02
 -1.13131101E-02 -3.51888356E-02  1.36301273E-01 -2.09400748E-02  2.49153558E-02
  5.14875523E-03  9.57480165E-03  9.43851967E-03 -1.38146594E-02 -2.72245402E-02
 -4.71400864E-02 -4.03964067E-02 -9.16765312E-02 -6.01623298E-02 -1.57634837E-02
  1.51584890E-01 -1.35416395E+00  6.49599700E-01  7.61599573E-01 -2.56151417E-02
  5.67469446E-03 -3.82451512E-03 -2.63549458E-03  1.88187795E-03 -4.67120714E-03
 -1.85825858E-01  9.92299810E-02  3.21062189E-02 -3.78752879E-02  9.65238360E-02
 -8.11548957E-04 -2.61835857E-03  2.04241277E-02 -3.61516360E-02  4.17190267E-02
  1.10773319E-01  1.72220221E-01 -2.20644919E-01 -2.57405125E-01  1.17722128E-02
 -8.62698160E-01 -1.05525234E+00 -8.74226324E-02 -6.83609289E-01 -8.35953081E-01
 -6.86262751E-02  9.49107713E-01  1.16581395E+00  1.09439129E-01 -5.11115074E-01
 -6.63311892E-01 -1.55654155E-01  3.08635250E-01  3.64506590E-01 -4.32287663E-03
 -1.59335453E-03 -2.75301611E-04  5.19491671E-04 -8.86012530E-04  4.84186223E-03
  5.35633073E-02 -8.79065060E-04  2.70998196E-02 -1.25142280E-03 -2.08375566E-02
  4.02949992E-04  1.30505943E-03 -1.02416759E-02  1.83726479E-02 -1.72412743E-02
 -9.97611534E-02 -3.27099831E-01  1.01531101E-01 -9.95241031E-03 -3.55053960E-01
  5.72913685E-01  8.06434428E-02 -1.63061496E+00  4.54132530E-01  6.42151245E-02
 -1.29174967E+00 -6.26925411E-01 -8.20552370E-02  1.80118901E+00  3.08928974E-01
 -7.84075066E-03 -1.01894170E+00 -2.11770756E-01 -5.85094859E-02  5.24734070E-01
 -8.86742312E-04  2.16090443E-03  1.60884350E-03 -4.57753428E-04 -1.01498024E-03
  7.19951214E-03 -3.01979999E-02 -3.80788578E-02  1.44306307E-02 -1.59934839E-02
  9.02817134E-04  3.02466977E-04 -2.41776199E-03 -1.85212550E-03  2.76798157E-03
 -1.05693255E-02  5.50991344E-03  3.58416836E-03 -8.03940077E-03  1.10578743E-01
  2.62901405E-02  6.74605737E-02  9.87081707E-02  3.38504275E-01 -5.44892316E-02
 -3.31118449E-02  8.59910994E-02  3.18858072E-04 -4.05994977E-03 -6.87809159E-03
  2.82646476E-03 -5.44171569E-03 -2.67854344E-05  1.50617922E-02  2.31343372E-02
 -8.68410928E-03  1.22554263E-02  2.17979493E-04  7.39222182E-04 -5.97235062E-03
  1.14754106E-02 -1.57775012E-02 -4.86017610E-02 -6.09521507E-01  3.03881418E-02
  8.10146413E-02  1.22623150E-01  7.98698913E-02 -4.07304335E-02 -3.68094905E-01
  6.33015746E-02 -3.23258680E-02 -2.91858713E-01 -8.94864771E-02  4.14504186E-02
  4.01037029E-01  7.45806531E-02  1.96049800E-02 -1.87072123E-01  1.65409298E-02
  3.27102731E-02  3.53074319E-02  4.20406211E-04 -6.24221782E-03 -7.13088154E-03
  2.21208421E-03  3.68730361E-04  1.24490710E-02  7.57897182E-03  8.79664767E-03
  1.03377399E-03 -2.22275103E-02  8.05443989E-02 -9.63444628E-02 -2.41772075E-03
 -1.26898287E-04  7.46554420E-03  1.83610979E-01  4.19926256E-02  2.61823260E-02
 -6.44064077E-02 -8.58328199E-01 -3.40241456E-01 -3.53883909E-01  1.35894004E-01
 -1.54411567E+00 -6.52475918E-01 -3.38943697E-01  1.18595831E+00 -3.99773093E-03
  2.08981249E-03  7.50021644E-03 -5.01067601E-03  1.92561081E-02  9.25502659E-02
 -1.02930845E-01 -1.19394914E-01  6.27228181E-02 -1.44654365E-01 -2.44911583E-02
  2.93959197E-02 -3.69844220E-03 -1.45126942E-03  7.99400596E-03 -5.65910357E-02
  3.57736347E-02  2.68929778E-02 -4.23547450E-02  3.65195756E-01 -2.80737796E-01
 -9.36722344E-02  6.52276457E-01  1.85572819E+00 -8.98429293E-01 -9.74937016E-01
  2.48594236E-01 -1.62991582E-02  4.89114236E-03 -4.89845259E-03  1.45922671E-05
  7.34196874E-04  1.89976243E-01  2.46715278E-02  1.25424626E-01 -1.21808427E-02
 -8.51843598E-02 -3.91266365E-04 -1.23835054E-03  9.50181173E-03 -1.60556485E-02
  1.80940478E-02  6.01481504E-02 -1.05443191E+00  1.97613976E-01  3.13058822E-01
  2.13977335E-01  7.27177821E-01  8.10229067E-01 -1.43827908E-01  5.74714318E-01
  6.40465067E-01 -1.13366130E-01 -8.11991942E-01 -9.03064319E-01  1.65139196E-01
  4.79679553E-01  5.26500005E-01 -1.16563138E-01 -2.35055754E-01 -2.48501388E-01
  8.29814378E-02 -2.54646514E-03  2.05956063E-03  4.99933987E-03 -3.06162248E-03
  1.06144240E-02  1.54429958E-02 -3.23722049E-02 -4.12404158E-02  1.79774141E-02
 -3.14049186E-02 -8.11663807E-04 -2.61388813E-03  2.03883816E-02 -3.59655758E-02
  4.14540507E-02  5.11418913E-02 -4.60400713E-01 -3.27948200E-02 -7.93143244E-02
 -1.10072153E-01  2.34510544E-01  1.39822414E-01 -3.77674969E-01  1.85136930E-01
  1.10105351E-01 -2.98919931E-01 -2.66952228E-01 -1.65100910E-01  4.13745083E-01
  1.95836520E-01  1.61102232E-01 -1.94549125E-01 -6.69519453E-02 -7.18610583E-02
  2.08301600E-02  7.87217072E-03  2.42732416E-03  8.07534472E-03 -1.75537263E-03
 -5.88933268E-04 -4.66567532E-02  8.04791492E-03 -5.24845360E-03 -7.53533706E-03
  4.20908495E-02  2.95606657E-03  9.85286663E-04 -6.53666855E-04  2.48308790E-03
  8.87559297E-03 -2.89883608E-02  3.73379958E-04 -1.20539048E-02 -3.40353162E-02
 -5.76172934E-02  3.44146934E-02  4.31605582E-02  6.28520676E-03  5.27900586E-01
  2.82189389E-02  1.06285981E-01  1.98291618E-01  3.29629666E-03 -4.61810998E-03
 -6.76185865E-03  3.42527318E-03 -8.54107999E-03 -1.40190510E-02  1.40897891E-02
  1.63065644E-02 -8.95850938E-03  2.19988188E-02 -1.11516035E-04 -3.69249410E-04
  2.94564798E-03 -5.54155713E-03  1.18128559E-02 -4.28123891E-02  1.06271819E+00
  7.54175290E-03 -1.56676289E-01 -4.51054392E-01  6.48808303E-01  1.15178361E-01
 -1.78353425E+00  5.12876112E-01  9.10024417E-02 -1.40998725E+00 -7.21883025E-01
 -1.28172563E-01  1.98435176E+00  4.08638285E-01  6.69760931E-02 -1.13847741E+00
 -2.08289217E-01 -5.96181362E-02  5.10917616E-01 -9.99115101E-03 -4.50923980E-03
 -1.16409156E-02  2.55978906E-03  1.59660468E-03  4.30069731E-02  3.96271436E-02
  7.28996359E-02 -1.75962821E-02 -1.11395998E-02  2.30332989E-03 -2.98081097E-03
  5.21052208E-03  5.40060068E-03 -2.13906889E-03  2.28511556E-02  4.23549303E-03
 -2.30955561E-03 -1.99476773E-02  6.01208336E-01  1.54179313E-01  8.58968870E-02
 -2.64303215E-01 -1.65898874E+00 -4.59902634E-01 -4.03566118E-01  3.87349895E-01
 -1.25912994E-02 -9.69690698E-03 -1.93429833E-02  4.61865472E-03  2.49559220E-03
  1.09593547E-01  8.12331014E-02  1.59091140E-01 -3.56723404E-02 -3.53055632E-02
  3.55081558E-02 -4.29573552E-02 -6.16984020E-03 -4.21906732E-03  8.46245386E-03
  1.70500926E-01 -1.04201765E-02 -1.01012578E-02  6.12072507E-03 -8.47790059E-01
  1.85714382E-01  2.17379253E-01 -8.28079098E-03  2.13389265E+00 -1.55561897E-01
 -5.92753571E-02  3.41301171E-01 -4.40950354E-03 -8.38503338E-03 -9.55832287E-03
  1.49731616E-03  9.03400670E-03  3.95880724E-02  7.00446337E-02  6.21833687E-02
 -8.25041568E-04 -1.24422368E-01  5.71862833E-04  1.83945421E-03 -1.43579236E-02
  2.54122362E-02 -3.41498431E-02 -2.13096966E-03 -3.30738476E-02 -2.95653695E-02
 -3.36981397E-02  3.86909538E-03 -9.22194415E-01 -1.03004017E+00  1.75937175E-01
 -7.28817010E-01 -8.14149133E-01  1.38769745E-01  1.02563691E+00  1.14315397E+00
 -2.02280816E-01 -5.76714978E-01 -6.24126348E-01  1.64600329E-01  2.05474516E-01
  2.22155849E-01 -5.92557184E-02  1.28017574E-03 -1.30679043E-02 -1.52452728E-02
  4.94150264E-03 -7.07546744E-04 -3.78560938E-02  6.44904038E-02  5.54033857E-02
 -2.14638646E-02  7.66295487E-03  4.94644089E-04  1.57393129E-03 -1.21869777E-02
  2.11409239E-02 -2.67235659E-02 -3.89861211E-02 -1.13374953E-01 -3.04991248E-02
 -1.50565440E-02  5.76405272E-02 -5.85826877E-01 -2.59284434E-01  1.18772282E+00
 -4.62737712E-01 -2.04647329E-01  9.38599499E-01  6.55763920E-01  2.93209643E-01
 -1.32142189E+00 -3.93183018E-01 -1.95629969E-01  7.38290479E-01  1.34536311E-01
  5.93484629E-02 -2.73312588E-01 -1.30095535E-02 -4.37712837E-03 -1.19659293E-02
  1.92101786E-03  5.52965039E-03  6.82765597E-02  2.17223484E-02  5.49625197E-02
 -5.72556458E-03 -4.48459611E-02  7.95995073E-04  2.80894138E-04  2.03679897E-03
  3.03625756E-03  1.68533254E-03 -1.20564423E-02 -8.42737672E-03 -1.25784212E-02
 -7.01635694E-03  5.01462477E-02  3.89753103E-02  5.74314462E-02  3.04208482E-02
  1.88861272E-01 -2.44592712E-02 -1.54629994E-03  7.48755858E-02  8.69436858E-04
 -5.89462871E-03 -6.84336068E-03  2.29530213E-03 -7.34602639E-04 -3.86327050E-03
  1.58490315E-02  1.83129549E-02 -6.56580979E-03  4.36053284E-03 -3.29237793E-04
 -1.05145922E-03  8.15411426E-03 -1.41291734E-02  1.17173903E-02  4.29126931E-02
 -3.80045795E-01  1.18092652E-01  8.98148265E-02 -1.37119690E-01  3.40820737E-01
  6.90373042E-03 -1.08290223E+00  2.69576088E-01  5.75760136E-03 -8.55725115E-01
 -3.74812182E-01 -2.35301589E-03  1.20517373E+00  1.84858781E-01 -3.10154775E-02
 -6.82030661E-01 -9.09703959E-02  2.83805015E-03  3.01797630E-01 -6.50023003E-04
 -8.01479068E-03 -8.74840172E-03  2.24007110E-03  3.51995025E-03  2.67351054E-03
  3.87109031E-02  4.92714371E-02 -1.52676575E-02  1.35764250E-03 -4.52714782E-02
  5.54272156E-02  3.05183063E-03  1.65911345E-02  3.53197676E-02 -6.58197896E-02
 -4.29072033E-02 -1.34981407E-01 -2.28939021E-01  2.56585967E-01 -1.73701275E-01
 -5.84631983E-01 -1.03090186E+00 -2.89748112E+00 -1.82708411E-01  4.60224917E-01
  1.84409729E+00 -4.01767512E-02  1.47131642E-02 -3.98303930E-03 -3.95083706E-03
  1.39929248E-02 -1.98854308E-01  9.04245429E-02  3.74440373E-02 -4.81995147E-02
  1.58692651E-01 -7.74146593E-02  9.43239737E-02  1.38800246E-02  1.32255231E-02
 -8.84271450E-03  6.28893256E-02 -9.60364087E-02 -1.08443646E-01  1.50680703E-02
 -1.23646347E+00 -4.95982081E-02  1.01590573E-01  4.37109635E-01  3.54440348E+00
 -4.81193286E-01 -4.38821714E-01  3.59950316E-01  5.43334134E-03 -5.21265948E-03
 -3.95604088E-03  2.11268994E-03 -3.37007770E-03 -3.89015466E-03 -3.08986601E-02
 -1.15161743E-01  5.82683935E-02 -1.87857390E-01  1.66772320E-03  5.56598799E-03
 -4.53544857E-02  8.78405578E-02 -2.84281588E-01  1.00591511E+00 -1.55667239E+00
 -2.63024367E-02  4.52373513E-02  2.08372444E-01  3.38441134E-01 -1.87475116E-01
 -1.60468426E+00  2.63852016E-01 -1.45739338E-01 -1.24988859E+00 -3.95263725E-01
  2.25031285E-01  1.89066486E+00  2.60662654E-01 -1.76606948E-01 -1.32366330E+00
 -4.34055730E-02 -2.44698647E-03  1.33574934E-01 -3.73131659E-02  1.16679197E-02
 -8.64570887E-03 -1.36287275E-03  6.65263315E-03  2.02940648E-01 -5.21685608E-02
  6.45946757E-02  7.65175465E-04 -2.64489332E-02 -8.01598897E-04 -2.73943736E-03
  2.26383734E-02 -4.55120492E-02  1.93118134E-01 -8.68187113E-01  1.41585889E+00
  2.07022155E-01  2.13133927E-01 -8.88247957E-02 -7.17080445E-01 -9.36164473E-01
 -2.31787865E-01 -5.58214411E-01 -7.28720142E-01 -1.80324172E-01  8.51194102E-01
  1.11210303E+00  2.77453197E-01 -6.36017230E-01 -8.37253571E-01 -2.24423121E-01
  1.57546401E-02  3.73707089E-02  5.09299818E-02 -1.91684461E-02  8.25286962E-03
  5.06895257E-03 -5.71479069E-03  2.03721434E-02  1.02344433E-01 -5.53462528E-02
 -5.42410048E-02  4.30654700E-02 -1.42582434E-01  5.29529497E-03  1.57868531E-03
  3.69217132E-04  1.22422729E-03  2.14040801E-03 -6.72324120E-02 -2.61416040E-03
 -8.66651774E-03 -1.51542245E-02  3.47081665E-01 -6.25456357E-03  6.33183305E-02
  1.92699603E-01  4.10458462E-01  1.55349140E-02  5.46636706E-02  9.86798051E-02
 -8.81105979E-03  6.85340788E-04 -5.40861756E-03  9.87998950E-04 -5.84843226E-04
  2.64024038E-02 -3.53095175E-03  1.50247534E-02 -2.77649532E-03  3.27289861E-03
  6.35095068E-04  2.22920420E-03 -1.87509807E-02  3.89936885E-02 -1.68171049E-01
  5.27562649E-01 -6.46696059E-01  1.10843956E-01  1.09127185E-01 -6.09907479E-02
 -6.42219002E-01 -8.44923571E-01 -2.25293726E-01 -5.00052697E-01 -6.57812311E-01
 -1.75222818E-01  7.59216002E-01  9.99891742E-01  2.69178027E-01 -5.38849262E-01
 -7.15071493E-01 -2.05763289E-01  8.18186468E-02  1.00486383E-01  9.17372153E-03
  8.15358820E-03 -4.43828157E-03 -9.34389310E-03  6.50504161E-03 -2.38446759E-02
 -5.76464965E-02  3.43989497E-02  6.02433020E-02 -4.13107921E-02  1.44861008E-01
  1.05528081E-01 -1.29465119E-01  2.32624744E-02  2.50555732E-02 -6.95071300E-03
 -7.26567401E-02 -1.13486091E-01 -1.22349063E-01  3.36077195E-02  1.04495650E+00
 -5.26427853E-01 -9.05591730E-01 -7.64664749E-01  7.72493335E-01  4.44404611E-01
  4.35613225E-01 -2.50183264E-01 -1.85002261E-02  1.69884615E-02  1.54353180E-02
 -8.67873206E-03  1.87013952E-02 -5.36933450E-02  5.46525360E-02  1.17697896E-01
 -6.80344487E-02  2.20465790E-01  8.64113994E-02 -1.06407744E-01 -2.39412428E-02
 -2.86889571E-02 -7.53806214E-04 -2.68775849E-02  1.17215204E-01  1.46309139E-01
  1.96131804E-02  4.18541270E-01  6.61195606E-01  1.06227653E+00  7.55868021E-01
 -1.58759554E+00  2.50099474E-01  1.83949874E-01 -3.07276637E-01 -1.65141882E-02
  9.27747929E-03  5.61890557E-03 -4.89594956E-03  1.41209998E-02 -1.47917013E-01
  4.70869231E-02  4.90278789E-02 -5.62970394E-02  2.32391583E-01 -2.97211708E-04
 -1.00862544E-03  8.45752437E-03 -1.71574342E-02  4.64752089E-02  1.19767833E-01
  3.10371303E-01 -5.34425297E-02 -7.77933925E-02 -3.90515188E-02  4.25274906E-02
  1.21600174E-01  1.93798462E-01  3.28350355E-02  9.41393647E-02  1.50319421E-01
 -5.23134308E-02 -1.45369360E-01 -2.26918411E-01  4.55322555E-02  9.34503929E-02
  1.07400955E-01  5.97797413E-02  2.90454828E-02 -1.14261843E-01  5.23678814E-03
  3.52863761E-03  1.20104214E-02 -4.54333617E-03  1.04167001E-02 -1.56698901E-02
 -1.44343100E-02 -4.41567271E-02  1.72218517E-02 -3.99912497E-02 -1.97566552E-03
 -6.54495522E-03  5.37760723E-02 -1.05336055E-01  3.61709611E-01 -1.35670284E+00
  4.92424767E-01  9.55412531E-03  3.06152020E-02  5.24814093E-02 -9.33414330E-01
 -1.31893800E+00 -5.74969077E-01 -7.22630616E-01 -1.02104344E+00 -4.44988381E-01
  1.12418196E+00  1.58912387E+00  6.94183809E-01 -8.50872476E-01 -1.20372068E+00
 -5.27974812E-01 -9.28797146E-03 -1.60029438E-02 -1.34850728E-02 -1.83831906E-02
  1.86510142E-02  2.42531505E-02 -1.34535095E-02  3.55169434E-02  9.74542229E-02
 -1.01480077E-01 -1.38230341E-01  7.62944234E-02 -2.04552015E-01 -9.56426954E-04
 -2.03742105E-04  1.00308073E-03  6.39807607E-04 -1.49800789E-03  4.24890704E-03
 -5.93599427E-04  2.63965295E-03  9.10252752E-03  1.80221801E-01 -3.35009013E-02
 -1.60013960E-02  6.47270560E-02  4.55983049E-01 -9.45824484E-02 -5.45783549E-02
  1.57111832E-01 -2.29875488E-03 -1.84601783E-04  4.58911342E-03 -3.56239092E-03
  1.59680060E-02  1.15146044E-02 -2.21825185E-03 -1.12796829E-02  9.49771511E-03
 -4.11544291E-02 -1.61997047E-03 -5.40635591E-03  4.46537832E-02 -8.86266209E-02
  3.28304342E-01 -1.32813644E+00  9.74375367E-04  9.92448698E-03  2.24482434E-02
  2.90377526E-02  9.15196706E-01  1.22199828E+00  3.69870722E-01  7.08260687E-01
  9.45625538E-01  2.86060491E-01 -1.10585801E+00 -1.47745356E+00 -4.49317302E-01
  8.55146673E-01  1.14467976E+00  3.53393701E-01  4.08221662E-02  6.08464910E-02
  3.37344390E-02 -2.19791906E-02  1.50565066E-02  1.72033125E-02 -1.14977875E-02
  3.49118364E-02  1.20797848E-01 -8.46600674E-02 -1.05359391E-01  6.91306342E-02
 -2.13141642E-01 -8.24319973E-02  1.00598070E-01 -2.28229259E-02 -1.82554190E-02
  2.40694675E-02  3.79134270E-01  1.33045715E-01  1.10143767E-01 -1.30155782E-01
 -2.99986400E+00  3.41189484E-04 -2.44930424E-01 -6.68527039E-01  6.37741718E+00
  6.04763748E-01  4.59474315E-01 -7.02896128E-01 -7.32910290E-04 -1.01262152E-02
 -8.02814818E-04 -3.44054257E-03  2.99575433E-02 -4.11799475E-01  4.18292143E-02
 -3.61449372E-01  1.16491858E-01 -3.28855224E-01  5.26450850E-02 -6.43227506E-02
 -1.14523537E-02 -1.22902728E-02  3.55744523E-03 -2.78486197E-01  9.47526237E-02
  9.21515829E-02 -5.53583629E-02  2.58306257E+00  2.95429810E-01  5.36079522E-01
  5.05066228E-01 -5.91937632E+00  5.46232640E-01  2.60355157E-01 -1.05644152E+00
 -2.06677149E-02  1.36378182E-02 -3.62921724E-03  1.16714747E-03 -1.51668244E-02
  4.22584249E-02  7.70417788E-02  3.00314788E-01 -1.43796749E-01  4.45909195E-01
  1.03211499E-03  3.61039335E-03 -3.10286934E-02  6.70233545E-02 -3.55753368E-01
  1.59452370E+00 -5.61428359E-01 -4.92186679E-02 -6.16793525E-03  1.42241674E-01
  1.19138298E-01 -4.38176431E-01 -1.57886449E+00  9.13744025E-02 -3.37805558E-01
 -1.21567120E+00 -1.53503907E-01  5.35301493E-01  1.95455869E+00  1.63369375E-01
 -4.21315559E-01 -1.67592701E+00  2.34962732E-02 -2.06396723E-02 -1.32207946E-01
 -4.91772597E-02  4.63449279E-03 -2.66562691E-02  3.63779055E-03  3.13162321E-03
  3.53556486E-01 -7.12373444E-02  1.49531469E-01 -1.42024844E-02 -1.29514627E-02
  4.32493667E-04  1.62845672E-03 -1.46502648E-02  3.45628788E-02 -2.18124144E-01
  8.28938650E-01 -1.04274427E+00 -1.55711657E-01 -1.97381094E-01 -3.43527395E-02
  5.11788279E-01  7.73575451E-01  4.52408406E-01  3.93755318E-01  5.95455279E-01
  3.48855265E-01 -6.38232335E-01 -9.59850250E-01 -5.50983471E-01  5.56445693E-01
  8.13972451E-01  4.18084430E-01 -1.78795671E-02 -1.01020043E-02  3.03581794E-02
  3.19986202E-05 -1.20041258E-02 -2.42066008E-02  1.04741979E-02 -2.42374698E-02
 -5.15173310E-02  6.64652573E-02  1.22322369E-01 -6.58888722E-02  1.92525089E-01
 -2.42051052E-03 -6.39910808E-04 -4.75719379E-03 -2.50089279E-03  8.56169768E-03
  4.36416237E-02  1.53298623E-02  1.11167687E-02 -1.92635192E-02 -3.35341042E-01
  1.95791730E-02 -5.02616941E-02 -2.00216438E-01 -1.14672804E-01 -3.00407081E-02
 -5.21050472E-02 -4.47924544E-02  7.46849703E-03 -4.88890546E-03  3.23320075E-03
 -1.58967237E-03  1.01788892E-02 -2.93450964E-02  2.01893547E-02 -6.72384593E-03
  2.92993153E-03 -2.79907851E-02 -7.63481209E-04 -2.68918683E-03  2.32074459E-02
 -5.07635221E-02  2.97725971E-01 -1.46382277E+00  1.10690310E+00 -2.07350546E-01
 -2.23228808E-01  6.22896682E-02  7.75326717E-01  1.04880856E+00  3.50239281E-01
  5.96575899E-01  8.07168804E-01  2.69933143E-01 -9.66419519E-01 -1.30480694E+00
 -4.29757937E-01  8.68160783E-01  1.16128153E+00  3.56490554E-01  9.06397290E-02
  1.01893941E-01 -1.55178315E-02 -2.09734029E-02  1.17429838E-02  1.27971861E-02
 -9.71385466E-03  3.22146824E-02  1.54730693E-01 -7.34979479E-02 -9.07795577E-02
  7.42498113E-02 -2.68413781E-01 -2.86507162E-04  5.05419721E-04 -1.03590476E-03
 -3.46495200E-04  2.40259116E-03 -1.75118288E-02  6.11540367E-03  4.28799719E-03
 -8.07999133E-03  1.82628724E-01 -2.80345803E-02 -9.00735171E-02 -1.54699750E-01
 -7.38233182E-01 -1.43305662E-01 -1.63883502E-01  1.68419261E-02 -1.77932154E-03
  2.59015211E-04 -1.32918420E-03  3.89042610E-04 -1.07362561E-03  3.11771728E-02
 -3.54504499E-03  2.05064891E-02 -4.74121955E-03  8.85544665E-03 -8.03493341E-03
  1.46997387E-02  1.70422303E-03  9.18817244E-04 -3.00741767E-03  8.32786335E-03
 -1.20171225E-02  1.59063625E-02  8.21733731E-02 -5.33651815E-01  1.53191625E-02
  1.23204242E-01  2.86055093E-01  8.21276656E-01 -9.60727099E-02 -7.25462876E-02
  1.12919016E-01 -1.28335093E-02  1.39200326E-03 -3.53652462E-03 -1.08591594E-03
  8.83256051E-03 -4.70885092E-02  7.83748177E-03 -4.64130429E-02  1.75628816E-02
 -5.95886900E-02  2.26112774E-04  2.00178822E-04 -2.93110194E-03  5.93124639E-03
 -1.07349393E-02  3.10484941E-02  1.49498058E-01  1.93507725E-02  1.01087678E-02
 -3.50252248E-02  1.50406935E-03  4.37954250E-04 -3.66725133E-03  9.54630833E-04
  2.67524686E-04 -2.35609186E-03 -2.64205756E-03 -1.07549579E-03  5.60698825E-03
  2.50672501E-03  3.37428112E-03  1.09595787E-03 -1.73643434E-03 -6.90775599E-03
 -1.32155810E-02 -7.82725000E-04  7.07483179E-05 -1.20826480E-04 -1.29447529E-04
  8.18292613E-04 -3.94054627E-03  1.63539961E-03 -1.77778834E-03  5.35360940E-04
 -2.68716965E-03  2.19072654E-05  1.56348913E-05 -2.03841089E-04  1.51405528E-04
  8.36019503E-03 -9.14702421E-02 -1.15717937E-01 -8.92282820E-03 -8.82250918E-03
  4.81948219E-03 -3.13588478E-03 -4.67118120E-03 -2.58498166E-03 -1.86797144E-03
 -2.81460861E-03 -1.62720689E-03  8.13892355E-03  1.14640640E-02  4.91315550E-03
 -2.35072977E-02 -3.06239989E-02 -7.41842399E-03 -2.40490533E-02 -3.36415338E-02
 -1.38732676E-02 -1.44015443E-03  1.51950177E-03  8.99309826E-04 -4.17964783E-04
  1.00597131E-04  1.01775318E-02 -5.92283823E-03 -3.47231388E-03  2.94967166E-03
 -8.09963696E-03 -2.32643022E+00  2.40275403E+00 -3.62133351E-04  5.51739280E-04
  2.67279195E-03 -2.79318946E-01  2.17994876E-03 -4.04070279E-03 -1.80503412E-02
  5.45555743E-01 -2.66456701E-02  4.07052682E-02  1.96992019E-01  5.29637585E-02
  5.33771081E-03  1.80306863E-02  3.18720230E-02 -1.18175494E-02  2.56448734E-03
 -4.99074829E-03  5.36776139E-04 -9.98664101E-05  4.14048030E-02 -9.41657996E-03
  1.70196056E-02 -1.75254511E-03  4.90925779E-04 -1.66246566E-04 -1.36143019E-04
  1.93097204E-03 -3.29551160E-03 -7.28376980E-03  4.66855745E-02 -9.32611322E-02
  1.69057744E-02  2.48683477E-02  1.30876039E-02 -2.94301629E-03 -6.22202980E-03
 -7.43063982E-03 -1.75462887E-03 -3.74788151E-03 -4.53441421E-03  7.80502037E-03
  1.53465239E-02  1.65631429E-02 -2.23129778E-02 -3.77199345E-02 -3.05993480E-02
  3.59253686E-03 -5.71519613E-03 -2.71853513E-02 -1.78505058E-03 -1.62988404E-03
 -3.34181347E-03  9.29968208E-04 -3.73945243E-04  2.74609777E-03  1.09811864E-02
  2.06213229E-02 -7.82966755E-03  1.36214532E-02 -6.33778749E-04  1.13853495E-03
  1.61933129E-03  4.83599321E-05 -5.10402564E-03  8.24694580E-03  4.98210295E-04
  3.32676346E-03  7.45258820E-03 -3.44873482E-02  9.34104277E-02  8.10276364E-02
 -8.12839785E-02 -2.96634768E-01 -2.37410188E-01 -1.39081954E-01  3.88645908E-01
 -7.00546646E-04 -6.86253057E-04 -1.31066877E-03  3.47170299E-04 -4.33918447E-06
 -1.48885131E-02  1.20229595E-02  4.40862349E-03 -2.66433155E-03 -1.70225526E-05
  6.13426210E-04 -1.52237159E-03 -8.23932568E-04 -3.06322689E-03 -5.67868238E-03
  2.63111879E-02 -8.22505814E-03 -7.29561499E-04  2.45954618E-02 -2.19090348E-01
 -8.42796022E-03 -4.12328451E-02 -8.50279768E-02  1.15057226E+00 -7.31828473E-02
 -3.91942115E-02  1.29726527E-01  3.85287547E-03 -2.98301129E-03 -3.63811297E-04
  2.60175931E-04  1.55925227E-03 -3.27817989E-02  1.46521762E-02 -8.24816927E-03
  8.18470004E-04 -9.12811105E-03 -1.13040354E+00  1.40610458E+00 -1.06787561E+00
  7.31199810E-01 -3.48180191E-01  3.09002049E-01 -5.29085369E-01  6.12513823E-03
  6.48274681E-02  1.56798197E-01 -2.86809965E-04 -2.97577194E-03 -7.17903858E-03
 -1.40089246E-04 -1.68597531E-03 -4.13984628E-03  1.16478648E-03  7.17262688E-03
  1.57733434E-02 -3.77274969E-03 -1.34157164E-02 -2.43494619E-02 -3.83413611E-04
 -2.51396829E-02 -6.72388528E-02 -4.21247070E-03 -7.42574153E-05 -3.09049730E-03
  6.33942223E-04 -3.21287876E-04  1.70591791E-02  2.45127431E-03  1.52999970E-02
 -3.48824308E-03  1.74968103E-03 -5.75146820E-01  7.15419103E-01 -5.43357955E-01
  3.72292057E-01 -1.79898496E-01  1.73299494E-01 -1.31726246E-01 -9.94516157E-03
 -3.39623342E-02 -6.03486534E-02  1.40137463E-03  3.48614155E-03  4.96580669E-03
  7.92925816E-04  1.98112725E-03  2.83317329E-03 -3.23801786E-03 -8.06172784E-03
 -1.14921878E-02  4.48631279E-03  1.22036368E-02  1.87397585E-02  2.14448349E-02
  3.43344179E-02  2.41881316E-02 -2.13608270E-05 -1.78108853E-03 -2.61570192E-03
  9.46488269E-04 -1.10867255E-03  1.89306222E-03  7.20324225E-03  1.16154140E-02
 -3.93388544E-03  3.99560789E-03 -2.27927751E-04  4.58714472E-04  4.59333537E-04
 -1.52527819E-04 -1.90051971E-03 -4.82929728E-03 -1.70548940E-03  2.37883569E-04
  6.16179065E-03  5.07436692E-02  6.23500520E-03  1.41923468E-02  1.84997169E-02
 -6.24042364E-02  8.61387575E-04 -8.81727940E-03 -2.68018384E-02 -4.32984793E-04
 -7.17718686E-04 -1.02551788E-03  2.39195767E-04  3.48770220E-04  3.39291837E-03
  2.22992685E-03  4.73739670E-03 -1.09472040E-03 -6.95605526E-04 -8.77848633E-01
  1.09198214E+00 -8.29541381E-01  5.68527699E-01 -2.74381450E-01  2.59655881E-01
 -2.98783783E-01  6.87350907E-02  8.92996427E-02  2.10427724E-02 -5.58924738E-03
 -6.67287969E-03 -1.06976884E-04 -3.20732139E-03 -3.83233082E-03 -7.00507993E-05
  1.25943961E-02  1.49464826E-02 -3.24523726E-06 -2.01649736E-02 -2.34881764E-02
  1.21094972E-03 -3.99211837E-02 -5.25441108E-02 -1.40668930E-02  1.58231770E-03
 -6.75916253E-04 -1.33918305E-03  1.03944050E-03 -4.00291087E-03 -6.79557398E-03
  1.28806565E-03  3.64920164E-03 -3.76574216E-03  1.68272876E-02 -1.89976243E-03
  4.03533795E-03  4.86940579E-03  6.40076090E-03  1.69246475E-03 -1.53039631E-02
 -1.23726417E-02 -1.42137654E-02  1.28080845E-03  7.16362356E-02  1.05946260E-01
  1.12094991E-01 -3.71616569E-02  6.39315838E-03 -2.29273893E-01 -2.76428231E-01
 -1.17633661E-02  1.95233381E-03 -1.13102577E-03 -2.16886965E-03  1.49000079E-03
 -5.32928724E-03  7.14895754E-05  8.12928963E-03  1.26769085E-02 -4.77888654E-03
  6.94664184E-03  1.80795895E-03 -3.89198593E-03  4.14005320E-03  5.14390960E-03
  6.28230903E-04  2.27889660E-02 -1.30420470E-02 -1.33530074E-02  5.78458196E-03
 -1.03314402E-01  8.12537823E-02  6.89403980E-02 -7.48686915E-02  1.19714075E-01
 -1.82693432E-01 -2.00589632E-01  4.42073167E-02 -1.24100093E-03 -1.52889366E-04
  1.33055094E-03 -1.23777876E-03  5.91067406E-03  9.53270855E-04 -7.54444213E-03
 -1.54421374E-02  6.99602468E-03 -1.73930319E-02 -3.42773813E-02  4.26508187E-02
 -3.24857254E-02  2.24437918E-02 -1.19484355E-02  1.21213325E-02  3.73650055E-02
  2.60150056E-02  2.70509755E-02 -1.04199303E-02 -3.02675947E-03 -3.42079475E-03
  4.67790759E-04 -1.71775308E-03 -1.93236489E-03  2.90028957E-04  7.24874397E-03
  8.32803490E-03 -7.50893371E-04 -1.30785579E-02 -1.49926023E-02  1.44520291E-03
 -8.39848221E-03 -1.21133115E-02 -5.84467705E-03  2.39640131E-04 -1.61975021E-03
 -1.73824300E-03  5.43056992E-04  1.53330389E-04 -1.38405823E-03  9.45294291E-03
  1.05139287E-02 -3.39242812E-03  5.40802506E-06 -1.26941969E+00  1.57948169E+00
 -1.20224059E+00  8.26899952E-01 -3.97534886E-01  3.40726040E-01 -6.34782973E-01
 -1.11060490E-01 -1.54764774E-01 -6.24905087E-02  3.29243300E-03  5.23892250E-03
  3.62644844E-03  1.95491886E-03  3.09071361E-03  2.09887731E-03 -5.86773994E-03
 -9.79932676E-03 -7.72328400E-03  2.39744851E-03  6.70943063E-03  1.05265307E-02
  4.33855379E-02  6.18674375E-02  2.82490068E-02  1.03146325E-03 -1.52517686E-03
 -2.91997729E-03  1.53686797E-03 -4.44330921E-03 -7.20285069E-04  4.83769938E-03
  9.86136435E-03 -4.49329974E-03  1.12396325E-02 -2.86521080E-04  6.61691541E-04
 -4.43898061E-04 -4.17533484E-04  2.97504714E-04 -2.88697169E-03  2.04111869E-03
  2.01561512E-03 -1.10761529E-03  9.86498076E-03 -1.63366583E-02 -1.70100697E-02
  6.47988848E-03 -4.70112015E-02  7.94065965E-03  2.09343905E-03 -1.99660567E-02
 -2.38074012E-04  9.13744200E-04  7.23772069E-04 -1.78821305E-04 -5.53841948E-04
  9.17980159E-04 -3.49744006E-03 -2.96103727E-03  8.03698002E-04  1.63091351E-03
  8.75855013E-01 -1.08982219E+00  8.29713766E-01 -5.70804349E-01  2.70801959E-01
 -2.10042487E-01  4.63707171E-01 -7.97404701E-02 -1.11258913E-01 -4.52657644E-02
  1.19113498E-03  1.91047321E-03  1.35284054E-03  7.57635670E-04  1.18631969E-03
  7.81899993E-04 -8.85711058E-04 -2.08079167E-03 -2.80376312E-03 -7.21840535E-03
 -7.52708110E-03  2.83186483E-03  2.27817785E-02  3.59997368E-02  2.44051544E-02
 -7.54551379E-04  1.16514497E-03  1.97950159E-03 -1.00993522E-03  2.70870576E-03
 -1.68712705E-03 -3.44733471E-03 -6.32185169E-03  2.12218808E-03 -2.48775905E-03
 -1.03879577E-03  2.25307985E-03  1.59396413E-04 -1.63439831E-03 -4.96747282E-03
 -1.79876356E-02 -7.60265465E-03 -9.35492592E-03 -9.03496449E-04  8.90049925E-02
 -2.62211054E-02 -1.11754832E-01 -2.19619028E-01  7.32502183E-02  3.92158698E-02
  1.86072878E-01  3.80075712E-01 -1.15681522E-02  4.64989348E-03 -6.05607722E-04
 -1.31853530E-03  4.12950425E-03  9.16254618E-02 -3.30484881E-02  5.31693765E-03
  1.15112769E-02 -4.28656073E-02  1.53719082E-03 -3.28693631E-03  1.56393269E-03
  1.93693079E-03  2.19524622E-04  1.59735022E-02  2.87784799E-03  6.31271020E-03
  7.89217773E-03 -9.80592135E-02  9.87881522E-02  1.65061346E-01  1.30244555E-01
 -1.56378600E-01 -1.26113921E-01 -1.81138179E-01 -8.57318901E-02 -6.19305843E-03
  2.64157000E-03  1.62849994E-03 -1.84931458E-03  6.63833612E-03  7.86852396E-02
 -3.88443178E-02 -1.58806875E-02  1.86035297E-02 -5.62633067E-02 -1.04916310E+00
  1.30590380E+00 -9.96905259E-01  6.89948994E-01 -3.37749789E-01  2.92023377E-01
 -5.75923576E-01 -2.73928822E-02  3.03466971E-02  1.71247032E-01  2.41279889E-03
  5.52409520E-04 -6.29253245E-03  1.36344476E-03  2.35533383E-04 -3.76457195E-03
 -5.75053183E-03 -3.18632117E-03  9.90375651E-03  9.07451552E-03  1.41777790E-02
  9.29812222E-03  1.12093439E-02 -1.36570379E-02 -7.34582075E-02 -5.26846129E-03
  2.10393243E-03 -9.38156775E-04 -1.98029436E-04  2.61614429E-04  3.57663525E-03
 -8.97793164E-03 -8.58196918E-03  3.02526050E-03 -3.61765739E-04  6.61459741E-01
 -8.23320604E-01  6.28524830E-01 -4.35199338E-01  2.16329458E-01 -2.09135587E-01
  3.10780832E-01  6.21333011E-02  7.90212282E-02  1.43438598E-02 -5.32669768E-03
 -5.45506798E-03  2.35979345E-03 -3.06395141E-03 -3.18020795E-03  1.24186963E-03
  1.14684865E-02  1.07123933E-02 -7.89197619E-03 -1.30470022E-02 -6.76365388E-03
  2.37444533E-02 -3.66814175E-02 -4.72431872E-02 -1.00830823E-02 -2.69428986E-03
  3.61793787E-04  1.63687113E-04 -7.59757668E-04  3.91239491E-03  1.21870022E-02
  6.74370071E-03  1.20907047E-02 -1.36965402E-03 -1.09977632E-02 -5.99568866E-04
  1.36147454E-03  1.15753276E-04  6.60026598E-04  1.42353606E-03 -5.77330936E-03
  5.30662815E-04 -1.68905905E-03 -6.31549699E-03 -8.53614540E-03 -2.12590386E-02
 -2.50830501E-02  3.92184496E-04  1.14859860E-01 -5.29604273E-03  1.02001610E-02
  4.49064751E-02 -6.52898231E-04  2.26699237E-03  2.21974521E-03 -7.22890274E-04
 -2.04056829E-04  1.53330928E-03 -8.83030437E-03 -9.43700730E-03  3.00509904E-03
  5.39141635E-04  9.17648102E-01 -1.14223627E+00  8.72190918E-01 -6.04126033E-01
  2.97947153E-01 -2.55674031E-01  3.38720287E-01 -6.50934458E-02 -8.92112332E-02
 -3.25371658E-02  3.74117450E-03  4.65548636E-03  5.88892656E-04  2.21010337E-03
  2.76966158E-03  4.00736609E-04 -6.41018334E-03 -7.47850744E-03  3.46167867E-04
 -4.00268428E-03 -8.52001878E-03 -1.02546385E-02  4.48853154E-02  6.06110471E-02
  1.99791078E-02 -2.10185283E-03  9.58202089E-04  1.50753925E-03 -1.19178293E-03
  4.45525989E-03  1.81107527E-03  3.07406943E-03  3.37609610E-03 -4.13938463E-04
 -3.96663388E-03
Total SCF Density                          R   N=       17391
  6.58164184E-01  5.59614420E-01  4.88647265E-01 -4.38655861E-03 -6.02832440E-03
  8.66126331E-02 -3.58878315E-03 -4.93428515E-03 -6.91378756E-03  7.87833934E-02
  4.40829308E-03  6.05243548E-03 -3.74252290E-03 -1.16878064E-02  7.15432419E-02
 -8.14849618E-02 -1.44406721E-01  1.45931818E-02  1.20446129E-02 -1.43781200E-02
  4.50471545E-01  2.84902391E-03  1.93030159E-03  1.30536967E-01 -1.33916505E-02
 -1.24213313E-03  3.56622071E-03  1.98205320E-01  2.51679363E-03  1.85025647E-03
 -1.36297108E-02  1.20328078E-01 -1.34342096E-02  2.35818295E-03 -2.39533045E-02
  1.85089248E-01 -2.34896288E-03 -1.19174162E-03 -1.88996626E-03 -1.42034654E-02
  1.08860712E-01 -5.12260082E-03  2.88209771E-03 -1.56960369E-02  1.67214710E-01
 -7.87840596E-02 -1.12489812E-01 -1.75392394E-02 -1.49677224E-02  1.58521101E-02
  2.77349020E-01 -3.61443343E-02 -3.06879763E-02  3.31338762E-02  2.08226676E-01
 -3.99832507E-03 -6.06512638E-03  7.35750743E-02 -3.68306100E-02  1.43350703E-02
  1.57340083E-02  1.12048985E-01 -5.79480287E-02  2.44113049E-02 -2.65045642E-03
  8.39005882E-02 -3.60735065E-03 -5.47820356E-03 -3.61973808E-02  6.20520602E-02
 -1.09950243E-02  1.42987264E-02 -5.72887059E-02  9.52029544E-02 -1.42780888E-02
 -3.74916433E-03 -4.91576961E-02  7.17158092E-02  3.10479052E-03  4.69450607E-03
  1.60667809E-02 -8.94053645E-03  3.27602958E-02 -1.19428196E-02  2.62177270E-02
 -1.21348706E-02  5.06342546E-02 -1.73603802E-03  2.33912182E-02 -6.82849705E-03
  3.83503316E-02  1.13976143E-01  1.35931715E-01  5.98799743E-02  6.62754073E-02
 -1.30612206E-02 -2.54628675E-01  8.43494964E-02  9.47980580E-02 -1.44794810E-02
 -2.57621479E-01  5.93715087E-04  2.00750059E-02  5.27121382E-02  1.66942940E+00
  3.69878182E-02  4.51427474E-02  2.37043440E-02  4.37434171E-03 -1.34795445E-02
 -8.57723202E-02  3.54251261E-02  7.14487316E-03 -1.85709506E-02 -6.19414346E-02
  8.90982290E-03 -1.19082560E-02  1.15078852E-02  2.92574493E-01  1.06283433E-01
  3.34632744E-02  4.06358944E-02  3.29622210E-03  1.03495966E-02 -2.56442896E-02
 -7.62351827E-02  4.54315836E-03  1.52398901E-02 -3.76359001E-02 -5.27796555E-02
 -1.60658865E-02  2.43711789E-04 -8.72355592E-03  2.02538287E-01  8.77221322E-02
  1.16667964E-01 -2.84118153E-02 -3.52343930E-02 -1.63994209E-02 -2.91254432E-02
 -1.04239764E-02  6.95960695E-02 -2.56329115E-02 -4.60414562E-02 -1.88151447E-02
  5.64437937E-02  2.06845270E-04 -2.21572853E-02 -3.84522875E-02 -3.94040947E-01
 -6.30475487E-02 -8.73079214E-04  2.14285013E-01 -4.52724511E-04 -9.31129189E-04
 -6.14332862E-04  1.90071289E-03  2.77404344E-03  3.20177871E-03 -9.32747401E-04
  3.02144091E-03  4.54904009E-03  2.70310190E-03 -5.76009471E-04  1.45271759E-03
  9.23883904E-06 -7.73288546E-03 -1.95699686E-03 -1.70875301E-03  9.29066812E-04
  4.01087084E-04  6.47574095E-04  1.46185116E-03 -3.87212457E-03 -2.09995746E-03
  1.23084949E-03 -5.53527078E-03 -5.61481835E-03 -3.00119154E-03  1.48950904E-03
 -1.44730656E-03 -2.27321746E-03  5.84416222E-05  8.71843855E-05  3.17462334E-03
  2.38954901E-04  2.37614377E-04 -8.27373495E-04 -1.75416069E-05  4.87601025E-04
  1.20232089E-04  3.08937094E-04 -1.63713067E-03 -4.04199190E-03  3.36633873E-03
 -1.40182957E-03 -2.29279451E-03 -5.99601988E-03  4.94490891E-03  1.50143912E-03
  1.32295441E-03 -2.42558507E-03  1.07891761E-03 -2.35996547E-03 -1.15551282E-03
 -1.88192594E-03  4.29557575E-04  3.57200585E-05  2.85549609E-04  5.93975197E-04
  3.11237859E-05  7.37817147E-05  3.40212053E-03 -1.09852564E-03  4.35406405E-04
 -2.31665731E-04  5.17992613E-03 -1.67623709E-03  7.34107384E-04 -6.61303284E-04
  3.41490690E-03 -2.46978830E-03  9.90215924E-04  3.43467704E-04  1.17883258E-03
 -6.39624701E-05  2.18988021E-06 -3.18473736E-05 -1.54309237E-04  2.65437037E-06
  3.37642712E-04 -8.90731867E-04 -2.07166274E-03  6.07864879E-04 -1.78939491E-04
 -2.54126951E-03  7.81571044E-03  5.46337428E-04 -6.68975376E-04 -3.71755031E-03
  3.53692016E-03  4.74739288E-04  3.00113833E-04 -8.93322244E-04 -2.33569364E-03
 -1.59763616E-03 -1.40567970E-03  1.58704382E-03 -1.33603414E-04 -8.91184299E-05
 -1.34287405E-04  9.23657658E-06  3.11859001E-04 -2.84095527E-03 -3.90658428E-03
  2.27293881E-03  6.59096490E-03  6.24086264E-03  8.92475944E-03  2.87022219E-03
  9.51920443E-03  1.02290531E-02  7.38934781E-03 -4.76275691E-04  1.23658573E-03
 -2.41890737E-03 -3.33117014E-02 -7.78172238E-03 -4.68165213E-03  1.23410861E-02
  1.50074884E-03 -1.89529334E-04 -5.42445414E-05  7.35805224E-05 -6.65824518E-04
  1.12007005E-02 -9.80107963E-04 -5.43368269E-04 -5.99068156E-04 -3.12509940E-04
 -4.66612477E-03 -1.92672206E-03 -1.34468422E-03 -9.61481882E-04 -6.78320064E-03
 -2.74686147E-03 -3.78442169E-04  2.58583502E-03 -1.37459742E-03  2.77330889E-02
  5.98131682E-03  2.70802940E-03 -1.07712404E-02 -1.43126196E-04  9.78232376E-04
  2.20068512E-04 -2.45806344E-04  3.12158973E-04 -1.61306875E-03  5.99785304E-03
 -3.92355586E-03 -4.34858970E-03  2.25546692E-03 -8.94565155E-04 -9.73838637E-04
  5.89857474E-03  2.43618061E-03 -2.09697802E-03 -7.66932506E-04  3.56226924E-03
  4.25470356E-03 -8.10961838E-04 -1.23199064E-03  1.25469540E-02  1.75149411E-03
 -5.95092877E-04 -5.65677174E-03  1.79499203E-05  2.49269096E-04  1.17565954E-03
  4.99403941E-05 -1.03014236E-04  6.57727154E-04  2.33505249E-03  6.66332424E-03
  1.21619749E-03  1.32478896E-03  2.77103281E-03 -7.53242242E-04  1.86437370E-03
 -1.71065462E-03  4.25152453E-03 -8.16198044E-04  2.65369911E-03 -1.02808863E-03
  3.36168641E-03 -3.45799184E-03  1.47545594E-03 -7.31318156E-03  3.67528544E-04
 -1.30711359E-03  3.62300262E-03  6.08211714E-05 -2.47749743E-04  1.41797589E-06
  9.61428700E-04 -2.04539608E-05  1.07537689E-03 -1.28909524E-03 -5.65601396E-04
  3.94821610E-03 -1.99971579E-03 -2.56947217E-03 -4.49554187E-03 -5.73508454E-03
 -1.43382479E-03  5.37640588E-03 -6.61803582E-03 -8.55842985E-03 -2.48129463E-03
  4.63688712E-03 -9.53325742E-04 -5.53465778E-04  1.02225566E-03  4.15885977E-03
 -3.35892727E-04 -1.84150597E-03 -2.52448474E-03 -6.23620675E-04  4.44934587E-04
  7.64938086E-05 -8.25181095E-05  6.44081267E-04 -6.00444303E-03  1.94599415E-03
 -1.34511701E-03 -2.89702608E-04  4.66966677E-03  7.71259268E-03  1.25246421E-02
 -1.41038490E-02 -1.17096753E-02  1.36912858E-02 -3.50708154E-02 -2.42214487E-02
 -2.03128284E-02  2.29605197E-02 -1.13532434E-02 -7.84241310E-03 -5.89989708E-03
  9.27472517E-03  9.09001619E-03  1.77107525E-02  3.03462880E-02  2.54045393E-02
 -1.00863774E-04  2.13474165E-03  1.88066230E-03 -4.01284480E-04 -1.59432660E-03
  3.67457814E-03  2.78025620E-03  4.55594619E-03 -6.99106830E-04 -3.29915693E-03
  6.58187381E-01  1.25218647E-02  1.95598713E-02 -2.26696717E-02 -1.88420930E-02
  2.19502340E-02 -5.31167708E-02 -3.59245357E-02 -3.01225148E-02  3.40669221E-02
 -1.27444954E-02 -9.72432163E-03 -7.13739571E-03  1.19839544E-02  4.08055577E-03
  2.11572110E-02  3.66196665E-02  3.13493951E-02 -1.81753687E-05  3.12825638E-03
  2.86988542E-03 -6.19994645E-04 -2.27230870E-03  4.66999078E-03  2.64679271E-03
  4.92920106E-03 -6.85252197E-04 -3.65863298E-03  5.59397850E-01  4.88239475E-01
  1.33927871E-02  2.14686495E-02  1.69150440E-02 -5.31484282E-02  3.87763489E-02
 -6.18804588E-02  3.13477071E-02 -7.76298727E-02  5.55282129E-02 -2.53041603E-02
  3.96615549E-02 -5.01201017E-02  2.72237861E-02  5.32107798E-02  5.64625675E-03
 -7.57115546E-03 -1.48160898E-02 -1.20302265E-03  1.40135004E-03  4.60411599E-03
  2.64836810E-03 -1.34416541E-03 -7.44091490E-03 -2.37511378E-03  3.92929719E-03
  6.50237693E-03  3.62000227E-03  4.90688395E-03  6.95414121E-03  8.75929535E-02
  1.12671905E-02  1.80148165E-02 -5.30703908E-02  1.57156683E-02  1.36243956E-02
 -5.19817491E-02 -7.77275790E-02  2.80816778E-02  1.73943591E-02 -2.46410198E-02
 -4.98499900E-02  3.23125958E-02  3.14915799E-03  8.00865490E-02  4.41692268E-03
  8.39945973E-03 -1.16653609E-02  1.33719299E-04  3.41281556E-03  3.31067806E-04
 -3.39025047E-03 -7.56971694E-04 -5.65134358E-03  4.39680128E-03 -5.10127913E-03
 -7.00192347E-03  5.55408369E-03  3.34768698E-03  4.68148883E-03 -4.87829476E-03
  8.00732315E-02 -1.25964026E-02 -2.03187291E-02  3.89914124E-02  1.38776994E-02
 -1.45345614E-02  5.84149244E-02  5.52657549E-02  1.70803368E-02 -1.81690924E-02
  1.46078868E-02  2.79610044E-02  4.02089700E-03  1.08957198E-02  4.61086601E-02
  1.78359683E-02  2.71100063E-02  2.36299671E-02 -1.54248037E-03 -2.55412802E-03
 -1.94852561E-03  1.45093419E-03  2.19946896E-03 -5.43840658E-03  1.03482973E-03
  1.69762351E-03  1.44489321E-03  2.31231121E-03 -6.74574466E-03 -9.73199916E-03
 -4.20474594E-03 -1.23666387E-02  7.03155113E-02 -3.55569157E-02 -5.35404752E-02
  6.69860494E-02  5.59199155E-02 -6.41981714E-02  1.41106948E-01  9.66841787E-02
  8.12594448E-02 -9.11675253E-02  1.67982093E-02  2.00219438E-02  1.38630052E-02
 -2.69366954E-02  2.74124020E-02 -3.90220097E-02 -6.92970058E-02 -6.25974848E-02
 -3.57718088E-04 -8.12675354E-03 -7.83330722E-03  1.72385752E-03  5.64858076E-03
 -8.94875824E-03 -1.75682339E-03 -6.26093373E-03  5.74595985E-04  4.92644971E-03
 -8.34610007E-02 -1.47322227E-01 -1.83420819E-02 -1.27821586E-02  2.44852184E-02
  4.66783189E-01  2.34307844E-02  3.42738429E-02  3.07363878E-02 -7.82961011E-02
  5.58303610E-02 -8.85571427E-02  5.51860341E-02 -1.14442910E-01  7.98803027E-02
 -3.85628163E-02  6.23415907E-02 -7.61222511E-02  4.12819900E-02  7.88078473E-02
  8.17057589E-03 -1.12564273E-02 -2.12687579E-02 -1.92284491E-03  1.60464541E-03
  6.42500588E-03  4.20737900E-03 -1.78856183E-03 -1.14301307E-02 -4.42030600E-03
  4.88363339E-03  1.01742569E-02  5.42614594E-03 -5.30600617E-04  1.26498621E-03
  1.31911830E-01 -9.24009683E-03 -1.68417422E-03 -1.19142010E-02  1.99773537E-01
  1.92058709E-02  2.84282864E-02 -7.88369534E-02  2.70025213E-02  1.79214718E-02
 -7.49340695E-02 -1.15448696E-01  4.74863113E-02  2.22367305E-02 -3.74688773E-02
 -7.61684381E-02  5.01876953E-02  3.60929714E-03  1.14379980E-01  5.06635289E-03
  1.12832531E-02 -1.58038060E-02  2.22207601E-04  4.76236645E-03  4.49759087E-05
 -5.06454829E-03 -9.86136144E-04 -8.18661568E-03  5.75498341E-03 -8.72306524E-03
 -1.02314117E-02  8.15288743E-03 -2.93785053E-03 -2.38758857E-03 -9.13058992E-03
  1.22025785E-01 -1.72027634E-02 -2.52037660E-03 -1.57904722E-02  1.87014710E-01
 -2.34171809E-02 -3.33418086E-02  5.43615376E-02  1.61758133E-02 -1.76667039E-02
  8.21167704E-02  7.71472730E-02  1.89900025E-02 -2.13004456E-02  2.24875619E-02
  4.11584908E-02  3.45837595E-03  1.56472880E-02  5.67623621E-02  2.31902167E-02
  3.69968639E-02  3.68854786E-02 -2.02502010E-03 -3.37410474E-03 -2.26389995E-03
  2.07265018E-03  2.98347368E-03 -6.78235509E-03  1.61972997E-03  3.41597228E-03
  2.12176504E-03  2.92764388E-03 -6.29084946E-03 -1.05985838E-02 -1.38561457E-03
 -1.68481577E-02  9.77720574E-02  3.16633257E-02  4.17832135E-03 -2.34749895E-02
  1.36935160E-01 -7.06660156E-04 -2.94990172E-03  4.77015474E-02  3.77172602E-02
 -5.13929471E-02  1.26358932E-02  6.89285898E-02  5.47870868E-02 -7.34779252E-02
 -4.56736424E-02  1.13472469E-02  1.47991917E-02  3.70814325E-03  2.63029741E-01
  5.01009096E-02  3.06259904E-02 -7.85181704E-02 -2.69290145E-03 -4.30950430E-03
 -5.97354114E-03  1.29751406E-03  2.71149666E-03 -1.41330178E-02  1.55792389E-03
 -5.86903604E-03  2.72283434E-05  4.70753484E-03 -5.95077648E-02 -8.76294775E-02
 -3.63583997E-03  1.42996744E-02  5.07514392E-02  2.29223012E-01  5.38717292E-03
  3.07720235E-02  6.64792066E-02  2.11293196E-01  4.17459481E-03  5.63273486E-03
  3.19612239E-02 -5.51296023E-02  3.33867807E-02 -1.35996085E-02  5.18607352E-02
 -8.22562584E-02  4.98168694E-02  7.32828641E-03  5.64757548E-02 -5.75301293E-02
  2.01370582E-02 -2.42554135E-02  9.15930351E-04 -1.51284295E-02  8.34349655E-03
 -7.63528830E-04  6.30275592E-05  4.45810685E-03  3.52439617E-03 -5.69319999E-04
 -4.75776749E-03 -2.97653740E-03  6.57731449E-03  7.99685180E-03  2.97288108E-03
  9.78725614E-05  2.18358597E-03  7.66547253E-02 -2.91803558E-02  6.64037577E-03
 -1.28644364E-02  1.15816879E-01 -4.59349784E-02  1.35398634E-02 -9.30489231E-03
  8.80071437E-02  5.34485085E-03  7.39107789E-03 -5.60226540E-02  2.47782465E-02
  6.86170509E-03 -1.80265925E-02 -8.31951962E-02  4.09141670E-02  8.33962519E-03
  4.40590095E-03 -5.78822929E-02  3.59075872E-02 -1.79276486E-02 -1.99223223E-02
 -1.67453176E-02 -7.69554913E-04  7.78622005E-03  1.43390216E-03  2.60472502E-03
 -4.31722281E-04 -3.80440046E-03 -6.07193876E-04  1.51381498E-03  2.90842458E-03
 -4.70447569E-03 -7.83920389E-03  2.63764909E-03 -1.04573100E-03 -3.64035106E-04
 -2.81185943E-02  6.07845075E-02 -2.49067055E-02 -3.11286431E-03 -4.46779716E-02
  9.28735600E-02 -3.49150635E-02 -8.60862452E-03 -3.64124883E-02  7.39607727E-02
  1.07047699E-03  1.93432883E-03  3.09588821E-02  3.97732705E-03 -4.84199438E-04
 -5.16674851E-03  4.72660339E-02  5.30808595E-03 -1.72470200E-03 -1.17672059E-02
  1.91820321E-02 -1.90672429E-02 -2.74019059E-03  2.40788249E-02  3.92128486E-03
  2.56639173E-03  1.05659994E-02 -6.05304603E-04 -1.87015499E-03 -1.03310649E-03
  1.77043604E-03  1.46118533E-04  2.92330397E-03 -3.96919313E-03 -3.49941577E-04
  4.11142095E-03 -3.30850503E-03 -3.16934209E-03 -8.05768760E-03  9.53702079E-03
 -2.14711945E-02  1.40029032E-02  3.31271665E-02  1.69710087E-02 -3.08470139E-02
  1.98590899E-02  6.68984642E-03  1.43010416E-02 -1.61822607E-02  3.28269271E-02
 -1.49169418E-01 -1.82948208E-01 -8.31826806E-02 -8.08704551E-02  4.86936033E-02
  3.55924997E-01 -1.21087285E-01 -1.18953350E-01  6.75311268E-02  3.00618659E-01
  9.44425947E-04 -1.82649649E-02 -5.26801831E-02 -1.67896424E+00 -3.83711614E-01
 -3.00858104E-01  4.20916527E-01  9.60000406E-03 -2.24687812E-03  5.71474241E-03
 -1.51466771E-03  4.73381347E-03  3.33471731E-02 -2.96709074E-02 -1.26047639E-02
  6.64859688E-03  1.52122667E-03 -3.65992638E-02 -4.10184794E-02 -2.35091535E-02
 -5.27126759E-02 -6.75353154E-02  5.70614564E-02 -3.46647199E-02 -7.17859034E-02
 -8.34028796E-02 -2.83730282E-01  3.08882260E-02  2.61183328E-02 -2.85746179E-02
  1.93128431E+00  1.50613870E-02  1.79694308E-02  1.34542359E-02  1.64708547E-02
  5.05152511E-03 -3.37118986E-02  1.94589343E-02  2.42305817E-02  1.00375286E-02
 -3.86421646E-02 -1.65778069E-03  5.10304592E-03  1.95590885E-02  3.51293901E-01
  5.51411710E-02  2.84412979E-02 -1.23119942E-01 -1.10226575E-03  4.53202999E-04
  1.08447818E-04  1.35781986E-04 -7.21811478E-04 -1.01989299E-02  7.40268218E-03
  5.60328008E-03 -2.22731805E-03  2.07090591E-03 -1.39992707E-02 -1.77791365E-02
  2.00917555E-02  1.10669956E-02 -7.39675116E-04  3.73749630E-02  2.99345531E-02
  1.50773653E-02 -3.04150974E-03  5.84741526E-02 -3.46221859E-03 -1.23618791E-02
  1.18401755E-03 -3.36078216E-01  1.02635928E-01  9.60659711E-03  1.12783162E-02
  9.88584823E-03  1.67391894E-02  1.05232638E-02 -2.05680131E-02  1.40709098E-02
  2.55249175E-02  1.81690513E-02 -2.86172483E-02 -1.79180038E-03  5.99088392E-03
  2.18355156E-02  3.13883103E-01  4.66251988E-02  5.79878554E-04 -1.30273937E-01
 -3.48211128E-04  8.14775991E-04  3.03177499E-05 -1.25423102E-04 -5.34546733E-04
 -9.44576144E-03  9.18860291E-03  3.75272490E-03 -2.96584411E-03  3.48111839E-03
 -2.20012725E-02 -2.74083596E-02  1.07956821E-02  1.82227508E-02 -1.40088036E-02
  5.51802347E-02  1.53531742E-02  2.62778993E-02 -2.24899548E-02  5.35048038E-02
 -1.03821252E-02 -6.56559735E-03 -4.30836181E-03 -2.78398006E-01  9.79974239E-02
  1.12495101E-01 -2.25144060E-02 -2.73600973E-02 -1.28733650E-02 -1.07532978E-02
  1.34735327E-02  5.29390540E-02 -1.76174514E-02 -1.46565974E-02  1.91917490E-02
  4.69514679E-02  7.92656298E-04 -4.39815279E-04 -3.64670815E-03 -2.80548126E-01
 -7.35711142E-02 -7.14764289E-02  3.62275073E-02  1.83252775E-03 -5.38319548E-04
  9.92668306E-04 -1.57819016E-04  5.26169784E-04  3.65090025E-03 -4.96745245E-03
 -2.26604358E-03  1.10268696E-03  1.02661061E-03 -1.46721733E-02 -1.71809901E-02
 -1.45721483E-03 -1.48570947E-02 -2.52169678E-02  2.94792926E-02 -2.25728976E-03
 -2.15545707E-02 -3.51206288E-02 -4.32672791E-02  6.60013334E-03  2.11546041E-03
 -8.23457422E-03  3.27961119E-01 -4.35427520E-02 -2.83196988E-02  7.01791823E-02
  2.21658642E-04  3.72482842E-04  1.19771792E-03 -3.31897774E-04  2.45824553E-03
 -9.97220238E-04  2.11966672E-03 -2.87743521E-04  3.47934008E-03  2.48507062E-04
  1.16242632E-03 -2.15438626E-03 -5.76893116E-04 -7.41587323E-03 -3.72432290E-03
 -6.98170823E-03 -3.13109861E-03  2.10975998E-04 -6.26126193E-05  6.52904641E-05
  8.68592234E-05 -1.30934090E-04  1.14928430E-03 -5.09128283E-04 -7.96182822E-05
  2.42817288E-04 -6.43218797E-04 -5.23529141E-04 -1.23581235E-03  5.07952834E-04
 -2.86171275E-03 -5.91492558E-03  4.93449884E-03  6.30659425E-04 -4.30395243E-03
 -8.21978673E-03 -5.35552377E-03  8.93056085E-04 -2.99804142E-04  2.46082661E-03
  1.17421888E-02 -2.83034115E-05  2.26730231E-03  4.02608029E-03  1.26813952E-03
  2.09864299E-03  3.04952466E-03 -8.78577745E-04 -3.78712869E-03  2.36455663E-03
 -7.60983738E-03 -6.81706093E-04 -5.20391102E-03  3.15262512E-03 -2.52027818E-03
  1.42177686E-03 -2.35448627E-03  1.31959886E-03 -1.08774293E-02  5.07512006E-04
 -4.93071940E-04  3.15612336E-03 -4.15762128E-05  2.40327744E-04  2.57808523E-04
  3.38739492E-05 -1.36543765E-04 -7.13526480E-04  5.33288766E-05 -2.24316745E-04
 -5.61965000E-06  5.23926690E-04  9.16165101E-04  1.85956609E-03  3.19828357E-03
  1.97655629E-03 -8.51005289E-04 -6.70385391E-03  4.68028863E-03  2.76814119E-03
 -1.02177808E-03 -3.02714198E-03  3.43969695E-03  6.37235894E-04 -1.17007948E-03
  8.86574500E-03 -3.44483854E-03 -2.19601250E-03  1.19197212E-03 -6.56098247E-05
  8.01237495E-04  2.02802677E-03  3.04305510E-03 -5.12177071E-03 -1.39092721E-04
  1.99183573E-03 -7.84473941E-03 -6.97547531E-03  6.02330697E-04  2.39840198E-03
 -2.26937446E-03 -3.91623099E-03  1.47286526E-03 -1.04861768E-03 -1.85113956E-02
 -4.77947653E-03 -2.91815999E-03  1.03627292E-03  1.20806421E-04  2.42568661E-04
  1.80701127E-04 -1.63115803E-04 -1.92446588E-04 -3.07329393E-04 -1.85072468E-04
 -3.52367982E-04 -4.11707662E-05  3.32337655E-04  2.27040105E-04  3.56504214E-04
  1.51018075E-03  2.79729884E-03 -4.98017082E-03 -1.11921146E-03  1.98359619E-03
  4.25457111E-03 -6.83789803E-03 -5.02714565E-03  1.39324243E-04  4.21986940E-03
 -1.24679468E-03  1.97013313E-02 -2.40291965E-03 -2.35504535E-03  4.65976301E-03
  2.77512983E-04  2.09944306E-04  1.02983378E-03 -4.10350294E-04 -6.40557975E-04
 -2.63774081E-03  3.49594105E-03 -1.43199007E-03  1.73283511E-03 -4.26949780E-03
  5.15682987E-03 -2.05580802E-03  5.43184530E-04 -3.97876636E-03  3.70549829E-03
 -1.28305548E-03  5.20057803E-03  1.11641287E-06  1.27133605E-03 -1.02523181E-03
  5.52101970E-05  2.62594733E-05 -1.67780396E-04 -1.30361745E-04  3.18956995E-05
  3.17159905E-04  4.96326261E-05  5.54014181E-07 -8.46249728E-05 -2.00587656E-04
  4.32576300E-05  1.00983298E-04 -3.23571805E-03  1.22642467E-03 -1.13746133E-04
 -3.25120396E-04 -4.90101061E-03  1.84513008E-03 -3.16890874E-04  4.02591878E-04
 -3.71451450E-03  1.89645508E-03 -5.35579201E-04 -5.40230291E-03  9.33397191E-04
  6.90268974E-04 -1.01712127E-03 -5.12659961E-05 -1.94698348E-04 -5.90235209E-05
  3.79846148E-04 -1.66642995E-03 -2.26681089E-03  1.26289834E-03  3.59757341E-04
 -2.21619455E-03  5.14380995E-03  1.67585270E-03  3.50278610E-04 -3.09649309E-03
  1.53602353E-03  7.45255315E-04  3.10698360E-04 -4.32111285E-04 -6.92832617E-04
  1.90123334E-04 -8.48688459E-05  6.35665885E-04 -5.67365662E-05 -1.31612278E-04
 -1.32180481E-04  2.31564579E-05  1.99953457E-04 -5.91714690E-04  2.60429998E-04
  4.15852519E-05 -1.11977963E-04  3.92990640E-04 -1.31681762E-03 -2.63825944E-03
 -3.71763983E-04  4.86262528E-04  2.19495494E-03  9.10831239E-03 -1.89198317E-04
  1.07551290E-03  3.14185990E-03  5.74030128E-03 -1.70138829E-04 -4.95021971E-04
 -2.33770164E-04  2.39858885E-03  1.28759970E-04  5.66110324E-04 -1.65933368E-04
 -2.08164069E-04  1.35174334E-05 -1.88443195E-04 -6.53167206E-07  3.73772969E-04
  9.05348558E-04  3.65331840E-04  8.26916582E-03  5.65584603E-03  8.59200138E-03
  2.71451085E-03  1.24942664E-02  8.16938161E-03  1.26551088E-02  1.47981884E-03
  4.40366747E-03 -3.13869589E-03  1.37797331E-03 -1.23579876E-02 -9.04677182E-03
 -1.20620706E-02  4.33725832E-03  7.48884701E-04 -5.08940948E-04 -1.24592321E-04
  3.32585182E-04 -4.86358137E-04  7.82239917E-03 -2.77606262E-03  2.41460101E-04
  1.18161184E-03 -4.89402206E-03  2.92522300E-03  3.51935521E-03 -3.15164625E-03
 -8.81389789E-03 -2.85758185E-03 -5.51820723E-03 -4.59442507E-03 -1.33029446E-02
 -4.11312305E-03 -1.45637250E-02 -9.63808358E-04 -3.49021971E-03  1.02832949E-02
  1.82883171E-02 -4.45306147E-03 -2.11398856E-03  4.48884274E-03  2.18009580E-03
 -5.77838357E-04 -5.48042633E-04  2.10800852E-04 -9.01783121E-04  1.07208677E-02
  5.37110610E-03  6.18338928E-03  3.05002533E-03 -7.12714792E-03 -8.41600571E-04
 -9.53602721E-03  6.11089422E-03 -9.76347567E-03 -2.26570353E-03 -4.33501007E-03
  6.17402033E-03 -5.00724573E-03  6.49630233E-04 -4.73351871E-02 -3.45190983E-03
 -4.70094173E-03  1.01039362E-02 -4.22231395E-04  1.82529979E-05  9.27532239E-05
  1.89464267E-04  1.95589544E-04 -3.90513296E-03  2.41613570E-04 -7.64274960E-04
 -2.98850352E-04  2.35241283E-03 -2.98223334E-03 -3.30354739E-03  4.87391750E-03
  3.39104443E-04  2.92054433E-03  4.61115033E-03  7.98225172E-03  6.27520632E-04
  4.08251862E-03  6.34787471E-04  7.71164117E-03 -6.67810396E-04 -2.33989283E-04
  4.12319508E-02 -1.11518735E-02 -8.20362884E-03  7.36418139E-03 -1.13940375E-04
  1.80441652E-03  6.49320683E-04 -5.62128949E-04  4.98630866E-04 -2.33549632E-03
  6.50666875E-03  6.83908932E-03  7.64114388E-03 -6.56439499E-03  5.38628563E-03
 -1.56530387E-03 -1.06520622E-02 -8.60351907E-03  9.59729296E-03 -3.80066344E-03
 -4.82295840E-03 -7.52187238E-03  6.70705104E-03 -3.14297130E-03 -5.75970964E-02
 -1.23114633E-02 -5.44186424E-03  1.05084766E-02 -4.78116775E-05  5.30514822E-05
 -2.56903396E-04 -2.01983138E-04  1.76366422E-05 -1.37914385E-03 -2.79481019E-04
 -9.04440994E-04  2.07513697E-04  9.78578943E-04 -2.47633215E-03 -2.76039346E-03
 -2.33811785E-03  4.03204294E-03  4.30480485E-04  4.19795628E-03 -3.17374104E-03
  6.66946090E-03  1.42965406E-04 -3.27336124E-03 -2.38937166E-03  7.50881855E-03
  3.38796072E-05  5.24034452E-02 -1.09557247E-02 -1.16945332E-02  1.08609911E-02
 -2.30003692E-04  4.83989327E-04  1.89307732E-03 -1.24122848E-05 -1.28189148E-04
 -6.88692510E-04  3.26351297E-03  6.84700708E-03 -1.96371148E-03 -2.31699643E-03
 -6.85323209E-03  7.89892508E-03 -1.28999969E-03  3.84123225E-03 -1.09660837E-02
  1.15963717E-02 -1.63817587E-03  1.80902232E-03 -9.61432433E-03  8.11495050E-03
 -2.93172263E-03  1.43726269E-02 -1.64185290E-03  2.52753716E-03 -3.10561217E-03
  2.20012345E-04 -1.07186751E-05 -9.86514780E-05 -8.76409799E-05 -7.34028604E-05
  1.39373770E-03 -1.02063625E-03  9.28334140E-04  7.46011613E-04 -1.25113428E-03
  1.28544907E-03  1.51650248E-03 -3.17880066E-03 -3.25517967E-04 -1.72608489E-03
 -2.50663845E-03 -4.85587730E-03 -7.08406597E-04 -2.39118105E-03 -2.03649775E-03
 -4.89902807E-03  1.62863106E-03  1.55795675E-04 -1.16880635E-02  3.84086437E-03
  1.43074739E-03 -1.87346561E-03  2.13313664E-04 -5.40581696E-04 -7.65691006E-05
  1.15276461E-03 -8.95639708E-05  1.44635369E-03 -1.83005053E-03 -4.89904591E-04
  4.73991539E-03 -7.15228580E-04 -2.48843787E-04 -2.46413525E-03 -6.01491965E-03
 -4.48148660E-03 -2.37913308E-03 -3.65507534E-03 -8.96649207E-03 -6.37889812E-03
 -1.46013014E-03  1.69412322E-04 -7.89290552E-04  1.80529117E-03  2.04867192E-02
  1.00658645E-02  8.59180684E-03 -7.11441544E-03 -5.74175520E-04  3.76397646E-04
  2.44848917E-04 -8.61569202E-05  2.82253203E-04 -5.59083700E-03  2.13988934E-03
  5.03623926E-04 -9.14995690E-04  3.24472605E-03 -2.14694834E-03 -2.89774491E-03
  5.71451987E-03  6.44100002E-03  3.58398803E-03  5.94250072E-03  8.76642606E-03
  9.62814813E-03  5.22882656E-03  1.47482024E-02  4.07812522E-03 -1.81191743E-05
 -6.92000312E-03 -2.50776173E-02  6.14676259E-03  5.84374468E-03 -5.23509023E-03
 -1.50817530E-03  8.39432834E-04 -1.48005561E-04 -1.54833118E-04  8.84755093E-04
 -7.06590856E-03  2.46581284E-03 -6.67657073E-04 -6.96666938E-04  5.91535559E-03
 -2.23006319E-04 -2.85160933E-04 -1.58589284E-04  3.78801077E-04  1.54460851E-03
 -1.41080926E-05 -3.19388949E-04  6.25808303E-04  2.73736607E-03 -2.00458156E-03
  1.55748996E-03 -8.56862014E-04 -7.36910521E-03 -4.46955958E-03 -4.57021584E-03
  1.87803758E-03  1.98905703E-02  3.97783528E-04 -3.19163113E-05  2.09522656E-04
 -2.36287066E-05 -5.74849131E-05  1.80210263E-03 -3.81128742E-04  4.43559603E-04
  1.16883458E-04 -8.09728197E-04  2.48494216E-04  3.53718182E-04  2.88407446E-04
  9.17169631E-05 -6.82411446E-04 -3.00070550E-04  1.83307431E-04  9.74969369E-05
 -3.26998918E-04 -6.61472971E-03  1.91787879E-03  2.69270120E-03  1.13541948E-03
  2.32407955E-02 -5.20972215E-03 -5.98790490E-03  5.28124412E-04  1.73089001E-05
  1.89960619E-05  6.17345657E-05 -2.58639344E-05  6.74168593E-05  5.65724768E-04
 -4.00026571E-04 -5.07984477E-04  3.31300233E-04 -1.02414161E-03  3.71497309E-01
 -6.17120094E-04 -7.70067284E-04 -4.40978640E-04  1.07633252E-03  4.35771662E-03
 -1.87679605E-04 -9.05017580E-04  1.77214227E-03  7.75346990E-03 -5.74995835E-03
  4.50146561E-03 -2.47362706E-03 -2.12903720E-02 -1.29191546E-02 -1.31508045E-02
  5.39400802E-03  5.72077757E-02  1.11873303E-03 -8.58471689E-05  5.94133632E-04
 -6.80086799E-05 -1.61348526E-04  5.24865510E-03 -1.11025314E-03  1.28932481E-03
  3.41917378E-04 -2.36410834E-03  7.27168994E-04  1.01832058E-03  8.20461858E-04
  2.51973963E-04 -1.96568319E-03 -8.23359799E-04  5.11240420E-04  2.71611889E-04
 -9.12831023E-04 -1.91557847E-02  5.53562205E-03  7.77482174E-03  3.28483950E-03
  6.69173249E-02 -1.49937699E-02 -1.72269841E-02  1.53746166E-03  4.52595374E-05
  5.48973156E-05  1.77917138E-04 -7.58411390E-05  2.01728450E-04  1.66580976E-03
 -1.16925192E-03 -1.47697821E-03  9.67156234E-04 -2.99478809E-03  6.26637315E-01
  1.09391487E+00  1.04302671E-03  1.18640430E-03  8.14189483E-04 -2.12974262E-03
 -8.43392864E-03  1.46800795E-03  1.64467880E-03 -3.50262823E-03 -1.48588996E-02
  1.30069290E-02 -8.50681069E-03  5.08286248E-03  4.13462908E-02  2.35136937E-02
  2.44051387E-02 -1.09588116E-02 -1.08750005E-01 -2.24616742E-03  1.74555635E-04
 -1.18285658E-03  1.31184249E-04  3.42433593E-04 -1.03311628E-02  2.13830518E-03
 -2.58338912E-03 -6.62301148E-04  4.68202974E-03 -1.56521452E-03 -2.15295892E-03
 -1.61426989E-03 -4.39093935E-04  4.02186966E-03  1.96746696E-03 -1.00322710E-03
 -4.18814701E-04  2.10228917E-03  3.63088142E-02 -1.04981931E-02 -1.49065785E-02
 -6.67030115E-03 -1.25157009E-01  2.84922856E-02  3.28883043E-02 -2.50672358E-03
 -7.91462426E-05 -1.24405757E-04 -3.54280716E-04  1.48704255E-04 -3.74662349E-04
 -3.23170124E-03  2.27269076E-03  2.84004123E-03 -1.85915405E-03  5.73344826E-03
 -1.26267527E-01 -3.55648726E-01  5.97285009E-01  1.97632232E-03  2.46454846E-03
  1.80566160E-03 -4.06897217E-03 -1.69219414E-02  1.22601395E-03  3.25331008E-03
 -6.73543883E-03 -2.88660125E-02  2.48374059E-02 -1.37282213E-02  8.82229475E-03
  6.84122677E-02  3.59996710E-02  3.90299135E-02 -1.86276416E-02 -1.76920172E-01
 -4.33588034E-03  3.63853775E-04 -2.23310487E-03  2.32236703E-04  7.05255390E-04
 -1.75736329E-02  3.56739221E-03 -4.52038032E-03 -1.07483440E-03  7.86072246E-03
 -2.51161957E-03 -3.74806314E-03 -3.33015474E-03 -1.21264227E-03  7.46125108E-03
  4.80602613E-03 -2.50147167E-03 -1.22627079E-03  4.74597092E-03  5.88274111E-02
 -1.74324760E-02 -2.48944119E-02 -1.14621746E-02 -2.01238062E-01  4.60220585E-02
  5.33086732E-02 -3.54199819E-03 -1.69058005E-04 -2.60051703E-04 -6.42778224E-04
  2.49722329E-04 -5.32129115E-04 -5.21979732E-03  3.86325893E-03  4.76252798E-03
 -3.03986760E-03  9.11576183E-03 -1.83947620E-01 -4.95980308E-01  7.93980056E-01
  1.08887170E+00 -1.20982908E-03 -9.10646950E-04 -2.46786915E-03  6.51719962E-03
  2.57310918E-02 -9.46181120E-03 -3.60088692E-03  1.09627625E-02  4.15036625E-02
 -4.99176999E-02  1.45111853E-02 -1.27893404E-02 -8.17509717E-02 -2.48468102E-02
 -3.66319582E-02  2.82504750E-02  1.95383101E-01  7.03218290E-03 -6.47683136E-04
  3.43401377E-03 -2.82369904E-04 -1.43965138E-03  2.25308122E-02 -4.02488190E-03
  6.36494565E-03  1.22958872E-03 -1.03161570E-02  4.53916869E-03  6.89519974E-03
  5.54298927E-03  2.12443560E-03 -1.21313748E-02 -1.26937561E-02  4.92240165E-03
  1.84394584E-03 -1.08904074E-02 -6.18325319E-02  1.93500089E-02  2.87622041E-02
  1.57984103E-02  1.99181957E-01 -4.99585416E-02 -5.96878901E-02 -1.11201251E-03
  2.32662998E-04  5.23876052E-04  8.97524307E-04 -2.90681903E-04  2.61160180E-04
  5.67904200E-03 -4.82160475E-03 -5.69434801E-03  3.39509514E-03 -9.32583012E-03
  3.56781755E-02  1.03190987E-01 -2.25908755E-01 -4.54163705E-01  8.16636587E-01
  9.20319632E-03  1.37852077E-02 -1.70164077E-03 -4.70277091E-04  4.23020375E-03
 -4.44818004E-02 -1.44681169E-03  6.62366403E-04  6.49754061E-03 -7.53265859E-02
  1.26028230E-02 -1.89410389E-02 -9.23275040E-02 -1.13264800E-02 -2.92210816E-02
  3.77163727E-02  1.97211924E-01  5.13765555E-03 -3.82854792E-04  2.67057154E-03
 -2.72338775E-04 -9.21310325E-04  1.56981159E-02 -2.17232838E-03  5.09820950E-03
  6.81545577E-04 -7.44521276E-03 -3.99936791E-04  2.92531176E-04  5.60285057E-03
  1.38747741E-03 -1.43228965E-02  2.53129753E-03  5.58744398E-03  1.19110366E-03
 -1.48039030E-02 -4.99185897E-02  1.80314567E-02  2.82947713E-02  1.87978632E-02
  1.73604771E-01 -5.04788268E-02 -6.18874918E-02 -5.42001026E-03  9.97627707E-05
  9.78542763E-04  1.49814715E-03 -5.31859596E-04  6.13071463E-04  1.20414889E-03
 -1.07838334E-03 -3.23621328E-03  1.94513429E-03 -6.88526783E-03  5.35048494E-02
  1.53409492E-01 -3.06089754E-01 -5.45962904E-01  7.78908279E-01  7.71401786E-01
  1.26725514E-02  1.82353625E-02  1.22780285E-02  1.39626520E-02 -1.71060281E-03
 -4.36306197E-02  2.06067225E-02  2.38016450E-02 -1.86290841E-03 -2.37541501E-02
  3.40906458E-03  1.54222623E-02  3.09250221E-02  1.01769425E-01  1.98088980E-02
 -3.59618075E-02 -1.61985360E-01 -7.69439876E-04  4.05602108E-04 -4.23491641E-04
  1.81940006E-04 -9.73918909E-04 -8.45105363E-03  8.06651905E-03  4.71997629E-03
 -2.42276682E-03  1.78470757E-03 -3.07378844E-02 -3.60576781E-02  2.93436602E-03
 -8.22856715E-03 -3.19751519E-02  6.32476831E-02  3.91261708E-03 -1.28189403E-02
 -4.76818016E-02  4.05886165E-02 -5.70781882E-03 -1.16408190E-02 -1.33437971E-02
 -1.55269766E-01  6.16658887E-02  7.70442473E-02  1.05106194E-02  4.81095215E-03
 -9.94052216E-04  1.90907547E-03 -1.24338049E-04 -4.15954724E-04 -2.43000583E-03
  2.79614246E-04  4.19456827E-04 -8.68182753E-04  4.35366909E-03 -2.71958597E-02
 -7.81971091E-02  1.47944783E-01  2.39461243E-01 -2.59273700E-01 -2.58680620E-01
  1.73478316E-01 -3.44253075E-03 -3.97678646E-03 -4.90498276E-03  2.18268549E-03
 -4.18491845E-04  6.85637215E-03 -7.20373678E-03  3.54998015E-03 -1.20051706E-03
  5.22696060E-03 -4.32054556E-03  4.23253487E-03 -1.20446300E-03 -5.39311126E-02
 -1.59085281E-02 -1.00472402E-02  1.24466123E-02  1.35339586E-04 -5.37998135E-04
 -6.84841635E-05 -2.08592079E-04  1.01204893E-05  1.89928875E-03 -3.96066248E-03
 -7.03703762E-04  2.06245295E-04 -1.63567312E-03 -3.65353729E-03 -4.56602359E-03
 -1.02547900E-03 -1.24483290E-04 -1.46175087E-03  9.02970452E-03 -8.25539040E-04
  9.25452285E-04 -1.69215398E-03 -1.28391571E-03 -1.35249674E-03  2.13721357E-03
 -1.46224240E-04  5.98337713E-02 -1.20459683E-02 -1.36081334E-02  1.03258646E-02
  1.91265971E-04 -1.20185818E-04  8.18413137E-04  1.66963524E-04  5.51469857E-05
  1.66332687E-03  4.37924312E-04  2.49495184E-03  1.29885683E-03 -1.62804283E-03
 -5.59504289E-04 -1.60697566E-03  3.07950069E-03  5.08914631E-03 -5.97431262E-03
 -7.27164152E-03 -2.93663821E-03  5.62875602E-03 -5.20945439E-03 -6.63014407E-03
  4.94395201E-04 -4.21841482E-03  5.63782404E-03  1.36635471E-02  1.10881080E-03
 -6.29124026E-03  8.06613988E-03  9.92193767E-03  4.02291250E-03 -3.62889723E-03
 -3.85201563E-04 -7.05990308E-02 -1.76588110E-02 -1.40718853E-02  2.85411631E-02
  6.54967666E-04 -2.03761883E-04 -1.21090824E-04  2.70244030E-04  2.24515137E-04
  4.72840303E-03 -2.54927876E-03 -3.14724401E-03  1.82136711E-03 -9.31836171E-04
 -1.74219979E-03 -2.27641231E-03  9.44119698E-04 -4.05448983E-05  5.78688161E-04
  4.81710415E-03  2.23390589E-03  1.10139093E-03  1.58031911E-03 -6.97820531E-03
  3.38095687E-03  1.56971015E-03  2.06610505E-03  8.60870203E-02 -2.11654692E-02
 -1.83105713E-02  1.14121865E-02  3.92209817E-04  5.11314490E-04  2.53504961E-04
 -4.07180619E-04  1.27175334E-04  3.31725785E-03  1.08425625E-03  1.25277147E-03
 -1.23626091E-03 -2.69121771E-03  2.27013868E-03  6.53463329E-03 -1.23220911E-02
 -1.99482629E-02  2.11616863E-02  1.84198546E-02 -1.87788605E-02  3.14660460E-03
  8.34387869E-03 -3.06388557E-03 -5.20751964E-03 -5.01808924E-03  1.74625532E-04
  9.83606663E-03  1.50611610E-02 -7.85141756E-03  1.65911436E-04  1.52856456E-02
  1.01403602E-02 -1.77592882E-03 -1.06992609E-03 -5.41907130E-03 -1.79756060E-02
 -8.27916906E-03  3.95061489E-03  3.39312481E-02  7.44880495E-04 -1.27612143E-04
  4.86805940E-04 -1.55680803E-04 -4.31722337E-05  2.35977157E-03 -2.53963163E-03
 -5.98410524E-04  3.35931222E-04 -4.98765426E-04  7.06741805E-03  8.56277934E-03
  1.45036742E-03  4.02942701E-03  4.93144711E-03 -1.60754569E-02  1.87412829E-03
  5.80444050E-03  7.64981694E-03 -1.48675840E-02  3.24245672E-03  6.08096216E-03
  2.90179706E-03  4.10614208E-02 -1.02623705E-02 -1.30239878E-02  3.15227622E-04
 -6.23339355E-04  1.47100183E-04 -5.85293332E-05  1.10251737E-04 -1.57639295E-04
  1.61768772E-03 -7.75979134E-04 -9.92073032E-05  9.26012251E-04 -1.80320933E-03
  7.99348768E-03  2.29978598E-02 -4.35254895E-02 -7.07988038E-02  7.69661097E-02
  7.36913573E-02 -4.16729655E-02  5.04260811E-04  4.02043496E-03  1.24576950E-02
  1.12672092E-03  1.71249530E-03 -3.75691599E-03 -1.38665852E-03 -8.03241688E-03
 -3.98437039E-03 -6.11704136E-03 -6.45918143E-04 -1.40300239E-02 -4.61968898E-03
 -4.76552127E-04 -6.44496415E-03 -1.70751294E-03 -9.08795240E-02 -6.85671928E-03
  2.96591658E-03  5.01125681E-02 -1.13262791E-03 -3.58842717E-03 -2.59698055E-04
  1.08291546E-03 -5.48428373E-04  9.21478953E-04 -2.09401000E-02 -3.11911496E-03
  6.03574217E-03 -6.63508592E-03 -2.91727105E-03 -4.64612754E-03  8.73864507E-03
 -1.22351926E-02  6.68937838E-03  1.20046474E-02  1.60391106E-02 -1.40480582E-02
  9.42667057E-03  1.59730461E-02  1.33281174E-02 -1.76633862E-02  9.05341204E-03
  8.22704928E-02 -3.38918941E-02 -4.35265587E-02  5.73542829E-03 -1.00524661E-03
  2.82775350E-04 -2.39250701E-04 -3.83486462E-04  3.55552573E-04  2.42142426E-03
  6.24012120E-04  9.88642484E-04  2.80250942E-03 -2.02240021E-03  2.71778689E-04
  7.85186090E-04 -1.68187113E-03 -2.76228441E-03  4.76450948E-03  5.15187272E-03
 -3.42430012E-02  1.67003268E-02  7.03561910E-03  5.90101775E-03  1.40063974E+00
 -4.14943860E-03 -6.64588504E-03 -1.57654678E-03 -2.63977908E-03  1.17270481E-02
  1.93560865E-02 -5.99044589E-04 -3.98919036E-03  1.80751363E-02  1.87440320E-02
 -4.92374341E-03  1.07680085E-03  6.79548870E-03 -1.28446436E-01 -2.43387783E-02
 -4.77534458E-03  4.89206038E-02  2.16943833E-03 -2.28616732E-04 -3.03765945E-03
  2.50587807E-04  1.00824220E-04  1.58562214E-02 -6.67511582E-03 -1.89189161E-02
  4.10457399E-03 -2.97231630E-03 -1.55949771E-03 -2.48068213E-03 -1.06182963E-02
  7.87177576E-03 -1.75361091E-03  5.32692077E-03 -1.22045799E-02  1.55957336E-02
 -1.93628731E-03  4.32966421E-03 -1.52916630E-02  1.18445578E-02 -2.77288587E-03
  1.28488836E-01 -4.33924427E-02 -4.20476582E-02  1.33138154E-02 -4.17888837E-04
  3.03496929E-04  1.64761931E-04  1.73137286E-04  1.24238738E-04  5.89172148E-03
 -2.08851522E-03 -1.31764920E-04 -1.03671046E-03 -5.34135290E-03 -4.56754639E-04
 -1.31270051E-03  2.75867006E-03  4.78575189E-03 -7.12877266E-03 -1.66904859E-02
 -3.21485185E-02  6.36483583E-03  2.15159997E-02  3.72111420E-03  1.97513662E-03
  1.39969750E+00 -1.49463981E-02 -2.36407766E-02 -8.55108020E-03  1.11130588E-02
  5.28424974E-02  6.56069305E-02 -1.39049300E-02  1.82257391E-02  8.46861978E-02
  6.60167885E-02  2.44086092E-03  1.17134605E-02  2.84452061E-02 -5.61631569E-02
 -2.42612890E-02 -3.93232544E-02 -2.25405257E-02  2.99059041E-03 -2.96386103E-04
  2.71523055E-03 -1.02544118E-04 -1.34019955E-03  8.83426735E-03 -4.88733164E-03
  6.21101676E-03  5.53454619E-04 -3.50176974E-03  5.18175239E-03  8.26071860E-03
  1.10934970E-02  3.47314328E-03 -5.28129775E-03 -2.42904039E-02  1.44475464E-02
  4.02223003E-03 -4.95231920E-03 -3.98698184E-02  1.55141048E-02  4.89579314E-03
 -5.80329626E-03  8.41108157E-02  6.08917841E-03  1.37347636E-02  2.22854081E-02
  2.18868302E-03 -2.18884865E-04  7.89864017E-04 -2.77910832E-05 -1.06457513E-03
  8.77627870E-03 -4.46577231E-03 -1.68413621E-03  2.73603511E-03 -5.17846991E-03
 -2.12299486E-03 -6.11467884E-03  1.29528513E-02  2.19684205E-02 -3.48249610E-02
 -6.21236549E-02  2.30872092E-02  4.07150296E-03  1.55266263E-03  3.66222618E-03
  4.07634339E-03 -7.85374678E-03  1.36566083E+00 -3.91002267E-04 -5.99581752E-04
  1.40624743E-03  5.26807467E-04  3.02107191E-03  1.40200968E-03  2.29950089E-03
  2.53937009E-04  5.26625975E-03  1.65486552E-03  1.56550031E-04  2.41216723E-03
  6.16883860E-04  3.41780295E-02  2.57571435E-03 -1.07437836E-03 -1.88046918E-02
  4.26208659E-04  1.35283297E-03  9.51581375E-05 -4.08588152E-04  2.05741111E-04
 -3.42554246E-04  7.87539205E-03  1.15377200E-03 -2.26964307E-03  2.49136619E-03
  1.08784123E-03  1.74391448E-03 -3.29556263E-03  4.61459804E-03 -2.53837643E-03
 -4.54291849E-03 -6.04273128E-03  5.30248281E-03 -3.58578159E-03 -6.01816088E-03
 -5.04509299E-03  6.67067410E-03 -3.38230265E-03 -3.09671452E-02  1.27277404E-02
  1.63394839E-02 -2.16494003E-03  3.79879408E-04 -1.05176712E-04  9.33288034E-05
  1.45423479E-04 -1.35869331E-04 -8.93721064E-04 -2.34168218E-04 -3.60550768E-04
 -1.05036660E-03  7.53613985E-04 -9.03284555E-05 -2.66274701E-04  5.91571629E-04
  9.83160761E-04 -1.75847609E-03 -1.87441888E-03  1.28293011E-02 -6.27411307E-03
 -2.64034528E-03 -2.20746469E-03 -4.78620238E-01 -7.02931921E-04 -1.59176062E-03
  1.63689510E-01  1.59697729E-03  2.52383823E-03  5.95970095E-04  1.01220032E-03
 -4.33716643E-03 -7.24635496E-03  2.29580827E-04  1.53407219E-03 -6.68290012E-03
 -6.98438235E-03  1.85663406E-03 -4.05392489E-04 -2.51640197E-03  4.81812137E-02
  9.13928607E-03  1.76378655E-03 -1.83730161E-02 -8.13193622E-04  8.41622673E-05
  1.14621420E-03 -9.29629904E-05 -4.11011485E-05 -5.93245795E-03  2.48754543E-03
  7.11853562E-03 -1.53436278E-03  1.09973690E-03  5.93455456E-04  9.49405645E-04
  4.00713554E-03 -2.97543195E-03  6.48152810E-04 -2.06764256E-03  4.60972722E-03
 -5.88762722E-03  7.10829161E-04 -1.71174001E-03  5.77135828E-03 -4.47027959E-03
  1.06747910E-03 -4.82110018E-02  1.62918104E-02  1.57933376E-02 -4.98560847E-03
  1.62174431E-04 -1.14435047E-04 -6.15403321E-05 -6.59428521E-05 -5.00586509E-05
 -2.17852262E-03  7.71989247E-04  4.73633921E-05  3.92710836E-04  1.98451867E-03
  1.54314510E-04  4.53008307E-04 -9.87515092E-04 -1.73831361E-03  2.67079287E-03
  6.21485683E-03  1.20767395E-02 -2.38563674E-03 -8.07284256E-03 -1.38888452E-03
 -7.00417793E-04 -4.78223016E-01  3.07428793E-03  2.48259805E-04  1.63524532E-01
  5.61449720E-03  8.81369401E-03  3.20999209E-03 -4.11350473E-03 -1.96856020E-02
 -2.42715304E-02  5.20086752E-03 -6.76125165E-03 -3.15166780E-02 -2.43841140E-02
 -8.98121857E-04 -4.31238194E-03 -1.05297484E-02  2.07815347E-02  9.01579988E-03
  1.46356574E-02  8.38587952E-03 -1.10972593E-03  1.09627969E-04 -1.01654750E-03
  3.81791418E-05  5.00556836E-04 -3.22451444E-03  1.81942646E-03 -2.30793176E-03
 -2.07337226E-04  1.29220738E-03 -1.89975454E-03 -3.05080419E-03 -4.19300360E-03
 -1.31551398E-03  2.00119490E-03  9.05115256E-03 -5.47259352E-03 -1.52830217E-03
  1.90682169E-03  1.48025151E-02 -5.83206807E-03 -1.84029048E-03  2.12777634E-03
 -3.12431904E-02 -2.29040436E-03 -5.13493084E-03 -8.29246666E-03 -8.17497219E-04
  7.53146017E-05 -3.01957245E-04  1.32559624E-05  3.98527547E-04 -3.25667611E-03
  1.63997866E-03  5.99669850E-04 -1.00821783E-03  1.90656627E-03  7.12439338E-04
  2.09502113E-03 -4.60287566E-03 -7.91439924E-03  1.29614355E-02  2.29903960E-02
 -8.56203609E-03 -1.51277990E-03 -5.65493493E-04 -1.38120140E-03 -1.58491075E-03
  3.08242291E-03 -4.64998579E-01  6.16420304E-04 -1.20157361E-03  1.58404562E-01
 -1.33415710E-03 -1.98257384E-03  2.90130138E-03  1.84702217E-03  8.72244304E-03
  4.51871160E-03  4.89489171E-03  1.13925071E-03  1.52150216E-02  4.69331118E-03
 -5.54719519E-04  8.14373493E-03  1.24050423E-03  1.06125074E-01  8.10427475E-03
 -2.62398356E-03 -5.76245510E-02  1.29422383E-03  4.27449065E-03  3.23576489E-04
 -1.32888173E-03  6.75223644E-04 -1.28219479E-03  2.43855623E-02  3.47444870E-03
 -6.99266105E-03  7.74997876E-03  3.63803983E-03  5.72476803E-03 -1.07739323E-02
  1.50168388E-02 -8.28418349E-03 -1.47893595E-02 -1.96142702E-02  1.75185446E-02
 -1.18983687E-02 -1.81759779E-02 -1.63369269E-02  2.14347806E-02 -1.10544911E-02
 -9.68729026E-02  3.87509418E-02  4.96584696E-02 -7.10457460E-03  1.06654064E-03
 -3.26933147E-04  3.28808192E-04  4.91304472E-04 -4.17829474E-04 -2.92137818E-03
 -8.86568188E-04 -1.01353387E-03 -3.13870388E-03  2.54233486E-03 -3.65681899E-04
 -1.04953471E-03  2.18708977E-03  3.69834815E-03 -6.12766601E-03 -5.98324225E-03
  3.90645240E-02 -1.90320991E-02 -8.24070936E-03 -6.70195703E-03 -3.78385693E-02
 -2.75204482E-03 -5.05939964E-03  1.74039185E-02  9.80442086E-04  1.93106923E-03
  1.46704427E-01  4.25943368E-03  6.93917218E-03  2.00743631E-03  1.62236848E-03
 -1.30858991E-02 -2.07902523E-02  9.14806519E-04  2.38360240E-03 -2.00072060E-02
 -1.97493372E-02  6.64560854E-03 -1.83596194E-03 -7.32842848E-03  1.46974488E-01
  2.79114309E-02  5.11382710E-03 -5.58301659E-02 -2.56763493E-03  3.10289017E-04
  3.65956557E-03 -2.93135081E-04 -7.00051037E-05 -1.83056413E-02  7.63764608E-03
  2.20365380E-02 -4.78638539E-03  3.56094801E-03  1.90262232E-03  3.02071418E-03
  1.33130530E-02 -9.44244139E-03  2.03607909E-03 -6.61100274E-03  1.56465793E-02
 -1.86459187E-02  2.28699511E-03 -5.95873649E-03  1.89122958E-02 -1.42941774E-02
  2.93348801E-03 -1.46730661E-01  4.95058293E-02  4.78780809E-02 -1.52011937E-02
  4.58496945E-04 -2.89103502E-04 -2.19606296E-04 -2.57928287E-04 -1.08440708E-04
 -6.81604358E-03  2.38378803E-03 -1.35549002E-04  1.12909310E-03  6.25416992E-03
  5.79463752E-04  1.65351481E-03 -3.39736628E-03 -5.98750683E-03  8.68130282E-03
  1.92540754E-02  3.65345931E-02 -7.44196229E-03 -2.45328986E-02 -4.19676047E-03
 -2.80933607E-03 -3.69296635E-02  9.50530550E-03  1.00582836E-03  1.70210166E-02
 -3.67171914E-03  3.66975188E-03  1.45950798E-01  1.59166982E-02  2.53128552E-02
  9.16116659E-03 -1.25673627E-02 -5.98052518E-02 -7.12406431E-02  1.46068941E-02
 -2.07319412E-02 -9.50519292E-02 -6.89947541E-02 -2.84523512E-03 -1.21718190E-02
 -3.09927239E-02  5.73589291E-02  2.55490490E-02  4.28531324E-02  2.66283857E-02
 -3.39208818E-03  3.36884937E-04 -3.12235148E-03  9.30672356E-05  1.60202964E-03
 -9.14637286E-03  5.38486645E-03 -6.74427212E-03 -7.21937388E-04  4.30230880E-03
 -6.57697554E-03 -1.02763170E-02 -1.29245378E-02 -3.47148349E-03  6.33319752E-03
  2.97934461E-02 -1.69960674E-02 -3.76338390E-03  6.63310952E-03  4.25561848E-02
 -1.79253496E-02 -5.22274213E-03  5.90314604E-03 -8.66065935E-02 -7.50653595E-03
 -1.56792744E-02 -2.37317622E-02 -2.44802649E-03  1.86828968E-04 -8.68590778E-04
  3.80333034E-05  1.30972757E-03 -1.02030658E-02  4.95244225E-03  1.52791711E-03
 -2.91388760E-03  5.41661220E-03  2.76079954E-03  7.89756502E-03 -1.63257799E-02
 -2.82678978E-02  4.34608173E-02  7.17942168E-02 -2.67179464E-02 -4.52347972E-03
 -1.61478774E-03 -3.93404350E-03 -5.21549393E-03  9.32005576E-03  5.16851108E-03
  2.00023543E-03 -3.58962802E-03  9.28797648E-04  6.19899103E-03 -1.07181260E-02
  9.62880805E-02 -1.45287164E-03 -2.49994131E-03  7.51333840E-03  3.98738780E-03
  1.98193972E-02  6.41444797E-03  1.28041070E-02  2.65221533E-03  3.41018188E-02
  8.06870072E-03 -8.14284062E-04  1.61130001E-02  2.81428806E-03  2.24592812E-01
  1.67570140E-02 -5.36900665E-03 -1.21934182E-01  2.80411085E-03  9.02583016E-03
  5.55265644E-04 -2.77557185E-03  1.35042062E-03 -2.40483717E-03  5.14606026E-02
  6.66550024E-03 -1.48019835E-02  1.62955998E-02  6.96174378E-03  1.14540410E-02
 -2.22989248E-02  3.13628040E-02 -1.81578235E-02 -3.09693819E-02 -4.05988712E-02
  3.64259830E-02 -2.61480024E-02 -3.94859119E-02 -3.47397239E-02  4.54753879E-02
 -2.19374270E-02 -2.04570852E-01  8.25630372E-02  1.05713666E-01 -1.45218559E-02
  2.51465920E-03 -6.64083978E-04  7.97322294E-04  1.03233031E-03 -9.78975564E-04
 -5.43153882E-03 -1.70027548E-03 -1.91566874E-03 -6.62601936E-03  4.86326435E-03
 -5.47432492E-04 -1.60079846E-03  3.51308873E-03  5.97083183E-03 -1.08138291E-02
 -1.04037109E-02  8.22175047E-02 -4.05416482E-02 -1.72094718E-02 -1.38949763E-02
 -2.60769476E-01 -3.49373042E-03 -1.11339051E-02  9.81536382E-02  1.20767898E-03
  4.25778173E-03  3.01337892E-01  5.31893158E-03  1.39353038E-02  6.43335288E-01
  1.01716284E-02  1.59916567E-02  4.68103195E-03  6.20506974E-03 -2.62495939E-02
 -4.58366013E-02  2.59597638E-03  9.42574859E-03 -4.02500152E-02 -4.26618411E-02
  1.31378356E-02 -3.49901386E-03 -1.51755098E-02  3.09701209E-01  5.94046333E-02
  1.06989681E-02 -1.18092972E-01 -5.28182639E-03  4.89373614E-04  7.66334224E-03
 -5.41215458E-04 -3.52767155E-04 -3.73887501E-02  1.53091241E-02  4.66521848E-02
 -9.66660468E-03  6.43132043E-03  4.50894507E-03  7.13874036E-03  2.69704765E-02
 -2.09722612E-02  3.70762969E-03 -1.59642311E-02  3.12928560E-02 -4.08214043E-02
  3.86039331E-03 -1.45944273E-02  3.89754736E-02 -3.06343855E-02  8.03412003E-03
 -3.11065300E-01  1.04677057E-01  1.01450937E-01 -3.20447434E-02  1.25485852E-03
 -7.59585066E-04 -4.71624795E-04 -4.86236594E-04 -4.31898609E-04 -1.27059527E-02
  4.41871727E-03 -1.22703149E-04  2.67140136E-03  1.20007313E-02  1.03475413E-03
  3.01509062E-03 -6.45048673E-03 -1.15070442E-02  1.73626812E-02  3.88625241E-02
  7.75197096E-02 -1.53504087E-02 -5.17459385E-02 -8.69539628E-03 -2.93560167E-03
 -2.56757986E-01  2.17801887E-02  1.00540233E-03  9.65567069E-02 -8.41589673E-03
  4.49726993E-03  2.97172500E-01 -2.54198735E-02  4.35188686E-03  6.29301671E-01
  3.24056172E-02  5.16449341E-02  2.17119087E-02 -2.40055111E-02 -1.25301757E-01
 -1.45593621E-01  3.39541167E-02 -4.04275659E-02 -1.98782112E-01 -1.42349874E-01
 -5.30193793E-03 -2.47933468E-02 -6.39297885E-02  1.17739881E-01  5.44995427E-02
  9.12411725E-02  5.59194722E-02 -6.82258142E-03  5.88255589E-04 -6.64066612E-03
  2.58983380E-04  3.17018598E-03 -1.57834423E-02  1.09670419E-02 -1.34930300E-02
 -1.25804709E-03  6.78463082E-03 -1.02201609E-02 -1.75771708E-02 -3.01227113E-02
 -1.04906326E-02  1.44479231E-02  5.66105167E-02 -4.01304627E-02 -1.27308850E-02
  1.56540067E-02  8.79554981E-02 -3.96432728E-02 -1.29797984E-02  1.29462874E-02
 -1.86186995E-01 -1.73159761E-02 -3.53632621E-02 -5.13530938E-02 -5.14778604E-03
  6.12301303E-05 -2.31980206E-03  2.53890939E-04  2.57720992E-03 -1.89640743E-02
  8.86112282E-03  2.38209870E-03 -5.50562297E-03  9.97995648E-03  4.58909474E-03
  1.33901523E-02 -2.89322845E-02 -5.06551600E-02  8.22661343E-02  1.39505976E-01
 -5.45243925E-02 -8.82528522E-03 -2.68592791E-03 -9.11918014E-03 -9.61334821E-03
  2.35846734E-02 -1.65935963E-01  3.70670411E-03 -9.06986142E-03  6.17595081E-02
  1.16967648E-02 -2.80764498E-02  1.86860164E-01  2.63410116E-02 -6.45014191E-02
  3.86929486E-01  3.13759756E-04  2.70045595E-04 -9.43058339E-03  7.22225949E-03
  6.54070798E-03 -9.20126257E-04 -1.37359602E-02  9.11182854E-03  1.19718322E-02
  3.09655508E-03 -1.53895545E-02  1.82608762E-02 -4.15630758E-03  1.52434800E-01
  1.25110869E-02  2.39662274E-03 -7.76927405E-02  1.58053021E-03  6.12862745E-03
  1.72665716E-04 -2.32429817E-03  8.94014067E-04 -3.36081470E-03  3.28906615E-02
  3.67965849E-03 -9.84743637E-03  1.13759746E-02  5.68784366E-03  9.12577293E-03
 -2.10450567E-02  2.78183811E-02 -1.67020932E-02 -2.45904947E-02 -3.68356440E-02
  3.50468634E-02 -2.44187426E-02 -2.54865690E-02 -3.14001401E-02  3.74447208E-02
 -1.85273339E-02 -1.40424671E-01  5.39932676E-02  6.83819705E-02 -1.12914327E-02
  1.12196023E-03 -6.40099556E-04  1.08190915E-03  1.33008688E-03 -6.87487692E-04
 -6.07028385E-03 -2.01577642E-03 -4.03093087E-04 -2.61928109E-03  4.14068297E-03
 -1.04197172E-04 -3.05351025E-04  8.10004300E-04  1.46354215E-03 -4.02424092E-03
 -1.58895344E-03  5.01698092E-02 -2.56053890E-02 -1.27562087E-02 -8.41247184E-03
 -1.62708438E-01 -6.09762334E-03 -1.10860895E-02  6.12573417E-02  2.21521680E-03
  4.18837795E-03  1.88719842E-01  7.61333809E-03  1.34241321E-02  4.02582620E-01
  1.16589032E-02  2.55079984E-02  2.55434476E-01  3.18157010E-03  5.24144505E-03
  6.89808039E-03 -8.25548670E-03 -8.03740223E-03 -1.62140447E-02  7.75283800E-03
 -1.29055713E-02 -1.19812595E-02 -1.36149068E-02  1.70067116E-02 -1.28074154E-02
 -2.53284530E-03  1.97575799E-01  3.86388936E-02  3.72927270E-03 -7.78465411E-02
 -3.40946804E-03  4.27643805E-04  5.45496114E-03 -3.89406005E-05 -1.47654170E-04
 -2.51457663E-02  9.39163265E-03  2.88879765E-02 -5.94400455E-03  5.69791029E-03
  4.78498144E-03  7.39485109E-03  2.68820908E-02 -1.68194897E-02  2.52727569E-03
 -1.83115699E-02  3.44391770E-02 -3.19440546E-02  2.99885028E-03 -1.41728200E-02
  3.52186050E-02 -2.52438552E-02  4.46305317E-03 -1.93563050E-01  6.93930719E-02
  6.83026909E-02 -1.88687584E-02  9.48894955E-04 -7.72412038E-05 -7.33674711E-04
 -9.00092812E-04 -3.38533981E-04 -8.66069046E-03  3.16585642E-03 -2.39736408E-03
  3.81427456E-04  8.72586849E-03 -3.58567501E-04 -1.04184407E-03  1.73686186E-03
  2.26847798E-03 -8.71002457E-04  1.06022762E-02  5.07452569E-02 -1.10648714E-02
 -3.25299844E-02 -5.28730121E-03 -5.10702595E-03 -1.59837467E-01  1.96764006E-02
  1.85035406E-03  6.01255038E-02 -7.50960941E-03  6.33736885E-03  1.85750887E-01
 -2.24121920E-02  1.03198494E-02  3.92895311E-01 -5.44829104E-02  1.06235725E-02
  2.49376153E-01  7.65167189E-03  1.34033770E-02  5.65987673E-03 -9.08465883E-03
 -5.65371386E-02 -4.11842506E-02  8.27407407E-03 -1.63722693E-02 -8.90581842E-02
 -4.71118102E-02 -7.57680772E-03 -6.58434675E-03 -2.55077504E-02  4.55165002E-02
  2.10260542E-02  3.92745028E-02  2.54678339E-02 -3.09580120E-03  2.74922108E-04
 -3.65039494E-03 -9.14957851E-05  2.03768076E-03 -7.92464907E-03  5.08079368E-03
 -9.10915914E-03 -6.43355920E-04  5.06430974E-03 -5.34980089E-03 -9.35252953E-03
 -1.92493098E-02 -4.97204156E-04  1.12189446E-02  2.95964548E-02 -2.60686701E-02
  1.03874656E-03  1.31787631E-02  4.38089494E-02 -2.45878080E-02 -2.73402461E-03
  3.35561580E-03 -7.34251212E-02 -8.51701030E-03 -1.55781052E-02 -2.20186141E-02
 -2.91751063E-03 -3.55749036E-04 -1.42018484E-03  4.72941911E-04  1.44427638E-03
 -9.60839015E-03  3.30997100E-03  8.82331186E-04 -2.25460856E-03  5.06542897E-03
 -6.40007626E-04 -1.85119400E-03  2.11322865E-03  1.44850616E-03  1.06379323E-02
  3.40150521E-02 -2.38814154E-02 -3.80129131E-03  1.79765477E-04 -4.67717134E-03
 -8.38658062E-03  2.28803301E-02 -7.15534291E-02  3.19406668E-03 -8.68969432E-03
  2.66867180E-02  9.94705152E-03 -2.65390311E-02  8.19985797E-02  2.18577640E-02
 -5.88149342E-02  1.69753681E-01  1.82348577E-02 -4.18308506E-02  7.92126086E-02
 -3.14876776E-03 -5.06274070E-03 -2.83190058E-03  3.73364566E-03  6.83264438E-03
  1.43106555E-02 -4.65314121E-03  5.69194954E-03  1.11572681E-02  1.12761640E-02
 -2.01514231E-03  3.83327279E-03  2.24000187E-03 -7.74826383E-03 -4.46004638E-03
 -4.69023691E-03 -6.84399260E-04  5.72418160E-04 -5.83319278E-05  2.11478034E-04
 -1.27408332E-04 -8.54768421E-05  1.52623467E-03 -5.64663109E-04  3.60013655E-04
 -2.96247083E-05 -4.03547246E-04  3.65844790E-04  5.83818714E-04 -1.27291088E-03
  1.70511428E-03 -3.26763036E-04 -1.80533730E-03 -2.17753820E-03  2.49844258E-03
 -2.49631303E-04 -4.87553984E-03 -6.32518906E-04  2.84832428E-03 -1.21209892E-03
  1.42043276E-02  2.94613833E-04  1.30927596E-03  2.89230578E-03  1.88176665E-04
 -2.17692359E-04  7.01589317E-05  1.82330394E-04 -9.42090049E-05  1.12834323E-03
 -1.09164708E-03 -2.34585021E-04  7.34605206E-04 -8.04917819E-04 -3.19025494E-05
 -8.20410068E-05 -1.39476636E-06 -7.82017943E-04  2.77185802E-03 -1.58618008E-03
 -4.34311516E-04  5.00808574E-04  6.12873230E-04  1.57085421E-03 -7.60688388E-04
  1.26313493E-03  8.33367567E-03  2.78370182E-04 -4.58359277E-04 -3.13729356E-03
  7.52995405E-04 -1.23952505E-03 -1.07644103E-02  1.55294752E-03 -2.37983566E-03
 -2.20655789E-02  8.18290967E-04 -9.47686268E-04 -9.08558211E-03  1.58592837E-03
  6.72921654E-04  1.04978355E-03 -5.15984825E-03  1.17827032E-03 -2.39809577E-03
 -2.87022285E-03 -7.82693845E-03  1.95816679E-03 -3.96538591E-03 -1.19273098E-03
 -5.28806538E-03  2.58812331E-03 -2.06729331E-03 -2.67639628E-03 -3.69172487E-04
  1.69859765E-03  1.71340793E-03 -1.00658889E-04  9.09568787E-05 -8.99528466E-05
 -1.91285105E-04 -3.89940870E-06 -4.88523069E-04 -4.08109733E-04 -4.50881868E-04
 -7.54959822E-05  1.84998140E-04  3.63752958E-04  5.70916823E-04 -2.14067479E-03
  2.61091212E-03 -1.92307425E-03 -1.69980397E-03 -3.35290212E-03  4.06294652E-03
 -2.85135847E-03 -2.01639790E-04 -3.10705755E-03  2.85570404E-03 -1.51383526E-03
  1.75269987E-03 -1.18752127E-03 -1.58822902E-03  2.48172020E-05 -1.77186974E-04
 -2.00242022E-05  2.77415240E-04  2.17051185E-04 -2.33893555E-05 -8.11345675E-04
 -1.33484384E-04  5.32780075E-04  5.75781780E-04  2.68342364E-04 -1.72836719E-06
 -7.11199838E-06  5.08610836E-05  2.49114225E-04 -7.24258964E-04  2.32424291E-04
 -1.19982001E-03  6.30057824E-04 -2.23163755E-04  6.01951623E-05  1.89608014E-03
  2.27402519E-05 -1.60783226E-03 -7.54420939E-04 -1.08712787E-05  6.00197704E-04
 -3.47243675E-03 -9.03879201E-05  1.99077401E-03 -7.31289448E-03 -1.87304905E-04
  3.96021953E-03 -3.43226740E-03 -7.65003242E-04  1.92809486E-03 -1.50730469E-04
  5.00542419E-04 -1.26638422E-03 -2.07513243E-03  9.46083808E-04 -3.92619617E-03
  4.46931648E-03  5.99675985E-03  1.53894023E-03 -5.99396595E-03  6.97182043E-03
  6.05170905E-03  3.00721417E-03 -3.48473640E-03  2.30409780E-03 -8.86545935E-03
 -1.91295093E-03 -2.66889477E-03  2.35841826E-03  1.66543319E-04  6.57123899E-06
  2.24061318E-04  1.32084399E-04 -1.87156264E-05  4.84459128E-04 -5.57283058E-04
 -5.00722588E-04  3.51503549E-04  1.85946939E-04  6.50672714E-04  1.04362039E-03
  3.28447104E-03 -1.25567436E-03 -4.78876916E-04 -3.21344258E-03  4.92510196E-03
 -2.03026619E-03 -4.28253481E-04 -3.56834235E-03  3.93083103E-03 -1.40097311E-03
 -7.78416529E-05  1.22730070E-02 -1.57016405E-03 -9.73761427E-04  2.03343671E-03
  1.55892358E-04  1.74500056E-04 -6.20023114E-05 -2.16120813E-04 -5.58997296E-05
  3.91926432E-04  4.50188552E-05 -6.62236002E-04 -4.08923309E-04 -1.20562535E-04
 -2.77132741E-05 -7.61822977E-05  8.77127611E-05 -1.67378914E-04  8.74902361E-04
 -7.84536028E-04 -1.87303682E-03 -1.73483520E-06  1.10989187E-03  8.02260993E-04
  2.80662563E-05  2.36499278E-03  2.94323108E-03 -1.19752066E-05 -9.27149532E-04
 -1.09854747E-03 -1.09437666E-04 -4.00277567E-03 -3.50527955E-03 -1.46627506E-04
 -8.35750754E-03 -7.27584072E-03 -8.12800080E-04 -3.93833186E-03 -2.71013140E-03
  4.35063232E-04 -2.40834274E-04  6.17535800E-04  1.00470329E-04  1.73668320E-04
  5.46015078E-04  6.93817289E-04 -4.27558971E-04 -5.35683030E-04  7.85878190E-04
  1.04059070E-03 -6.15116707E-04 -8.45302891E-04  2.09411629E-04  3.48656120E-04
 -9.66126987E-05  2.18753248E-03  4.98016300E-04  2.38191764E-04 -7.82352954E-04
 -7.01483483E-06 -1.62323006E-05 -1.42686155E-05  3.86996840E-05  3.11701649E-06
  1.76794651E-05  1.64072372E-04  2.44171761E-04  1.00680453E-04 -7.68253022E-05
 -1.58781335E-04 -2.60120903E-04 -7.43810114E-05 -3.83950205E-04  4.52119696E-04
  8.19935099E-04 -9.19926759E-05 -5.75283612E-04  6.29064511E-04  6.87250524E-04
  2.77856809E-05 -4.30371376E-04  3.02182144E-04 -2.72312735E-03  5.46009367E-04
  4.57411166E-04 -4.11762149E-04 -1.89285070E-06 -3.15257347E-05 -3.57269830E-05
  2.50545650E-05  1.73678138E-05  5.85216907E-05 -1.39925970E-05  3.78255540E-05
  1.01758720E-04 -7.11295038E-06  7.02036179E-06  2.00926531E-05 -3.56086778E-05
 -3.53353395E-05  1.05385224E-05  1.01603239E-04  5.81893334E-04 -9.84121003E-05
 -1.80982563E-04 -1.57143044E-04 -1.55935577E-04 -5.58076621E-04 -1.40396373E-04
  6.40171519E-05  2.18607422E-04  5.18894790E-05  3.63181250E-04  9.24008505E-04
  1.40897364E-04  7.34442367E-04  1.94447833E-03  3.32968551E-04  4.34856070E-04
  1.05458524E-03  4.21284084E-07 -3.43398751E-05 -2.78953308E-05 -7.97687745E-05
  2.85674404E-05  1.62042998E-04  2.60564887E-04 -1.46651554E-03  7.16354252E-04
 -7.21477412E-04 -7.03470358E-04 -2.21280927E-03  1.14712808E-03 -1.23761666E-03
 -4.70004226E-04 -1.63119072E-03  1.01591682E-03 -6.44416454E-04 -8.52280342E-04
 -5.75530270E-04 -1.96598101E-05  4.74965442E-04 -5.08897750E-05  1.83657912E-05
 -4.38697974E-05 -5.91857482E-05  2.58787891E-05 -3.05618585E-04 -8.21115504E-05
 -1.37850762E-04 -3.22823481E-05  1.56384776E-04 -9.83263816E-05 -1.14733360E-04
 -7.49023806E-04  8.88589580E-04 -2.65124575E-04  1.90509452E-04 -1.14387120E-03
  1.38415781E-03 -4.62608413E-04 -6.99822529E-06 -1.03601098E-03  9.85897075E-04
 -1.49789539E-04  1.16061180E-03 -2.85647134E-04 -3.15066311E-04  2.46915924E-04
 -2.76873795E-05 -1.30075035E-05  1.04340456E-04  7.21391104E-05 -7.46657111E-06
 -1.54362843E-04  6.06392005E-05  3.46408825E-04  1.70201217E-04  2.09699187E-07
 -9.67237762E-06 -2.90791498E-05  6.75912358E-05  1.59845596E-04 -3.43285198E-04
  3.75427038E-05 -3.05533612E-04  1.87917407E-04 -8.33533014E-05  5.91904190E-05
  3.77914093E-04 -3.15594874E-04 -5.05260912E-04 -1.50383732E-04  1.23533765E-04
  1.85578693E-04 -6.98960343E-04  5.19319388E-04  5.65785202E-04 -1.46141899E-03
  1.08700149E-03  1.05278440E-03 -5.71659995E-04  4.41357085E-04  5.37727141E-04
 -3.82803673E-05  1.38685057E-04 -1.01787155E-04 -1.75872219E-06  5.65891597E-05
 -5.94494260E-03 -9.38023948E-03 -7.04632508E-03  7.27665410E-03  1.20314095E-02
  2.59146044E-02 -1.12888699E-02  1.12391801E-02  1.96385030E-02  1.99031102E-02
 -5.24722900E-03  8.02501530E-03  2.85148787E-03 -1.11394137E-02 -8.35090912E-03
 -8.01663277E-03 -3.02563701E-04  9.87018021E-04 -7.08804581E-05  3.51950248E-04
 -3.15882500E-04 -6.58012297E-05  1.57855061E-03 -8.74507691E-04  2.95338377E-04
 -2.09791516E-04  9.18245063E-05 -6.43988100E-04 -3.69213710E-04 -2.59382188E-03
  5.06354759E-03 -6.93907032E-04 -1.27241027E-03 -4.42287134E-03  7.51901448E-03
 -7.24905119E-04 -7.94486765E-03 -1.80040067E-03  6.97400469E-03 -2.75091756E-03
  2.62535334E-02  1.18960047E-03  3.20713177E-03  5.31837299E-03  2.27289887E-04
 -3.59934168E-04  2.87613893E-04  3.62604950E-04 -1.00116484E-04  1.02669647E-03
 -1.69093233E-03 -1.08465234E-04  1.29754343E-03 -9.57786530E-04  9.55565680E-04
  2.71220326E-03 -5.14904695E-03 -9.35873991E-03  1.20318127E-02  5.05611487E-03
 -3.31568213E-03  5.95544498E-04  8.56105647E-04  3.77432999E-03 -1.65659932E-03
  3.41922003E-04  1.58900925E-02  6.19803263E-04 -1.17604617E-04 -5.92174640E-03
  2.05989964E-03 -5.12169983E-04 -1.80272227E-02  4.25960500E-03 -7.56257214E-04
 -3.78392070E-02  2.99255855E-03  4.62577870E-04 -1.54493780E-02  2.85521254E-03
 -1.25809012E-04  7.19011432E-04 -7.66416934E-05  4.20279619E-06  5.49093896E-03
  5.21657066E-04  1.06450253E-03 -1.24335148E-02  3.00948501E-03 -5.90865489E-03
 -3.76228141E-03 -1.90463677E-02  4.85982635E-03 -9.53058009E-03 -9.03819699E-04
 -1.23218878E-02  7.04393171E-03 -4.78489085E-03 -7.32858975E-03 -1.35707486E-03
  2.96839744E-03  2.92725727E-03 -1.84730121E-04  2.82079684E-04 -1.34381129E-04
 -5.00468197E-04  4.36992201E-05 -1.02268213E-03 -4.00221964E-04 -5.33295679E-04
 -3.66567461E-04  5.02588843E-04  9.95671408E-04  1.29549677E-03 -5.57812673E-03
  6.53844952E-03 -4.33382223E-03 -3.00949202E-03 -8.80691638E-03  1.01355977E-02
 -6.29838663E-03 -2.26311928E-04 -7.48724716E-03  7.20245711E-03 -4.53531679E-03
  5.38129955E-03 -2.75157894E-03 -3.43834035E-03  2.53347097E-04 -4.85498266E-04
 -9.04074107E-05  6.32056292E-04  5.09045672E-04  1.47496800E-05 -2.23149054E-03
 -4.21172860E-04  1.16895122E-03  1.24885380E-03  8.61339836E-04 -2.51579149E-04
 -7.18159258E-04  1.38937588E-03  2.50866155E-03 -3.36126487E-03 -1.55699137E-03
 -1.24996292E-03  1.41145571E-03 -6.09002823E-04 -2.63596033E-04  5.91604981E-03
 -4.93702156E-04 -3.12365100E-03 -2.21786181E-03  1.80150060E-04  1.16148693E-03
 -6.31554132E-03  4.76819270E-04  3.67481249E-03 -1.38111044E-02  9.18104378E-04
  7.34832620E-03 -5.98245808E-03 -9.86448787E-04  3.72197554E-03 -2.23101471E-04
  1.11993365E-03 -5.87679904E-04 -4.94812663E-05  3.01672950E-04 -1.04443759E-04
  2.64774149E-03 -3.31696612E-03 -4.94231980E-03  2.60551221E-03 -1.05225702E-02
  7.79499499E-03  1.27001094E-02  4.16805286E-03 -1.61403303E-02  1.22367305E-02
  1.21192573E-02  7.95589878E-03 -8.43139303E-03  4.23469872E-03 -1.76165637E-02
 -3.70996214E-03 -5.49611964E-03  5.22454636E-03  1.90627333E-04  8.20988100E-05
  5.78039958E-04  2.80472065E-04  9.65465011E-05 -1.44049268E-04 -5.59282600E-04
 -6.71477024E-04  4.82402922E-04  1.09767398E-03  8.88940528E-04  1.42822906E-03
  8.30760334E-03 -2.78740747E-03 -3.29660773E-04 -4.56890447E-03  1.24673961E-02
 -4.58017308E-03  1.71878861E-04 -5.87850086E-03  9.95173788E-03 -3.64640739E-03
 -8.97934825E-04  2.58799689E-02 -3.18627399E-03 -2.02492493E-03  4.10838926E-03
  1.65272187E-04  5.17041334E-04 -1.51171282E-04 -5.57844042E-04  5.21249710E-05
 -3.98788461E-04  7.84237392E-04 -1.46305440E-03 -1.17910725E-03  6.82136968E-04
  3.48652805E-04  9.86155916E-04 -1.84336580E-03 -3.34886223E-03  4.07749364E-03
  1.75658380E-03 -4.16641054E-03 -3.35604110E-04  1.99338011E-03  1.54375974E-03
 -9.93672178E-04  5.50440562E-03  4.45340383E-03  3.70364754E-04 -2.06066914E-03
 -1.65888988E-03  1.04697627E-03 -5.84914730E-03 -5.06755822E-03  2.29696623E-03
 -1.28348773E-02 -1.09236121E-02 -5.58850094E-05 -5.12182919E-03 -3.96250183E-03
  5.91668108E-04 -5.33276528E-04  1.24970894E-03 -1.59461086E-04 -2.19967652E-04
  1.05795139E-03 -1.23756502E-03  2.82760351E-03  4.83497042E-04  6.72579395E-04
  1.47769274E-03  1.52122892E-03 -4.20503160E-04 -1.57374960E-03  2.19484187E-03
  2.30611095E-03 -5.89832746E-04 -1.93467088E-03  5.83764738E-04  4.01228123E-04
  4.79494077E-05  4.85880981E-03  1.24571326E-03  4.95570155E-04 -1.62874892E-03
  6.07321383E-06 -5.78315781E-05 -5.48550339E-05  1.03100870E-04 -2.54973364E-05
  2.35638609E-04  1.64394506E-04  3.57508316E-04  2.76789459E-04 -2.95816025E-04
 -3.69605902E-04 -5.10189328E-04 -1.16165580E-04 -9.69989803E-04  8.19779538E-04
  1.32839369E-03 -9.99540480E-05 -1.44532696E-03  1.10983866E-03  1.19751926E-03
  8.60802134E-05 -1.05342215E-03  1.01062634E-03 -6.20931853E-03  1.11509683E-03
  1.07520128E-03 -9.24478873E-04  6.71478930E-05 -4.81112598E-05 -1.07846036E-04
  5.72817454E-05  8.59656329E-06  4.50837614E-04 -4.89754424E-05 -5.28453997E-06
  2.56966023E-04 -1.84527252E-04 -2.59432608E-05 -7.30295786E-05  1.30473242E-04
  2.30086654E-04 -2.05840717E-04 -1.65655998E-04  1.12526582E-03 -1.97703573E-04
 -2.72113760E-04 -2.75849611E-04 -4.14553473E-04 -1.17756792E-03 -5.52233122E-05
  1.55064492E-04  4.42087074E-04  2.06150316E-05  4.26322516E-04  1.27177154E-03
  2.98726090E-05  9.27221475E-04  2.80886856E-03  2.02296258E-04  4.39581947E-04
  1.46721597E-03 -2.02743845E-04 -4.65916915E-05 -7.97377238E-05 -1.27842918E-04
  5.53908254E-05 -1.07453127E-05 -1.44033209E-04 -1.88679291E-04 -3.04269331E-04
  1.27296962E-04  2.59360373E-04  4.06281164E-04 -3.20139510E-03  2.21440511E-03
 -1.49149617E-03 -1.01931090E-03 -4.87172085E-03  3.48154942E-03 -2.54040346E-03
 -8.70641216E-04 -3.70473070E-03  2.77548177E-03 -1.39269363E-03 -2.86047937E-03
 -1.50753832E-03 -1.54357048E-04  1.43366493E-03 -7.86510648E-05  3.18477323E-05
 -1.11528690E-04 -1.40551940E-04  5.53800827E-05 -5.18270053E-04 -1.28793731E-04
 -2.43510010E-04 -8.68294274E-05  2.60692645E-04  3.05116703E-04  2.77349588E-04
 -2.25587097E-03  1.96148624E-03 -2.33407406E-04 -1.41537133E-04 -3.45173699E-03
  3.03813025E-03 -5.54113178E-04 -4.85727572E-04 -2.80641285E-03  2.20735346E-03
 -3.50930894E-04  3.64580764E-03 -8.32541120E-04 -8.09876306E-04  6.93699352E-04
 -8.16637623E-05 -4.65517473E-05  2.17165485E-04  1.77903805E-04 -2.60658407E-05
 -1.88403550E-04  9.81865160E-05  8.59062088E-04  3.85263072E-04 -1.28546781E-04
  4.96644616E-06  1.79164461E-05 -4.06130537E-05 -1.95953983E-05 -1.32124687E-04
  4.88315030E-04 -9.71597644E-04  4.07371980E-04 -1.39741004E-04  2.45413514E-04
  1.13100744E-03 -1.09464526E-03 -7.00409724E-04 -4.22600232E-04  4.10528200E-04
  2.59404910E-04 -1.20035744E-03  1.18552629E-03  9.13676066E-04 -2.57590202E-03
  2.56686816E-03  1.66001032E-03 -8.70704539E-04  9.85207836E-04  8.98906603E-04
 -2.14631091E-05  2.88625777E-04 -2.44587272E-04  3.06177812E-06  1.25989051E-04
  1.17853238E-04  6.34152965E-04 -5.54711841E-04 -8.64605108E-06  2.97534856E-04
 -1.90609531E-04 -2.34058650E-04 -8.64251886E-04 -1.21985363E-03 -5.28554439E-04
 -5.00829112E-05 -1.57959314E-03 -2.21075718E-03 -9.14953380E-04 -2.83234893E-03
  4.39564934E-03  5.82431417E-03  1.65414629E-03 -1.27011683E-03 -1.02323325E-02
 -1.31270245E-02 -2.67739516E-03 -1.28908527E-04  1.91231435E-04  2.51325395E-04
 -1.22068278E-04  2.69072329E-04 -1.30573135E-03  8.87043186E-04  5.84062741E-04
 -4.16573718E-04  1.00026317E-03  2.19060947E-04  3.17593869E-04  5.52116590E-04
  5.70439184E-04 -2.30897160E-04 -3.99790847E-04  3.84259543E-04  4.90966062E-04
  9.51389245E-05 -3.17057202E-03  4.18639909E-04 -1.15307370E-03 -4.49307107E-03
  1.68830861E-02 -3.64419895E-03 -2.89719774E-03  3.88818201E-03  3.88022103E-05
 -5.63222852E-07  4.33691534E-05 -1.54541063E-05  4.39885068E-05 -1.05512531E-03
  3.20047996E-04 -2.87158143E-04 -1.60139554E-05  1.11918092E-04 -2.24356762E-05
 -6.51677646E-05  1.45755999E-04  1.79039677E-04 -2.58106934E-04 -2.38673379E-04
  4.21679224E-03  1.27261705E-03  1.05837141E-03 -1.23166211E-03 -5.34213435E-04
 -7.90590079E-04 -4.26397968E-04  1.87190721E-04  2.81158455E-04  1.60663088E-04
  7.36148006E-04  1.05854874E-03  5.03472050E-04  9.23658723E-04  1.35302454E-03
  6.99181289E-04  3.38623688E-04  5.14883740E-04  3.07909742E-04 -1.09604372E-04
 -3.59904694E-05 -1.07586893E-04  2.06770141E-05  2.69033308E-05 -1.41362743E-04
  3.31136943E-04  3.26993242E-04 -1.20742673E-04  5.53364586E-05  3.71498472E-01
 -5.25552886E-04 -6.23468778E-04 -2.43717084E-03 -3.44241770E-03 -1.49720007E-03
 -2.85918120E-04 -4.47944773E-03 -6.26744492E-03 -2.58953989E-03 -8.15003814E-03
  1.27064612E-02  1.68305520E-02  4.76600503E-03 -3.64131310E-03 -2.94092587E-02
 -3.77453876E-02 -7.73977064E-03 -3.58157926E-04  5.40726281E-04  7.12593306E-04
 -3.44493147E-04  7.54868803E-04 -3.80616980E-03  2.58282183E-03  1.69516645E-03
 -1.21083609E-03  2.90606665E-03  6.35834952E-04  9.10332672E-04  1.58741377E-03
  1.64300879E-03 -6.55921425E-04 -1.11089206E-03  1.08316802E-03  1.39400140E-03
  2.95533222E-04 -9.20193286E-03  1.21972779E-03 -3.31932009E-03 -1.29812636E-02
  4.85333199E-02 -1.04708475E-02 -8.31639620E-03  1.11939474E-02  1.17072577E-04
 -4.72746927E-06  1.25126042E-04 -4.42212920E-05  1.27575222E-04 -3.08481455E-03
  9.41550325E-04 -8.30212553E-04 -5.04074580E-05  3.32850471E-04 -6.51812210E-05
 -1.92264624E-04  4.33112938E-04  5.21240625E-04 -7.37553602E-04 -6.76447615E-04
  1.21609760E-02  3.65683693E-03  3.03895943E-03 -3.54528179E-03 -1.54820423E-03
 -2.28594717E-03 -1.22141583E-03  5.37017417E-04  8.06738766E-04  4.61307677E-04
  2.13376009E-03  3.06186049E-03  1.44192996E-03  2.65409988E-03  3.87854234E-03
  1.98367181E-03  9.75040348E-04  1.47710679E-03  8.71735009E-04 -3.14016436E-04
 -1.07889069E-04 -3.14153537E-04  6.11198337E-05  7.67541668E-05 -4.02691865E-04
  9.58881400E-04  9.50850094E-04 -3.50120178E-04  1.58815444E-04  6.26640753E-01
  1.09392514E+00  8.62237478E-04  8.89243792E-04  4.71981352E-03  6.67762707E-03
  2.92954006E-03  1.70818604E-03  8.55577206E-03  1.20143229E-02  5.06434634E-03
  1.76662902E-02 -2.45294256E-02 -3.26237368E-02 -9.56253289E-03  3.94067924E-03
  5.53285772E-02  7.15806423E-02  1.61107679E-02  7.41300044E-04 -1.09294213E-03
 -1.42272748E-03  6.90589652E-04 -1.51138057E-03  7.47236355E-03 -5.11417906E-03
 -3.37756561E-03  2.39162217E-03 -5.69734450E-03 -1.33466505E-03 -1.88398209E-03
 -3.23879939E-03 -3.38196372E-03  1.25728740E-03  2.40637022E-03 -2.33826208E-03
 -2.99072927E-03 -5.87525148E-04  1.70615658E-02 -2.16626167E-03  6.52984562E-03
  2.47832469E-02 -8.85160280E-02  1.92681979E-02  1.51863840E-02 -2.09182664E-02
 -2.32705732E-04 -8.06995276E-06 -2.57102910E-04  8.66401050E-05 -2.21617495E-04
  5.92686804E-03 -1.83363714E-03  1.54697992E-03  1.17364801E-04 -6.85247309E-04
  1.45979894E-04  4.33694133E-04 -9.54044213E-04 -1.18878666E-03  1.57992918E-03
  1.30586305E-03 -2.40494195E-02 -6.90620058E-03 -5.65133273E-03  6.93526115E-03
  3.24925011E-03  4.77238059E-03  2.49483715E-03 -1.12730905E-03 -1.68342662E-03
 -9.40926325E-04 -4.40960664E-03 -6.30722763E-03 -2.92437814E-03 -5.75959046E-03
 -8.33013419E-03 -4.06903516E-03 -2.23444912E-03 -3.25847514E-03 -1.65289505E-03
  6.56682328E-04  2.20325533E-04  6.53614563E-04 -1.27703772E-04 -1.52839462E-04
  8.56597823E-04 -1.80866096E-03 -1.73609279E-03  6.53623884E-04 -3.21412890E-04
 -1.26276120E-01 -3.55674177E-01  5.97343274E-01  1.61341887E-03  1.91644809E-03
  9.49059282E-03  1.33603163E-02  5.70827023E-03  1.67771306E-03  1.64873180E-02
  2.31715754E-02  9.81247075E-03  3.25467408E-02 -4.02213586E-02 -5.37587636E-02
 -1.64015083E-02  3.60869992E-04  8.99566652E-02  1.17160634E-01  2.83187909E-02
  1.51846141E-03 -2.10888610E-03 -2.68670498E-03  1.32242803E-03 -2.92017586E-03
  1.25660319E-02 -8.74526471E-03 -5.93765282E-03  4.12708969E-03 -9.78646067E-03
 -2.32115134E-03 -3.49369200E-03 -6.10556370E-03 -6.29881534E-03  2.57898112E-03
  5.70342922E-03 -4.97379391E-03 -6.02653188E-03 -3.36930887E-04  2.70988879E-02
 -3.20396935E-03  1.11747588E-02  4.07859687E-02 -1.38514163E-01  3.03205581E-02
  2.36761560E-02 -3.35197096E-02 -3.49047029E-04 -5.87330438E-05 -4.36121468E-04
  1.43859235E-04 -3.17348714E-04  9.63868610E-03 -2.83470155E-03  2.62997100E-03
  1.74869772E-04 -1.27546764E-03  1.77905981E-04  5.17617297E-04 -1.17977061E-03
 -1.50291910E-03  2.49960441E-03  1.54589760E-03 -4.02705157E-02 -1.12681457E-02
 -9.10941451E-03  1.16188839E-02  5.86006888E-03  8.70661339E-03  4.77039816E-03
 -2.06552690E-03 -3.10841234E-03 -1.78912549E-03 -7.88595164E-03 -1.14238990E-02
 -5.62263694E-03 -1.09614952E-02 -1.60325390E-02 -8.23094552E-03 -4.55666664E-03
 -6.59197068E-03 -3.22568584E-03  1.24680162E-03  3.14187471E-04  1.11721178E-03
 -2.04687919E-04 -2.84145029E-04  1.65849671E-03 -3.02191186E-03 -2.76833338E-03
  1.07753656E-03 -5.93626767E-04 -1.83955276E-01 -4.96003457E-01  7.94042559E-01
  1.08894009E+00 -6.03565658E-04  4.43888366E-06 -1.44467232E-02 -2.04163331E-02
 -8.90511364E-03 -1.07797100E-02 -2.31191410E-02 -3.31069995E-02 -1.54350581E-02
 -5.95265349E-02  4.63530456E-02  6.32907868E-02  2.25413132E-02  3.94097482E-02
 -9.46667262E-02 -1.29195800E-01 -4.58701530E-02 -2.84951904E-03  3.51325906E-03
  4.17782956E-03 -2.11383495E-03  4.66481256E-03 -1.57583134E-02  1.16232471E-02
  8.29438646E-03 -5.45583271E-03  1.24049409E-02  4.03044609E-03  6.13800618E-03
  1.03488997E-02  1.07101357E-02 -4.28043949E-03 -1.23588885E-02  1.06219945E-02
  1.21069896E-02 -1.35984693E-03 -2.46074363E-02  1.86265152E-03 -1.44122468E-02
 -4.52672008E-02  1.10343606E-01 -2.56461614E-02 -1.86024568E-02  3.22301124E-02
  3.72618559E-04  2.79739281E-04  6.24001555E-04 -1.71249245E-04  7.71900622E-05
 -1.03152820E-02  2.77814724E-03 -2.92258388E-03 -2.14787330E-04  1.87024963E-03
 -2.33092880E-04 -6.63736863E-04  1.43561548E-03  2.28769030E-03 -3.84212880E-03
 -4.08048830E-04  5.30783221E-02  1.18411141E-02  8.58962487E-03 -1.48885865E-02
 -1.06925569E-02 -1.58646892E-02 -8.64394718E-03  3.92357011E-03  5.83220642E-03
  3.20108810E-03  1.36093441E-02  1.98340891E-02  1.00263825E-02  2.29622300E-02
  3.32361786E-02  1.62912295E-02  1.13880503E-02  1.54642223E-02  5.30584860E-03
 -2.27133163E-03 -3.24614244E-04 -1.76663407E-03  2.98901282E-04  4.38590593E-04
 -3.23713595E-03  3.24009066E-03  2.08877887E-03 -1.04355249E-03  9.24819158E-04
  3.56693813E-02  1.03164293E-01 -2.25874812E-01 -4.54140671E-01  8.16688277E-01
  8.73627264E-03  1.28448728E-02 -1.34591188E-03 -1.96429748E-03 -9.92863568E-04
 -4.00600370E-02 -2.09078938E-03 -3.50881064E-03 -2.78822738E-03 -8.34939919E-02
  5.18896377E-02  7.28038029E-02  3.05585918E-02  5.35416324E-02 -8.82708428E-02
 -1.25296067E-01 -5.59233647E-02 -1.93039343E-03  2.44564517E-03  3.04882863E-03
 -1.54214579E-03  3.50842733E-03 -1.17220843E-02  9.28375698E-03  6.57656493E-03
 -4.07374834E-03  8.31310148E-03  1.95214551E-03  3.66994803E-03  7.42583984E-03
  9.32148863E-03  1.39072270E-03 -7.44591249E-03  7.35260163E-03  1.09157245E-02
  5.97118356E-03 -1.42603115E-02 -2.54573625E-03 -1.82297361E-02 -4.14105880E-02
  8.32941460E-02 -2.34112324E-02 -1.70148002E-02  2.93324892E-02  4.85804170E-04
  2.47968062E-04  5.60857301E-04 -1.10852183E-04 -1.77950254E-04 -6.41412287E-03
  2.58878131E-03 -1.52028056E-03  2.34080116E-07 -7.05383804E-04 -3.95368690E-04
 -1.13742799E-03  2.20536544E-03  2.98234435E-03 -2.13717562E-03 -2.63562708E-03
  6.04195631E-02  1.28916205E-02  9.52741515E-03 -1.57321041E-02 -5.34362381E-03
 -7.67714107E-03 -3.64121764E-03  1.91322465E-03  2.76596976E-03  1.35075084E-03
  7.23306679E-03  1.00234530E-02  3.92464326E-03  9.93548410E-03  1.36861854E-02
  5.16956152E-03  9.29078077E-04  6.33280954E-04 -1.26963328E-03 -1.72946747E-03
 -9.47514786E-04 -2.22554277E-03  5.11254949E-04  2.54013073E-04 -2.84546134E-03
  1.55862106E-03  2.31825342E-04 -4.05200412E-04  7.07147378E-04  5.36430105E-02
  1.53819507E-01 -3.06873498E-01 -5.47091404E-01  7.79656410E-01  7.72646579E-01
  2.20941139E-02  2.85541665E-02  1.15107486E-02  6.05858648E-03 -2.07096845E-02
 -5.78644346E-02  1.85889159E-02  1.12310636E-02 -2.95022844E-02 -2.66880627E-02
 -7.07146516E-03 -1.33709727E-02 -1.35653456E-02 -2.77284921E-02  8.05436306E-02
  1.18685289E-01  6.28623483E-02 -9.68596781E-05 -1.11033498E-03 -2.23287825E-03
  9.36024468E-04 -2.05976452E-03 -2.21503387E-04 -8.92576432E-04 -2.70244970E-03
  1.26866166E-03 -3.69235719E-03  3.02390426E-02  3.81851016E-02 -1.61539103E-02
 -7.36910788E-03  3.21802355E-02 -8.09874186E-02 -2.32703497E-02 -1.13597601E-02
  4.43328905E-02  1.38237777E-03 -7.74045874E-03 -7.32055572E-03  5.09593797E-03
 -1.05141976E-01 -1.72405211E-02 -3.64866762E-02 -4.36095705E-02 -7.00820444E-03
  2.59422715E-03 -1.39831271E-03 -2.45479635E-04  5.85422868E-04 -1.18068982E-02
  5.75585061E-03  2.36739202E-03 -2.80538967E-03  8.60591802E-03  4.93907662E-03
  1.42030610E-02 -2.76286849E-02 -4.56541268E-02  5.73569829E-02  6.50406899E-02
 -6.16312605E-02 -8.54572891E-03 -6.66761432E-03  9.48718312E-03  1.57528225E-02
  6.63588743E-03 -3.28097344E-02 -5.88222665E-03 -2.49024789E-03  1.22175931E-02
 -1.81255432E-02 -8.16108156E-03  3.63184647E-02 -3.74485818E-02 -1.59224952E-02
  7.75906594E-02 -2.06027040E-02 -1.27979296E-02  3.16791974E-02 -4.04889483E-03
  1.21870685E-03 -1.38400231E-03  1.08442281E-04 -2.49454279E-04 -7.00242977E-03
  1.38775025E-03 -3.23202165E-03  4.37911741E-04 -3.45594496E-04 -2.50348981E-02
 -7.19816915E-02  1.36385022E-01  2.22632400E-01 -2.46602864E-01 -2.39214398E-01
  1.86831836E-01  8.71906411E-04  1.73560860E-03 -6.33280169E-05  7.42514377E-03
 -1.41094510E-03 -5.34938757E-03  1.37233142E-04  1.18280271E-02 -1.86458764E-03
 -3.22541831E-03 -5.29385517E-03  2.40615353E-03 -3.24749015E-03 -1.56802791E-03
  7.68581338E-03  1.38628557E-02  6.07141130E-03  2.32329457E-04 -1.90306957E-04
 -7.03454769E-04  2.98246835E-04 -1.62304222E-04 -2.60257028E-04  4.02983823E-04
 -1.45469280E-03  1.39599143E-03  3.31613746E-04  1.46603801E-03  1.79543072E-03
 -4.29999662E-03 -1.06235487E-03  4.13779818E-03 -3.72700956E-03 -6.18957358E-03
 -1.55185512E-03  5.07707019E-03  3.00411532E-04 -3.89214570E-03  8.69949751E-04
  2.89410829E-03 -1.08503474E-02  1.01466595E-03 -9.00980090E-04 -3.17423875E-03
 -5.68576000E-04 -7.17572214E-05  2.72102881E-04  2.85178910E-04 -5.34844718E-05
 -8.98978700E-04  3.17767221E-04  1.94740942E-03  5.15164478E-04  8.55204229E-05
  1.35528826E-03  3.89564287E-03 -7.46533299E-03 -1.22969954E-02  1.42482607E-02
  1.51905980E-02 -8.23006771E-03 -2.01848407E-03 -9.25000728E-04  2.29587709E-03
 -4.34671500E-03  1.62155898E-03 -3.76986485E-03  1.64716702E-03 -6.08331259E-04
  1.40258892E-03  4.99232756E-03 -2.10884858E-03  4.40278250E-03  1.11582428E-02
 -4.06692563E-03  8.76324457E-03  8.09845275E-03 -3.41312610E-03  4.34176207E-03
 -6.48684515E-05  1.66608363E-04 -2.99856120E-04  8.76906661E-05  9.30475801E-05
  3.44574381E-04  3.79091967E-05 -9.15475547E-04  2.33110939E-04  3.00655023E-04
 -4.29730302E-03 -1.23654095E-02  2.34730795E-02  3.84592980E-02 -4.28394077E-02
 -4.10706648E-02  2.37110953E-02  5.73145775E-03  3.42135108E-03  5.19844406E-03
  8.91650121E-03  3.97112297E-03  3.92939980E-04 -1.31665320E-02  1.41172940E-02
  6.78741147E-03  1.19121147E-03 -7.52284753E-03  3.15805408E-03 -4.71374295E-03
 -3.71927192E-04  7.64053953E-04  1.67462653E-02  2.02554692E-02  6.79443576E-03
  1.54207929E-04 -7.15610947E-04 -5.47570179E-04  2.30554194E-04 -6.58874289E-04
  9.36377198E-05 -1.23447573E-03 -4.57786298E-04 -5.07005226E-04 -1.56789657E-03
  2.83841863E-03  3.50601895E-03 -2.76543551E-03 -3.04870044E-03  6.42991290E-03
 -7.23844086E-03 -3.63083952E-03 -4.49395234E-03  8.52653030E-03  2.56479449E-03
 -4.03059707E-04 -2.51947919E-03  4.60290699E-03 -2.57256849E-02  2.74367946E-04
 -1.58953876E-03 -7.36433496E-03 -6.14928914E-04  5.48313592E-04 -3.77514329E-04
 -2.91089444E-04  5.97796995E-05 -2.01573354E-04  1.69058476E-03  3.83461385E-04
 -1.23937289E-03  6.88463665E-04  1.20752660E-03  3.47108144E-03 -6.71193057E-03
 -1.11439547E-02  1.37079061E-02  1.43712746E-02 -8.24352751E-03 -1.84826355E-03
 -1.94422550E-03  2.12514784E-03  3.74841581E-03 -3.19854991E-03 -2.07790385E-03
 -1.40187275E-03  1.21320518E-03  7.66485446E-04 -4.55906444E-03  3.54244682E-03
  2.22263989E-03 -9.11358257E-03  8.23717333E-03  4.75175175E-03 -6.33077285E-03
  4.98670686E-03  4.75379353E-04 -4.08292221E-04 -2.40914875E-04 -2.03031968E-04
  3.30716007E-05 -1.23534970E-04 -6.77559955E-04 -1.02959688E-03 -6.81160972E-04
  2.15417888E-04 -2.00895324E-04 -6.10020913E-03 -1.75518398E-02  3.32739565E-02
  5.44759016E-02 -6.03887419E-02 -5.67192287E-02  3.61521886E-02  4.74598220E-03
  9.27951880E-03  6.49607592E-03  8.54311667E-03  2.64915033E-03  5.21463905E-03
 -1.12227766E-03 -1.85579231E-02  4.36787102E-03  8.59264680E-03 -1.12984203E-03
 -1.00519685E-02 -1.19851379E-03  2.06371095E-03  1.16154556E-03  7.12916347E-03
  1.39171899E-02  1.61066985E-02 -3.24127111E-03  3.89880582E-04  2.86213026E-05
 -1.76956503E-04  1.92716590E-04 -7.56423828E-04  3.43587962E-03  4.93906861E-04
  1.21293073E-03  5.78567268E-04 -2.85675942E-03  2.98837933E-03  3.74149863E-03
 -5.03104437E-04  9.21510171E-04  2.00774154E-03 -7.66123686E-03 -5.89063759E-04
  1.80135013E-03  3.49335534E-03  6.00903187E-03 -5.74643651E-04  4.87957572E-04
 -5.51767192E-04 -3.49674814E-02  2.15378702E-05 -3.57102503E-03 -8.99874479E-03
 -8.53071859E-04  1.95515113E-04 -8.76323774E-05  7.50445897E-05  4.80226018E-05
 -4.82861464E-04 -6.47201729E-04 -1.11421378E-04  2.64568747E-04  8.47840047E-04
 -1.09303240E-03 -3.14136657E-03  5.85602291E-03  9.40660010E-03 -8.73294083E-03
 -9.97425611E-03  4.16062727E-03 -2.19856449E-04 -8.61874043E-04 -2.16451424E-03
  2.01393054E-03  4.78961672E-03 -3.48388300E-04 -7.55344930E-04 -1.79578755E-03
  1.45841540E-04 -2.26027626E-03 -5.68880059E-03 -5.17277789E-05 -4.95978747E-03
 -1.15426790E-02  1.90160284E-03 -3.59115755E-03 -8.94375330E-03 -4.25538737E-04
 -2.70707879E-04 -2.11611846E-05 -4.47076145E-04  1.44401087E-04 -2.09417593E-04
 -1.27270790E-03  1.45501287E-04 -1.27733425E-03  3.26742984E-04 -4.46532767E-04
 -2.72223820E-03 -7.82937992E-03  1.47413275E-02  2.40396592E-02 -2.59842350E-02
 -2.17065964E-02  2.18045637E-02  1.69820068E-03  3.77842637E-03  7.05930054E-03
  7.75563455E-03  1.22002670E-02  1.41441266E-02  2.63674086E-02  9.65654958E-03
 -3.27732280E-02  2.21486548E-02  4.35309189E-02  1.48347610E-02 -3.62142212E-02
  9.37895476E-03  1.21964892E-02  1.27677451E-02  7.98399776E-02  1.89522222E-02
 -4.89516244E-03 -2.82119643E-02  2.26652953E-04 -1.04607151E-03 -1.94434629E-03
  3.49440065E-03  1.23864676E-04 -2.85037084E-03 -3.89400764E-04 -6.81786673E-03
  1.46824153E-02  3.08441247E-03 -3.50329409E-03 -5.63336048E-03  6.27231233E-03
 -1.35420322E-02  1.05188968E-02  1.64471441E-02  1.06623651E-02 -1.92712595E-02
  1.18976359E-02  1.87153449E-02  9.36128345E-03 -2.15523362E-02  1.57231410E-02
 -8.32828739E-02  1.35792004E-02  2.01367492E-02 -7.10979957E-03  1.48880247E-03
 -3.20879205E-04 -4.00986738E-04  3.35349355E-04 -6.98995907E-04  3.01697380E-03
 -5.76541512E-04  2.19463518E-03  1.42451100E-03 -3.26261091E-03 -6.32441470E-05
 -1.91510935E-04  4.38026114E-04  6.34976574E-04 -1.17748866E-03 -1.20043781E-03
  1.35605874E-02 -6.38950314E-03  1.78702908E-03 -1.40876357E-03 -7.40429147E-04
  5.13570801E-03  5.20511985E-04  2.78348572E-04 -1.90298501E-03 -2.11295910E-04
  7.78574417E-04 -6.42478503E-03 -2.53566258E-04  2.22727456E-03 -1.18151577E-02
 -2.87988720E-03  1.39828699E-03 -9.15274613E-03  1.22487278E-05  2.27363416E-04
 -6.49276948E-04 -1.29495985E-04  6.95425664E-04  1.83980273E-04  1.49885820E-03
 -2.36699983E-03 -1.37840598E-03  1.73780642E-03  6.37088980E-04  1.18258229E-03
  3.40769291E-03 -7.23079041E-03 -1.21957150E-02  1.94245309E-02  3.37255316E-02
 -5.12580519E-03  9.34413864E-03 -1.41725905E-03 -1.40279929E-03  1.38961259E+00
  1.14751060E-02  1.81119105E-02  2.66741509E-02  3.16144611E-02  1.37272804E-02
 -4.96775443E-02  4.37514567E-02  5.01478715E-02  2.22234368E-02 -5.15640950E-02
  1.03795711E-02  2.05548978E-02  1.41107190E-02  7.98518869E-02  5.63092761E-03
  7.71059194E-03 -3.62714771E-02  8.28026681E-04 -2.45759415E-03 -2.35857118E-03
 -1.41544723E-03 -1.72026330E-03  2.71271266E-03 -7.23604477E-03 -5.22607657E-03
 -8.31752229E-03 -7.64518572E-03 -3.75047756E-03 -6.05320655E-03 -1.58238373E-02
  3.84335261E-03  4.59045356E-03  1.85188499E-02 -2.13924326E-02  6.79342606E-03
  4.35859618E-03  2.28352192E-02 -2.49298200E-02  5.23047778E-03  6.62303752E-03
 -9.24628452E-02  1.72069370E-02  1.17729369E-02 -8.33185223E-03  1.32126371E-03
 -1.04928268E-03 -1.17159700E-04  2.69169820E-04 -9.44458240E-04  8.23729533E-03
 -9.32120125E-04  5.41468534E-04 -2.27279891E-05 -5.36774525E-03  2.97482503E-04
  8.50086284E-04 -1.73098537E-03 -3.33970319E-03  6.07111997E-03  1.99816882E-03
  1.89957742E-02  3.96027932E-03 -3.79649848E-03 -4.57303534E-04  6.19405823E-03
  4.90286496E-03  6.69518667E-03 -2.30390039E-03 -1.83393120E-03 -2.49482246E-03
 -7.87806006E-03 -6.22181571E-03 -8.13072219E-03 -1.45678570E-02 -1.18137295E-02
 -1.58405296E-02 -1.35854777E-02 -1.07459913E-02 -1.01739446E-02  7.78499806E-04
 -1.07734651E-03 -1.21359516E-03 -8.51668593E-05 -1.94149410E-04  1.05531652E-03
 -3.48176663E-03 -3.74901715E-03  2.21365331E-04 -1.73143057E-04  1.67073400E-03
  4.81293680E-03 -1.01969545E-02 -1.72739919E-02  2.73324619E-02  4.92165851E-02
 -4.15364615E-03 -2.38725209E-03  7.83378892E-03  1.53287752E-03 -1.52265434E-02
  1.37846720E+00  6.18223920E-03  9.89031591E-03  1.04898159E-02  1.47162857E-02
  1.08665921E-03 -2.93584478E-02  1.54321875E-02  2.29327285E-02  2.63335749E-03
 -2.33606749E-02  7.82821967E-03  8.24723858E-03  2.10331131E-04 -4.07402103E-02
  3.82050531E-04 -2.32014709E-03  6.78757609E-03  2.39972350E-03  7.22077505E-04
  1.51272669E-03  8.50539046E-04 -1.81711217E-03  2.26648049E-02  3.77942529E-03
  1.25028723E-02  3.91556527E-03 -1.44923340E-02  1.10837997E-03  1.72134742E-03
  4.30535480E-03 -2.78328800E-03 -5.60902663E-04 -2.72087351E-03  6.12136299E-03
 -2.49527481E-03  3.99513332E-03  1.68190033E-03  6.52628592E-03 -4.29040027E-03
 -3.99363198E-04  1.76177130E-02 -1.51145077E-02 -1.78154740E-02 -5.25396414E-03
 -2.57223537E-04 -5.92092699E-05 -3.52292935E-04  4.78389646E-05  3.16248215E-04
  9.81842029E-03 -4.73238848E-03 -2.18103670E-04  1.92983610E-03 -4.61198503E-03
  1.01475295E-03  2.93462081E-03 -6.13098093E-03 -1.11496846E-02  2.03437939E-02
  9.32360788E-03  7.88874387E-03  4.52177018E-03  6.58134972E-03 -5.02054379E-03
  3.40314946E-03  1.01159299E-02  1.16464823E-02 -1.30328112E-03 -3.79065977E-03
 -4.29569840E-03 -4.21184620E-03 -1.28279453E-02 -1.52128958E-02 -1.03778055E-02
 -2.47388273E-02 -2.25429670E-02 -1.20635999E-02 -2.45056577E-02 -1.86361900E-02
  7.80911519E-04 -1.40027306E-03 -1.39548612E-03  8.15940631E-04 -9.10295416E-04
 -2.35268672E-03 -1.48237038E-03 -3.97792583E-03  1.61704782E-03 -1.61276416E-03
  7.27493714E-04  2.09252800E-03 -4.39767438E-03 -7.62218322E-03  1.16477140E-02
  2.50282814E-02  5.19126158E-03 -4.04857057E-03 -1.61202724E-03  1.88026338E-02
 -7.50459001E-03 -9.74943904E-03  1.39782621E+00 -2.89138995E-03 -4.52173569E-03
 -5.27890249E-03 -9.83886933E-03 -3.58476889E-03  1.20709770E-02 -8.24376115E-03
 -1.62279595E-02 -5.50884493E-03  1.33536378E-02 -3.49352152E-03 -4.49902044E-03
 -4.72729826E-03 -2.98491726E-02 -7.10361599E-03  1.84816273E-03  1.04876206E-02
 -8.10522256E-05  3.90284622E-04  7.26941474E-04 -1.31620640E-03 -5.31632414E-05
  1.08151711E-03  1.28230461E-04  2.53507092E-03 -5.52372788E-03 -1.18840038E-03
  1.29404467E-03  2.09648970E-03 -2.36846818E-03  5.12512987E-03 -3.96690626E-03
 -6.17615755E-03 -4.01473677E-03  7.30586456E-03 -4.49482141E-03 -6.93329948E-03
 -3.57017460E-03  8.11299261E-03 -5.92848195E-03  3.10746745E-02 -5.08573237E-03
 -7.55512901E-03  2.65720331E-03 -5.57266431E-04  1.23903867E-04  1.57302675E-04
 -1.26597467E-04  2.58661424E-04 -1.12184525E-03  2.27492258E-04 -7.98416674E-04
 -5.44376051E-04  1.22805197E-03  1.50623733E-05  4.26609022E-05 -1.03771569E-04
 -1.54893832E-04  4.07811841E-04  4.04845918E-04 -5.00622891E-03  2.41366714E-03
 -6.70509811E-04  5.14007714E-04  2.91460238E-04 -1.87904420E-03 -1.91180252E-04
 -1.09564984E-04  6.95944617E-04  7.74390123E-05 -3.09788505E-04  2.35246698E-03
  8.21652195E-05 -8.68901642E-04  4.31248948E-03  1.05472769E-03 -5.57372154E-04
  3.34346406E-03 -2.63158018E-05 -8.63605696E-05  2.42592013E-04  4.49588244E-05
 -2.61096856E-04 -6.98475197E-05 -5.65549845E-04  8.84362424E-04  5.06771496E-04
 -6.51916119E-04 -2.39045597E-04 -3.96393516E-04 -1.16592025E-03  2.56543584E-03
  4.38666588E-03 -7.22183655E-03 -1.24680228E-02  1.90536795E-03 -3.51378881E-03
  5.35604640E-04  5.45326287E-04 -4.74352843E-01  5.95905282E-03  2.89461584E-03
  1.62043491E-01 -4.30668421E-03 -6.74934868E-03 -9.94845864E-03 -1.17748731E-02
 -5.09090154E-03  1.83771781E-02 -1.63017851E-02 -1.86518029E-02 -8.24851288E-03
  1.90440138E-02 -3.83141638E-03 -7.62337715E-03 -5.20163375E-03 -2.97810643E-02
 -2.07241968E-03 -2.91719599E-03  1.35016943E-02 -3.05664620E-04  9.19152247E-04
  8.82493584E-04  5.38914337E-04  6.39777953E-04 -9.93244218E-04  2.69632003E-03
  1.93802072E-03  3.15701372E-03  2.83210673E-03  1.38990139E-03  2.25621184E-03
  5.97070256E-03 -1.45850309E-03 -1.71626134E-03 -6.95073963E-03  8.08711488E-03
 -2.56254579E-03 -1.63107147E-03 -8.45374022E-03  9.37039055E-03 -2.02881552E-03
 -2.47664699E-03  3.44559323E-02 -6.44629731E-03 -4.40667576E-03  3.10747974E-03
 -4.90994473E-04  3.97971727E-04  4.78871531E-05 -1.01920161E-04  3.49716363E-04
 -3.06063385E-03  3.58088930E-04 -1.77384783E-04  5.93129675E-06  2.00826248E-03
 -1.14595847E-04 -3.29566414E-04  6.70897903E-04  1.27764558E-03 -2.26222997E-03
 -7.53941711E-04 -7.04508565E-03 -1.47997037E-03  1.43822795E-03  1.57690985E-04
 -2.28096370E-03 -1.80599117E-03 -2.49065516E-03  8.48343098E-04  6.75438357E-04
  9.27697117E-04  2.90620418E-03  2.29039934E-03  3.01701214E-03  5.36511196E-03
  4.34874155E-03  5.87669121E-03  5.01743607E-03  3.95684475E-03  3.77049745E-03
 -2.91927861E-04  4.00894951E-04  4.52088254E-04  3.42297589E-05  7.16506363E-05
 -3.97638731E-04  1.29551424E-03  1.39570059E-03 -7.74652299E-05  6.55322304E-05
 -5.59429265E-04 -1.64471636E-03  3.61384052E-03  6.20925855E-03 -1.01623279E-02
 -1.82067765E-02  1.52242711E-03  8.93175836E-04 -2.93903811E-03 -5.52171455E-04
  5.95837860E-03 -4.70006362E-01  3.81154501E-03 -2.32209839E-03  1.60354865E-01
 -2.38280442E-03 -3.76531017E-03 -3.88245687E-03 -5.44423836E-03 -3.75307163E-04
  1.10312257E-02 -5.70874925E-03 -8.48587253E-03 -9.32695320E-04  8.69632899E-03
 -2.91242780E-03 -3.04727463E-03 -5.05308227E-05  1.54293365E-02 -1.62269717E-04
  8.56388993E-04 -2.55658350E-03 -8.99067959E-04 -2.76706498E-04 -5.73687237E-04
 -3.19288457E-04  6.81754356E-04 -8.47729319E-03 -1.43606733E-03 -4.70366317E-03
 -1.46825137E-03  5.41315966E-03 -3.97011843E-04 -6.31147518E-04 -1.66437230E-03
  1.01620052E-03  2.33794087E-04  1.03092985E-03 -2.36740548E-03  8.93213652E-04
 -1.47486915E-03 -6.07148298E-04 -2.50462511E-03  1.58624542E-03  1.77489540E-04
 -6.69431266E-03  5.68664541E-03  6.69665233E-03  1.95986778E-03  1.01051279E-04
  1.56981419E-05  1.27172346E-04 -1.53888683E-05 -1.21600940E-04 -3.63851574E-03
  1.75345665E-03  7.36994716E-05 -7.14382021E-04  1.69744785E-03 -3.60838313E-04
 -1.03561186E-03  2.16291266E-03  3.98091771E-03 -7.48052810E-03 -3.36248625E-03
 -3.00025487E-03 -1.69494379E-03 -2.46400340E-03  1.90478439E-03 -1.28585625E-03
 -3.78968473E-03 -4.35022845E-03  4.92518062E-04  1.42026664E-03  1.60442893E-03
  1.59033684E-03  4.80674713E-03  5.68547094E-03  3.92181937E-03  9.27928790E-03
  8.42026550E-03  4.53394208E-03  9.18266179E-03  6.97203562E-03 -2.87301166E-04
  5.21911182E-04  5.22601723E-04 -3.05669826E-04  3.40931444E-04  8.93405056E-04
  5.45538233E-04  1.48663574E-03 -6.05109134E-04  6.07329471E-04 -2.42236430E-04
 -7.10469974E-04  1.54938533E-03  2.73058733E-03 -4.33148247E-03 -9.28491480E-03
 -1.98810957E-03  1.52066718E-03  6.07209597E-04 -7.05882701E-03  2.89275792E-03
  3.80933179E-03 -4.77454341E-01 -1.11261456E-03 -1.48346672E-03  1.63212109E-01
 -8.31421016E-03 -1.31048755E-02 -1.70193614E-02 -2.90547542E-02 -1.09927706E-02
  3.55351485E-02 -2.62620775E-02 -4.76948069E-02 -1.69263182E-02  3.75645205E-02
 -1.15226697E-02 -1.23382537E-02 -1.40602106E-02 -8.17411884E-02 -2.05645161E-02
  6.75799195E-03  3.02329368E-02 -2.22158581E-04  1.23049885E-03  2.24598591E-03
 -4.11832768E-03 -2.10080045E-04  3.43074988E-03  2.50641181E-04  7.55232635E-03
 -1.68832563E-02 -4.18729409E-03  4.38478493E-03  6.92842228E-03 -7.75614064E-03
  1.66896122E-02 -1.24202585E-02 -2.00395575E-02 -1.29685902E-02  2.40058800E-02
 -1.42744100E-02 -1.94656050E-02 -1.21504424E-02  2.54524021E-02 -1.83522856E-02
  8.54923929E-02 -1.39860619E-02 -2.16901818E-02  6.53172614E-03 -1.69009756E-03
  3.40339355E-04  4.88516524E-04 -2.90370632E-04  6.95827319E-04 -3.13930310E-03
  5.12564489E-04 -2.12178715E-03 -1.53921395E-03  3.91326860E-03  1.41184294E-04
  4.19568698E-04 -8.90184564E-04 -1.36260445E-03  2.09363351E-03  2.15225742E-03
 -1.53789400E-02  7.25600274E-03 -2.37976129E-03  1.75345105E-03  6.35806097E-04
 -6.66896719E-03 -4.54665756E-04 -2.38881668E-04  2.47546356E-03  1.83745280E-04
 -6.44480820E-04  8.22347943E-03  1.47361973E-04 -1.97925279E-03  1.54667756E-02
  2.89039508E-03 -1.10305520E-03  1.13977401E-02 -3.35374637E-04 -2.34720317E-04
  7.94391338E-04  2.72824039E-05 -7.83594531E-04 -1.98409953E-04 -1.60795467E-03
  2.78440742E-03  1.24658109E-03 -1.95602314E-03 -6.46271506E-04 -1.54545223E-03
 -4.42360043E-03  9.15410402E-03  1.57799261E-02 -2.43308735E-02 -3.90059861E-02
  5.40777955E-03 -1.05973318E-02  1.44907691E-03  1.70717595E-03 -2.41257631E-02
  1.85859255E-02  9.24292197E-03  1.21806917E-02 -7.14874978E-03 -3.51008297E-03
  1.30430615E-01 -1.21807863E-02 -1.93064261E-02 -2.94047172E-02 -3.64817265E-02
 -1.53678261E-02  5.36116735E-02 -4.78443509E-02 -5.72716433E-02 -2.49859903E-02
  5.33376334E-02 -1.05755005E-02 -2.33927825E-02 -1.46045951E-02 -7.98955001E-02
 -4.18539514E-03 -7.58461206E-03  3.89050460E-02 -9.76046438E-04  2.85679385E-03
  2.73724954E-03  1.71363547E-03  1.94090540E-03 -3.00022619E-03  8.20376941E-03
  5.57924882E-03  9.94642255E-03  8.08260688E-03  4.60916541E-03  7.31499544E-03
  1.93158888E-02 -4.58105278E-03 -5.02114213E-03 -2.21948823E-02  2.65241166E-02
 -7.90276494E-03 -4.81943141E-03 -2.29228796E-02  2.91901313E-02 -7.29787771E-03
 -7.26385048E-03  9.32559219E-02 -1.77052227E-02 -1.19301229E-02  7.54449088E-03
 -1.46806253E-03  1.24807296E-03  9.73869003E-05 -3.54172379E-04  9.69737023E-04
 -8.93402832E-03  1.15923767E-03 -3.05384525E-04 -2.34753999E-04  6.40399345E-03
 -3.29969496E-04 -9.41341376E-04  1.90965766E-03  3.74022644E-03 -6.82758225E-03
 -1.91963255E-03 -2.10799858E-02 -4.95401697E-03  4.07810708E-03  4.26595717E-04
 -8.11445361E-03 -6.51114991E-03 -8.15607104E-03  3.02524339E-03  2.43596270E-03
  3.03190836E-03  1.01464959E-02  8.13412064E-03  9.85733505E-03  1.92510378E-02
  1.57749136E-02  1.91841851E-02  1.69201346E-02  1.36302754E-02  1.18688773E-02
 -1.03607026E-03  1.14162667E-03  1.33870670E-03  1.26553319E-04  1.88251133E-04
 -1.45137978E-03  3.66495507E-03  4.18262853E-03 -1.82504906E-04  1.98719692E-04
 -2.18295391E-03 -6.24663017E-03  1.29083734E-02  2.23243748E-02 -3.41965135E-02
 -5.69545963E-02  4.73130728E-03  2.59903155E-03 -8.80383111E-03 -1.63002740E-03
  1.86251646E-02 -1.05155066E-02  1.17193706E-02 -7.16476494E-03  6.95938861E-03
 -4.50553019E-03 -2.16932261E-02  1.14594943E-01 -6.29860402E-03 -1.02195547E-02
 -1.19431126E-02 -1.64957185E-02 -2.25953892E-03  3.11457968E-02 -1.73294100E-02
 -2.54645811E-02 -4.64828430E-03  2.38261748E-02 -9.26864599E-03 -8.91652511E-03
  1.98799727E-04  4.67878657E-02  5.13241116E-04  3.61565646E-03 -8.70891404E-03
 -2.91077263E-03 -8.56300261E-04 -1.86457376E-03 -9.90845775E-04  2.13087627E-03
 -2.63484789E-02 -4.39214063E-03 -1.46379328E-02 -4.48940418E-03  1.65607416E-02
 -1.61870202E-03 -2.47043104E-03 -5.26820181E-03  3.46628994E-03  8.09316628E-04
  4.31952728E-03 -7.41606347E-03  3.31836853E-03 -4.59884478E-03  5.04722125E-04
 -8.17373559E-03  4.81430745E-03  2.63275008E-04 -2.26364679E-02  1.74131494E-02
  2.04396278E-02  5.69433407E-03  2.41611881E-04  1.21024765E-04  4.73647484E-04
 -5.76470202E-05 -3.30124397E-04 -1.12861359E-02  5.61753293E-03  5.76582402E-04
 -2.25945226E-03  5.35071886E-03 -1.35519003E-03 -3.92039933E-03  8.07929784E-03
  1.45927797E-02 -2.53658907E-02 -1.21868956E-02 -7.68561917E-03 -5.27089978E-03
 -7.91021272E-03  5.29490439E-03 -4.39209655E-03 -1.28285700E-02 -1.46309859E-02
  1.68132825E-03  4.80908466E-03  5.39630828E-03  5.38547173E-03  1.60733583E-02
  1.88450103E-02  1.31989284E-02  3.14181065E-02  2.87912701E-02  1.47091537E-02
  2.97238677E-02  2.26013327E-02 -1.10673938E-03  1.65421594E-03  1.45849635E-03
 -9.19584868E-04  1.06073383E-03  2.36323515E-03  1.78088616E-03  4.31452896E-03
 -1.84121686E-03  1.96539725E-03 -9.49593172E-04 -2.71340495E-03  5.56536255E-03
  9.79134993E-03 -1.44824176E-02 -2.90348803E-02 -4.51884669E-03  4.84385120E-03
  2.09831582E-03 -2.12350659E-02  9.34993842E-03  1.18464472E-02 -3.48858383E-02
 -3.55378031E-03 -4.55742544E-03  1.61934656E-02 -1.09614708E-02 -1.35442020E-02
  1.43862202E-01 -1.62645155E-02 -2.60535067E-02 -3.49193770E-02 -6.19540365E-02
 -2.21233666E-02  7.18154938E-02 -5.35521450E-02 -1.01449137E-01 -3.41709531E-02
  7.73395097E-02 -2.29647121E-02 -2.58787376E-02 -2.83557323E-02 -1.84593149E-01
 -4.57835629E-02  1.28022360E-02  6.57476776E-02 -3.67920352E-04  2.49484925E-03
  4.65418585E-03 -8.74431870E-03 -5.52645285E-04  7.93011383E-03 -2.47246021E-04
  1.51839546E-02 -3.59231196E-02 -9.31017767E-03  8.00477603E-03  1.35282541E-02
 -1.60850008E-02  3.54775878E-02 -2.67203323E-02 -4.19850037E-02 -2.67107716E-02
  5.12617979E-02 -3.07241286E-02 -4.08630803E-02 -2.60184505E-02  5.35877802E-02
 -3.96706800E-02  1.92311432E-01 -3.25663559E-02 -4.89479686E-02  1.58633565E-02
 -3.59719499E-03  8.67613886E-04  1.17964402E-03 -7.36579976E-04  1.48110400E-03
 -6.44226861E-03  1.44401925E-03 -4.25076300E-03 -3.60207379E-03  8.06297718E-03
  6.49160191E-05  1.95502960E-04 -5.85816211E-04 -9.74839119E-04  3.13740199E-03
  2.70857598E-03 -3.21532697E-02  1.63773307E-02 -3.95143845E-03  3.41175983E-03
  3.78468029E-03 -9.30203386E-03 -1.08170549E-03 -1.42057213E-03  3.43086807E-03
  4.34490196E-04 -4.18478802E-03  1.18770903E-02  2.58812803E-04 -1.01016376E-02
  2.10177699E-02  6.30782891E-03 -6.60400585E-03  1.66619938E-02 -5.64606659E-04
 -5.46931876E-04  1.65959165E-03  1.85693040E-04 -1.70740069E-03 -4.59075294E-04
 -3.65147738E-03  5.82222931E-03  2.85477453E-03 -4.22328572E-03 -1.46317917E-03
 -2.50818998E-03 -7.31779901E-03  1.58530534E-02  2.76833767E-02 -4.54090644E-02
 -7.51894475E-02  1.08340106E-02 -2.30148604E-02  3.03384237E-03  4.05172824E-03
 -2.31942256E-01  4.20481293E-02  2.05593457E-02  8.71420164E-02 -1.61891951E-02
 -7.82908739E-03  2.66100009E-01 -5.04403407E-02 -2.51794097E-02  5.67563950E-01
 -2.49266151E-02 -3.98267312E-02 -6.25839341E-02 -7.51774914E-02 -3.08665992E-02
  1.11483386E-01 -1.01698757E-01 -1.17856444E-01 -5.03961441E-02  1.11281322E-01
 -2.22340929E-02 -4.72961706E-02 -2.98721161E-02 -1.82759344E-01 -1.20933559E-02
 -1.91241971E-02  8.56573244E-02 -1.81815263E-03  5.88612390E-03  5.71078472E-03
  3.75798409E-03  3.97873919E-03 -4.79504909E-03  1.62050459E-02  1.12353604E-02
  2.19341562E-02  1.62464923E-02  8.69833300E-03  1.47100208E-02  4.05756721E-02
 -1.01873918E-02 -1.11534612E-02 -4.75425913E-02  5.58153375E-02 -1.71426524E-02
 -1.08181877E-02 -4.96978672E-02  6.13863210E-02 -1.63832774E-02 -1.57732138E-02
  2.12854655E-01 -4.16023886E-02 -2.89920182E-02  1.85026380E-02 -3.03289741E-03
  2.69059480E-03  3.17755342E-04 -7.10443045E-04  2.00913138E-03 -1.79768562E-02
  2.25546777E-03 -3.83100575E-04 -1.30688317E-04  1.27053628E-02 -5.59722598E-04
 -1.59373037E-03  3.23074305E-03  6.37314536E-03 -1.19171255E-02 -2.92115234E-03
 -4.58067214E-02 -9.14503685E-03  1.03233470E-02  1.14344352E-03 -1.20487900E-02
 -8.77342857E-03 -1.56953966E-02  4.47775256E-03  3.27975577E-03  5.83646121E-03
  1.56680281E-02  1.14413592E-02  1.89548734E-02  2.83511029E-02  2.14063877E-02
  3.71008609E-02  2.77216931E-02  2.07031517E-02  2.34771501E-02 -1.94376782E-03
  2.49734136E-03  2.92827308E-03  2.68434913E-04  3.94941421E-04 -2.79502480E-03
  7.93727386E-03  8.83545914E-03 -3.53143713E-04  4.31895986E-04 -3.54168558E-03
 -1.03304613E-02  2.23576231E-02  3.92174790E-02 -6.39370046E-02 -1.10249687E-01
  8.02577884E-03  5.17824688E-03 -1.92379657E-02 -2.90358956E-03  4.15726838E-02
 -2.01244798E-01  2.83811829E-02 -1.60134797E-02  7.53475566E-02 -1.09096802E-02
 -4.97725499E-02  2.29292005E-01 -3.38806271E-02 -1.14137835E-01  4.83273947E-01
 -1.53126252E-02 -2.42502429E-02 -2.38353340E-02 -3.28990639E-02 -2.11497483E-03
  7.14846942E-02 -3.48456461E-02 -5.11982773E-02 -5.44501206E-03  5.30474169E-02
 -1.84521666E-02 -1.81157140E-02  3.73812032E-04  9.92886995E-02 -1.87219485E-03
  5.36631034E-03 -1.55448032E-02 -5.81842164E-03 -1.96549870E-03 -3.92810593E-03
 -2.08842839E-03  4.43094500E-03 -5.34746694E-02 -9.99153009E-03 -3.08077773E-02
 -9.37379218E-03  3.37870084E-02 -2.18169451E-03 -3.66099710E-03 -1.28391184E-02
  5.31932342E-03  1.74644746E-03  6.21309864E-03 -1.83261950E-02  3.89185784E-03
 -9.56306541E-03 -3.23189708E-03 -1.84361698E-02  9.42349758E-03  1.82488794E-03
 -4.25088600E-02  3.59314905E-02  4.22787654E-02  1.25906600E-02  8.13433120E-04
 -8.36415410E-05  7.13636540E-04 -5.57578873E-06 -8.89398370E-04 -2.16619024E-02
  1.05547232E-02  3.78057948E-04 -4.22130474E-03  9.65628235E-03 -1.73460092E-03
 -4.97351217E-03  1.06946802E-02  2.05125029E-02 -4.26056609E-02 -1.67150438E-02
 -2.07899426E-02 -1.07615289E-02 -1.56781992E-02  1.28427321E-02 -8.56201192E-03
 -2.45725146E-02 -2.79646897E-02  3.28552870E-03  9.21990320E-03  1.03150683E-02
  1.05829731E-02  3.12069602E-02  3.66792171E-02  2.62800842E-02  6.08042851E-02
  5.47984027E-02  2.95632550E-02  5.92338391E-02  4.49511417E-02 -1.76181872E-03
  3.30484348E-03  3.28256440E-03 -1.95188711E-03  2.18137476E-03  5.90787958E-03
  3.28477950E-03  9.28149646E-03 -3.85484714E-03  4.06306803E-03 -1.53772219E-03
 -4.47927054E-03  9.64422708E-03  1.73182615E-02 -2.73395814E-02 -5.72242302E-02
 -1.29996456E-02  9.90180604E-03  4.05147317E-03 -4.52953591E-02  1.92639334E-02
  2.68434263E-02 -2.50172897E-01 -7.35037628E-03 -1.03414298E-02  9.39557092E-02
 -2.33596951E-02 -3.17203988E-02  2.89928893E-01 -5.33362284E-02 -7.75745639E-02
  6.08369526E-01 -3.28391519E-03 -5.99828191E-03 -2.67051894E-02 -1.93845091E-02
 -1.16099683E-02  1.79430201E-02 -4.01738582E-02 -3.24722551E-02 -1.80444849E-02
  2.62688066E-02 -2.35307561E-02  2.72110058E-03 -1.56037290E-02 -8.73951723E-02
 -2.56477611E-02  1.13690807E-02  2.82430146E-02  1.77174863E-04  1.53674758E-03
  2.24772747E-03 -5.77999583E-03 -9.25540798E-04  5.78461652E-03 -2.76578260E-04
  8.83529816E-03 -2.24012009E-02 -7.22566243E-03  6.30342444E-03  9.98368795E-03
 -1.76929364E-02  3.15490470E-02 -1.64652450E-02 -2.84926188E-02 -2.83306266E-02
  4.65657100E-02 -1.94057752E-02 -2.04088231E-02 -2.80273767E-02  4.13195065E-02
 -2.65202647E-02  8.58566852E-02 -1.62403120E-02 -2.74484573E-02  5.61517165E-03
 -2.50276497E-03  3.05152990E-04  1.43339342E-03  3.02492775E-04  5.84676838E-04
 -3.36855538E-03 -7.82921946E-05 -3.38704708E-04 -3.70064069E-04  3.87211315E-03
 -3.22319507E-05 -8.76305416E-05 -8.21938742E-06 -1.89132573E-04  2.44511467E-03
  9.20935147E-04 -1.23930732E-02  1.11591253E-02 -3.66226284E-03  1.31330968E-03
  3.28419440E-03 -5.84477388E-03  1.76980083E-03 -1.23177332E-03  2.15871470E-03
 -6.39593927E-04 -3.58547249E-03  7.06480333E-03 -2.74781179E-03 -8.38294820E-03
  1.29664102E-02 -1.84333531E-03 -4.16761021E-03  6.54301092E-03 -3.78435117E-03
  1.92069504E-04  1.50633654E-03 -1.06601610E-03 -8.75399863E-04 -6.79337094E-05
 -1.18180310E-03  4.76460148E-03 -1.21926874E-03 -2.23733858E-03 -2.84758820E-04
  4.25050680E-04  1.22830724E-03 -1.51334430E-03 -1.31475537E-03 -5.98292743E-03
 -1.71046204E-02  5.23877768E-03 -1.33925878E-02  1.92602156E-03  4.78656554E-03
 -1.33431264E-01  3.97777271E-02  1.99186973E-02  5.01967770E-02 -1.51172367E-02
 -7.51632088E-03  1.54191583E-01 -4.65578120E-02 -2.33893305E-02  3.29537781E-01
 -1.01887421E-01 -4.92311559E-02  1.98542971E-01 -5.47327398E-03 -9.84419680E-03
 -1.88453925E-02 -4.06284194E-02 -1.17020106E-02  3.04356275E-02 -3.11572468E-02
 -6.26427805E-02 -1.97887087E-02  3.56402878E-02  4.21211900E-03 -2.86044953E-02
 -8.03492663E-03 -6.79584428E-02  3.05803662E-03 -9.99828665E-03  3.50157907E-02
 -1.06581513E-03  3.15012513E-03  3.26096734E-03  3.06600502E-03  1.76499651E-03
 -2.78383037E-03  1.03346670E-02  7.11498489E-03  1.42538186E-02  8.32228260E-03
  6.21023643E-03  9.83075777E-03  3.25024291E-02 -1.08621357E-02 -1.78655752E-04
 -2.89005398E-02  4.62985723E-02 -1.76370446E-02  2.68631708E-03 -2.13014570E-02
  4.43102296E-02 -2.01357423E-02 -4.56786271E-03  7.67141625E-02 -1.85442689E-02
 -1.17407733E-02  4.47410429E-03 -1.58016659E-03  2.15401159E-03 -2.19552238E-04
 -1.06028160E-03  9.64515003E-04 -8.93421324E-03  2.77640155E-03 -3.91514501E-04
 -1.73544987E-03  6.91736321E-03 -3.23666046E-04 -9.24714968E-04  1.75666701E-03
  3.20776556E-03 -4.57623259E-03  6.31545509E-04 -1.64003934E-02 -7.10347106E-03
  5.61108793E-03 -1.65278850E-03 -1.02812801E-02 -7.14900654E-03 -1.00888136E-02
  3.83261589E-03  2.67554687E-03  3.74707893E-03  1.25931285E-02  8.85954126E-03
  1.17188259E-02  2.41171031E-02  1.73036520E-02  2.33189805E-02  1.77156688E-02
  1.44362844E-02  1.16095756E-02 -1.98413026E-03  2.56898269E-04  1.45080617E-03
  4.23491491E-04 -7.87462438E-05 -3.55051976E-03  1.79286419E-03  4.72358717E-03
  4.12775624E-04 -3.65650116E-04  6.31778522E-04  1.82876311E-03 -2.35804051E-03
 -2.16027614E-03 -7.56411594E-03 -2.62732383E-02  3.60657225E-03  2.79497609E-03
 -1.00187536E-02  5.41134601E-04  3.94096815E-02 -1.04369613E-01  2.62463935E-02
 -1.49820647E-02  3.91640535E-02 -9.97224578E-03 -4.60551113E-02  1.20338170E-01
 -3.04480382E-02 -1.01867591E-01  2.54398899E-01 -6.76584366E-02 -7.68925860E-02
  1.42592169E-01 -4.29187018E-03 -7.42270646E-03 -1.01390930E-02 -9.95624004E-03
 -8.30488219E-03  2.48971269E-02 -1.44593294E-02 -1.55339037E-02 -1.39629934E-02
  1.21538933E-02 -1.15535423E-02 -3.22651863E-03 -2.09345106E-03  9.76346517E-02
  5.72612573E-03  8.26632492E-03 -2.24719700E-02 -3.83796545E-03 -1.41851564E-03
 -3.05837646E-03 -1.32098399E-03  2.70555900E-03 -3.48326707E-02 -4.35584828E-03
 -1.82275923E-02 -6.38026561E-03  2.07614815E-02 -3.45820223E-03 -5.49181501E-03
 -1.38681016E-02  2.90151859E-03  3.36126739E-03  1.33725840E-02 -2.01314282E-02
  1.82120014E-03 -3.53246346E-03  7.95840259E-03 -1.83727084E-02  5.09836857E-03
  2.23258978E-03 -6.89756852E-02  2.99027386E-02  3.32718335E-02  2.58815595E-03
  4.55163581E-04 -3.95484035E-04  4.16564695E-04  2.91360506E-04 -4.99323097E-04
 -1.41082187E-02  6.81453466E-03  1.24595546E-03 -2.27147525E-03  6.14488766E-03
 -7.77246748E-04 -2.23499615E-03  4.81050690E-03  9.34745797E-03 -2.03682263E-02
 -1.25698662E-03 -4.57889614E-03 -8.07635142E-03 -1.27973791E-02  5.89926343E-03
 -1.03133660E-02 -2.44300605E-02 -2.44449294E-02  3.91942332E-03  9.15809470E-03
  9.02541541E-03  1.23091747E-02  2.95894266E-02  3.04148512E-02  2.85271144E-02
  5.93662997E-02  4.95970014E-02  2.66494434E-02  4.77308358E-02  3.30038851E-02
 -2.09197032E-03  2.05588399E-03  7.20868720E-04 -9.64125134E-04  1.45767668E-03
  2.13038406E-03  2.06972929E-03  3.20980223E-03 -1.94438509E-03  2.82642262E-03
  3.46502029E-04  1.00962799E-03 -1.52919647E-03 -1.63256010E-03 -1.25998108E-03
 -1.62756436E-02 -7.00741473E-03  7.15931684E-03  3.36516902E-03 -2.75151440E-02
  1.89170637E-02  2.50573661E-02 -1.53689268E-01 -7.14851403E-03 -9.53564082E-03
  5.77457115E-02 -2.20207803E-02 -2.88233911E-02  1.78863994E-01 -4.91806544E-02
 -6.75985388E-02  3.75025269E-01 -3.66106866E-02 -4.94150150E-02  2.35765432E-01
  1.14540065E-03  1.81395929E-03  1.28501502E-03  1.18336590E-03  2.93509821E-03
 -4.99805091E-03  2.33221295E-03  2.17255959E-03  4.40679152E-03 -3.13940103E-03
  9.58763316E-04  1.91213988E-04  1.84926077E-03  2.76416558E-03  5.65226536E-04
 -9.81496130E-05 -1.54264169E-03  1.01618374E-04 -8.63867326E-05 -7.50901312E-05
  7.22640116E-05 -1.69155492E-04  2.11266446E-04 -5.72859197E-04 -6.58647173E-04
  2.02704124E-04 -2.28862010E-04  1.28463584E-04  2.19073624E-04  1.15329236E-03
  5.34568710E-04 -3.92717317E-05 -6.85147033E-04  1.84855604E-03  8.64712190E-04
 -1.25815915E-04  2.03541824E-04  5.96086926E-04  4.16149034E-05  8.53057697E-04
 -3.24170160E-03  5.10810913E-04  6.00770126E-04 -8.49993642E-05  1.34885618E-04
  9.93280494E-05  9.14295280E-05 -5.84258926E-05 -1.12157140E-04  5.97175421E-04
  1.05779766E-04  1.61348499E-04 -1.09997552E-04 -3.91296269E-04  1.31549547E-05
  3.39656101E-05 -6.78235216E-05 -2.01300773E-04  4.74550341E-04 -1.14018334E-04
  5.74814203E-04  6.06146873E-05  2.75531193E-04  2.30273977E-04  6.17523537E-04
  1.63120214E-03  1.33474131E-03 -2.30411372E-04 -6.09757062E-04 -4.97164235E-04
 -7.64917027E-04 -1.90676322E-03 -1.51405765E-03 -1.45327327E-03 -3.87901189E-03
 -3.18987140E-03 -1.27652528E-03 -2.36575332E-03 -1.50838806E-03  1.46654151E-04
 -1.01828718E-04  1.01111838E-04 -7.62907187E-06 -2.02798887E-05  2.58644863E-04
 -3.37718635E-04  7.49641402E-05  3.06336248E-05 -3.72524260E-05 -1.05404568E-06
 -7.52098245E-06  7.77881465E-05  4.16968744E-04 -1.22961943E-03  3.81776646E-04
  2.60023343E-04  2.43958063E-04  4.98699154E-04  1.66424693E-04  1.91359447E-03
  2.66141940E-03 -1.05864962E-05 -7.22876580E-04 -1.00598016E-03  2.58362475E-05
 -2.58491130E-03 -3.57162670E-03  5.81760978E-04 -5.23032006E-03 -7.27776854E-03
  1.28406521E-03 -2.44987903E-03 -3.18451388E-03  9.73837642E-04  3.02119226E-04
 -1.07801055E-03 -1.74709403E-03 -1.57382171E-04 -4.02156869E-03  8.83454613E-04
  4.98391380E-03 -2.84709526E-04 -6.32565285E-03  1.31914194E-03  4.53768354E-03
  1.47536698E-03 -2.87469717E-03  5.65168487E-04 -4.58930468E-03 -1.32386523E-03
 -1.50741978E-03  1.85093018E-03 -8.32520647E-05  7.61828345E-05  1.88686228E-04
 -9.44757796E-06  1.10097999E-04 -4.90358215E-04 -3.93102191E-05 -8.91870729E-05
 -1.72983093E-04  5.50222119E-04  3.80775302E-04  6.02184652E-04  1.88318448E-03
 -5.26576227E-04 -2.39044095E-04 -1.85258851E-03  2.76451704E-03 -9.61675646E-04
 -2.12147996E-04 -2.09889366E-03  2.20611439E-03 -7.48820738E-04 -4.41903979E-04
  7.32501893E-03 -7.64485469E-04 -4.99601703E-04  1.07492675E-03  8.32392837E-06
  1.07324105E-04 -7.09545571E-05 -1.43320747E-04  2.07514090E-05 -3.18771452E-04
  2.20078174E-04 -4.46117944E-04 -3.71477681E-04  3.13827834E-04 -8.65008086E-05
 -2.51040457E-04  5.19187305E-04  9.09740685E-04 -1.46082383E-03 -1.52987603E-03
 -1.25347846E-03 -7.93118704E-05  2.86851991E-04  2.71719113E-04 -3.03877274E-04
  3.94951134E-04  4.67391716E-04  1.13430488E-04 -1.48851230E-04 -1.73573010E-04
  3.46150531E-04 -3.47965472E-04 -4.59069237E-04  7.18458681E-04 -9.24031231E-04
 -1.14305537E-03  2.61232230E-04  3.46895378E-04 -1.05216590E-04  3.36063792E-05
 -6.71036561E-05  3.04442107E-04 -6.22403087E-05 -2.95941732E-05  8.13104397E-05
 -1.53564801E-04  7.48437681E-04 -1.34691108E-04 -9.50452034E-05 -1.25318936E-05
 -3.20929282E-05  7.02178792E-06 -2.59726560E-04  9.32583307E-04 -6.36776733E-04
 -1.55689492E-03 -4.89513013E-04 -4.15174044E-04 -7.64228620E-04 -1.79780883E-03
 -1.83875875E-03 -1.93334086E-03  6.81448854E-04  6.78294594E-04  7.44895808E-04
  2.40132593E-03  2.02219725E-03  2.93184938E-03  5.00113076E-03  4.07859749E-03
  6.06903192E-03  1.77309126E-03  1.57187635E-03  2.89998742E-03 -1.03189534E-04
  3.13144208E-04 -1.52288688E-03 -2.47615226E-03 -3.29590307E-03 -3.42174958E-03
  9.56523920E-04  7.10238594E-03 -5.12532015E-03 -5.34628832E-03  1.37285065E-03
  6.73377102E-03 -1.22050049E-03 -1.35044279E-03  5.94203890E-05 -8.43207343E-03
 -2.66918928E-03 -2.06274947E-03  3.02817335E-03 -6.49807709E-05  1.36897464E-04
  2.09918650E-04 -7.57555362E-05  1.46605276E-04 -6.76946466E-04 -2.50488861E-04
 -2.87779880E-04 -4.82901028E-06  8.25353997E-04  5.57277356E-04  9.13368314E-04
  1.22469868E-03  8.52904243E-04 -9.75739389E-04 -2.93444686E-03  1.66685017E-03
  1.15418361E-03 -1.27559760E-03 -3.23531653E-03  1.32185725E-03  7.82588814E-04
 -1.31600931E-03  1.25718162E-02 -1.52183914E-03 -1.17948641E-03  1.91559033E-03
 -5.84817938E-05  8.42673401E-05  8.16953928E-05 -2.78044817E-05  6.34132600E-06
 -6.46366591E-04  6.68107287E-05 -1.65604202E-04 -9.67645038E-06  3.81709303E-04
 -1.14712662E-04 -3.34195902E-04  6.96816508E-04  1.20428050E-03 -1.94900339E-03
 -2.21691328E-03 -2.15691527E-03  2.40579930E-04  4.14764668E-04  6.01907375E-04
  8.30572581E-04  6.79786935E-04  1.25480668E-03 -3.13771535E-04 -2.54824078E-04
 -4.66928892E-04 -9.11590089E-04 -6.69075598E-04 -1.28236748E-03 -2.02288317E-03
 -1.59706229E-03 -2.99814625E-03 -9.22021680E-04 -1.55918340E-04 -5.79573965E-04
  2.28762342E-04  1.41200170E-04  3.11867067E-04 -8.14524502E-05  3.58795682E-05
  5.29884038E-04  3.35606648E-04  7.21803836E-04 -1.86281726E-04  4.88360733E-05
 -2.95697496E-05 -8.04512109E-05  8.10133095E-05 -2.43639345E-04  1.12764094E-03
 -9.96203935E-04 -2.19891943E-03 -3.79822253E-04 -8.26872398E-04 -1.02555476E-03
 -1.61010276E-03 -3.11235726E-03 -2.68266844E-03  5.93613547E-04  1.16772378E-03
  1.03377033E-03  1.73180524E-03  3.86374523E-03  4.09647568E-03  3.56142408E-03
  7.99434900E-03  8.45660488E-03  9.94649556E-04  3.05340274E-03  4.08684463E-03
 -1.51242876E-04  3.30685212E-04  5.11330133E-04  8.76374801E-04  1.41281620E-03
  6.33544759E-03 -2.38948857E-03  1.83383716E-03 -4.00215855E-03  9.90919013E-03
 -3.60690501E-03  2.84767788E-03 -3.39417897E-03  6.36579742E-03 -4.20814530E-03
  2.19708878E-03  4.30752703E-03  1.96080054E-03  1.45041505E-04 -1.43516787E-03
 -4.15748408E-05 -2.01282485E-04  6.49136586E-05  2.17896761E-04 -1.20243952E-04
  1.35683429E-04 -3.20438681E-04  1.84212049E-04 -2.32493911E-05 -4.71188785E-04
 -1.64857106E-04 -2.75731557E-04  3.44824724E-03 -3.23160676E-03  1.48101517E-03
  9.21444523E-04  5.43257228E-03 -4.93556796E-03  2.18432565E-03  1.27761766E-03
  3.99579535E-03 -3.96465523E-03  2.07966669E-03 -5.98600531E-03  9.31407519E-04
  6.10575095E-04 -7.67825951E-04  1.72103156E-04  1.39884103E-04 -2.37558400E-04
 -3.30948660E-04 -2.23405120E-05  7.28942440E-04  4.58761038E-04 -5.31576157E-04
 -7.94937881E-04 -1.82825192E-04  4.25644461E-05  1.23077655E-04 -2.57305304E-04
 -4.64829167E-04  8.00238572E-04  7.66640714E-04  1.03300623E-03 -2.78895467E-04
  3.23933607E-05 -2.39214255E-04  3.62454611E-04 -4.69824177E-04  4.13528320E-05
 -1.36334623E-04  1.78091194E-04 -1.67351249E-05 -5.47568467E-04  5.74035263E-04
 -1.38116969E-04 -1.01044079E-03  1.26320639E-03 -1.61880086E-04 -1.89018238E-03
  1.36284851E-03 -7.99433724E-04 -2.40027728E-04 -4.18992685E-04  1.74396098E-04
  9.88668883E-06 -1.32224444E-04 -6.04946750E-04 -1.04881630E-03  4.16001770E-04
  5.98607662E-05 -3.04007263E-04  1.32566257E-05  3.54360525E-05 -2.43446650E-05
  1.76811607E-04 -7.11607184E-04  4.90395369E-04  8.55855411E-04 -3.31252080E-04
  8.86788265E-04  2.57019867E-04  2.60457836E-04  2.55032692E-03  7.39837928E-04
 -6.70793610E-05 -9.82764162E-04 -2.73584054E-04  4.46765103E-04 -3.85039244E-03
 -8.39493840E-04  1.07254331E-03 -8.04667498E-03 -1.67319823E-03  2.71065360E-04
 -3.03548619E-03 -8.65403366E-04  1.98117869E-04  4.40755796E-05 -2.38423756E-04
  6.47801226E-04 -2.49703146E-03 -3.99475405E-03 -1.54813519E-03 -5.47910757E-03
 -2.69125372E-03  1.11913189E-02 -2.82724875E-03 -8.95729112E-03 -4.02827435E-03
  8.44767999E-03  5.12345198E-04 -3.14298286E-03 -1.72755083E-03 -1.19029917E-02
 -2.41708445E-03 -1.44564424E-03  4.97440808E-03 -1.72166345E-04  1.33420470E-04
  2.48891613E-04 -7.88781485E-05  3.05174433E-04 -5.43739261E-04  4.34642557E-04
  5.46446777E-04 -3.38322067E-04  7.14464881E-04  2.05945932E-05  8.55945739E-05
  3.95303845E-04 -1.40251544E-03 -9.99214362E-05 -5.55883775E-04  4.62233855E-04
 -2.26869320E-03  8.82666094E-05 -2.07717221E-03  1.58996745E-03 -8.88715227E-04
 -1.55621467E-03  1.47833812E-02 -2.48083744E-03 -2.36241747E-03  1.64280731E-03
 -1.81799488E-04  2.06719401E-05 -1.61377613E-04 -9.22328014E-05  1.77433234E-04
 -1.03926545E-03  1.96272048E-04 -5.51146879E-04 -2.85486264E-04  7.69976527E-04
 -4.71941199E-05 -1.32978495E-04  2.85037221E-04  5.98379749E-04 -1.25730999E-03
 -7.13688167E-04 -2.57892526E-03  7.05389915E-05  2.61376448E-04  8.27873039E-05
 -1.38533414E-04 -5.23357768E-04 -1.19988627E-03  4.90838328E-05  1.92660517E-04
  4.49151698E-04  2.12889676E-04  7.48362582E-04  1.45931275E-03  2.32063028E-04
  1.21737132E-03  2.95155045E-03  3.20482620E-04  1.54868791E-03  1.82698192E-03
 -1.46642541E-04  6.94372211E-05  2.12225027E-04 -6.05508361E-05 -1.08934433E-05
 -2.57330027E-04  2.78956649E-04  7.08751648E-04 -1.84151547E-04 -6.33525276E-05
 -3.41804173E-05 -9.11258124E-05  4.85682919E-05 -5.34038167E-04  2.09312819E-03
 -1.21320681E-03 -1.22570178E-03 -7.67316684E-04 -9.16132583E-04 -8.06860769E-04
 -4.09835353E-03 -4.85605877E-03 -1.53009645E-03  1.55525890E-03  1.82222929E-03
  5.63230667E-04  5.60866848E-03  6.14130901E-03  1.65009566E-03  1.15777133E-02
  1.25590543E-02  3.32162192E-03  4.91203953E-03  5.26189235E-03  8.90391849E-04
 -4.48680659E-04  4.27204644E-04  5.03887649E-04 -1.79199140E-04  9.62133270E-04
  1.52794934E-03  2.59977787E-03  2.78760238E-03  2.21156674E-03  6.02196403E-03
 -7.69363051E-03  4.88903684E-03  4.00562590E-03  9.15248948E-03 -4.48475351E-03
  2.16150422E-03 -1.40168524E-04  2.97821159E-03  4.39396014E-03  8.76154871E-04
 -4.09357509E-04 -2.59411617E-03  2.56225854E-04 -1.53785617E-04 -7.36966794E-05
  1.35046301E-04 -3.27279484E-04  6.01156116E-04 -8.81917569E-04 -8.73960809E-04
  2.89552975E-04 -5.01521444E-04  9.20005591E-04  1.03686877E-03  2.04735777E-03
  3.45481449E-04 -2.74147118E-04 -1.60523923E-03  3.19635562E-03  5.16102249E-04
 -4.69601483E-04 -1.10264225E-03  1.59394118E-03  2.48455431E-04  2.01412683E-03
 -5.05364958E-03  1.09796019E-03  1.39778771E-03  7.10516010E-05  3.64240245E-04
  1.67790777E-04  1.66621030E-04 -1.17185881E-04 -2.37059087E-04  1.37759410E-03
  1.69201893E-04  2.49340847E-04 -1.96479367E-04 -8.96049898E-04  3.18885714E-04
  9.21546652E-04 -1.77436081E-03 -3.05118906E-03  3.75661357E-03  2.48619790E-03
  6.16037621E-04 -1.45347080E-04  3.72356886E-04  7.56281217E-04 -1.44277431E-04
  1.84850515E-03  3.18494089E-03  5.66006701E-05 -6.89001423E-04 -1.18750789E-03
  1.75815573E-05 -2.21684060E-03 -3.61289622E-03  3.86810674E-04 -4.36907732E-03
 -7.61341007E-03 -5.18309730E-04 -2.52346146E-03 -3.75166178E-03  3.89997360E-04
 -2.76143439E-04  2.15928398E-04 -5.41737886E-06 -5.59643480E-05  7.06689633E-04
 -8.18408994E-04  2.00460035E-04  7.71109722E-05 -1.00551786E-04 -3.51032640E-04
 -9.97117989E-04  1.90782573E-03  3.48505828E-03 -4.68422831E-03 -1.97972805E-03
  8.11389394E-04  6.11835025E-04  1.15773810E-03  2.37271129E-04  3.77842637E-03
  5.55601960E-03 -9.96406345E-04 -1.40795207E-03 -2.07152026E-03  3.78646317E-04
 -4.35839047E-03 -6.34927130E-03  9.66347014E-04 -8.97542372E-03 -1.31628464E-02
  2.34856051E-03 -4.31724331E-03 -5.81556275E-03  1.77339699E-03  5.39425698E-04
 -1.75478909E-04 -2.88968835E-04  3.97666977E-04 -8.07648510E-04  1.04000358E-03
 -2.66129523E-03 -4.12562032E-03  1.05409109E-03 -7.45740773E-03  2.98795625E-03
  1.11359388E-02  1.38069889E-03 -1.19312414E-02  4.59398730E-03  9.01628906E-03
  4.10163019E-03 -5.90913179E-03  1.71792305E-03 -4.87273305E-03 -3.29654509E-03
 -4.07481208E-03  3.54073808E-03 -6.06138819E-05  9.62072503E-05  4.02745817E-04
  2.25626604E-05  1.75224692E-04  1.06016646E-05 -3.08577046E-04 -1.83471203E-06
 -2.30736542E-04  4.73591983E-04  9.62930067E-04  1.51725608E-03  3.87005682E-03
 -1.96686870E-03 -2.87569492E-04 -4.43379822E-03  5.68866797E-03 -3.33636780E-03
 -1.01559711E-04 -5.00651710E-03  4.37623480E-03 -2.57475498E-03 -1.05504519E-04
  1.31037774E-02 -8.67647201E-04 -3.37732989E-04  1.83544134E-03  1.58561037E-04
  6.38499460E-05 -3.37775143E-04 -2.59314802E-04 -3.11360506E-05  4.75707445E-04
 -2.08598825E-04 -1.42692294E-03 -5.25985981E-04 -7.48085602E-05  1.36567802E-04
  3.99217758E-04 -6.98288471E-04 -1.03937401E-03  3.29777619E-04 -6.85408463E-04
 -3.51019012E-03 -6.89349540E-05  9.41272307E-04  9.58638894E-04 -4.89642168E-04
  1.58376607E-03  2.12582620E-03  1.82321786E-04 -5.92616385E-04 -7.85811281E-04
  5.12098557E-04 -1.59291819E-03 -2.21779879E-03  1.10044728E-03 -3.60530279E-03
 -4.68917369E-03 -6.09565761E-05 -4.09429399E-04 -1.41421949E-03  2.49776272E-04
 -2.71993399E-04  6.83755277E-04 -1.15067107E-04 -1.02856294E-04  3.81052934E-04
 -6.40476148E-04  1.54239652E-03 -2.21761142E-04 -2.67095205E-04  2.86022166E-04
  8.07796486E-04 -1.51678830E-03 -2.80258801E-03  3.63533154E-03  1.13837819E-03
 -5.31551763E-03 -1.28829663E-03 -1.10310376E-03 -1.61288113E-03 -4.04173371E-03
 -2.28260669E-03 -3.54904274E-03  1.50680348E-03  8.44228433E-04  1.32887674E-03
  4.52248923E-03  2.74033686E-03  3.83551351E-03  9.55628910E-03  5.52902766E-03
  8.40281314E-03  3.39656011E-03  1.98278894E-03  3.44131233E-03 -1.45721817E-04
  5.98623376E-04  5.78874757E-04  2.01262474E-04  7.50437328E-04 -2.21985807E-04
  1.34204187E-03 -3.92122014E-03 -6.03256666E-03 -5.59025963E-03 -5.21778123E-03
  3.34220527E-03  1.61843122E-02 -8.91963196E-03 -8.38530207E-03  5.08814769E-03
  1.38625343E-02 -1.71602744E-03 -1.89517021E-03  2.65573608E-04 -1.53326198E-02
 -6.97838381E-03 -5.85637511E-03  6.49759889E-03  6.99161061E-05  1.98731288E-04
  4.39115493E-04 -1.30429940E-04  2.27270112E-04  1.11412092E-04 -7.79458020E-04
 -2.95189307E-04  1.41039214E-04  7.80430931E-04  1.69889866E-03  2.51513299E-03
  1.59691405E-03  5.37495944E-04 -2.15187019E-03 -6.88288748E-03  1.98393001E-03
  5.17555785E-04 -2.75117374E-03 -8.46821374E-03  1.94344772E-03  9.58982398E-04
 -1.88679775E-03  2.67242017E-02 -3.11022157E-03 -2.41295510E-03  4.09139546E-03
  9.31142242E-05 -6.05385242E-05  2.19780503E-05  1.02725957E-05 -1.06209911E-04
  1.16804223E-04 -7.43651035E-04 -7.58407003E-04  3.11234991E-04 -2.86232304E-04
  2.80214282E-04  8.15847121E-04 -1.47149269E-03 -2.31574500E-03  1.50161153E-03
 -2.41543325E-04 -5.64314086E-03  7.22585160E-04  1.36430621E-03  1.81286890E-03
  1.80138356E-03  2.30759143E-03  4.27399505E-03 -6.81097149E-04 -8.62985945E-04
 -1.58649080E-03 -2.03630826E-03 -2.47453349E-03 -4.55585148E-03 -4.46716884E-03
 -5.39052270E-03 -9.74152472E-03 -2.45324288E-03 -1.91798367E-03 -3.06002229E-03
  7.71526793E-04  1.52430593E-04  6.74641388E-04 -1.46480748E-04  3.10388864E-05
  1.50327918E-03  3.80430784E-04  1.38899566E-03 -3.13243339E-04  4.23414430E-05
  4.43940499E-04  1.25796104E-03 -2.36480303E-03 -4.29206568E-03  5.34367405E-03
  2.02243298E-03 -7.18633046E-03 -1.06351522E-03 -2.05042555E-03 -2.08361905E-03
 -2.51474113E-03 -5.31755848E-03 -4.69737451E-03  9.31337325E-04  1.97968301E-03
  1.75707075E-03  2.92076646E-03  6.01536550E-03  5.07613349E-03  6.01875041E-03
  1.27079948E-02  1.10789495E-02  1.72084385E-03  4.60011968E-03  4.59749496E-03
 -2.33318378E-04  5.75740451E-04  8.97948857E-04 -4.08677308E-04  8.42846167E-04
 -4.16157071E-04  1.22405491E-03  1.87250767E-03  1.88085100E-03  2.95528134E-03
  1.42992898E-02 -7.02111643E-03  3.80156400E-03 -8.11489738E-03  2.23834476E-02
 -1.06575950E-02  5.87872400E-03 -6.52602225E-03  1.47551850E-02 -1.07873636E-02
  4.91911431E-03  8.92351380E-03  4.75389699E-03  7.85983336E-04 -3.01377817E-03
 -1.71708923E-04 -3.96968640E-04  1.91842039E-04  5.02871459E-04 -2.13471152E-04
 -1.98087708E-04 -4.45077056E-04  3.77844961E-04 -9.03106839E-05 -6.35519913E-04
 -4.19951718E-04 -6.83620674E-04  8.66228560E-03 -7.37234421E-03  3.49373680E-03
  2.12947177E-03  1.35717098E-02 -1.13028905E-02  5.15424483E-03  3.04232184E-03
  9.96200991E-03 -9.11344902E-03  4.52203138E-03 -1.30918617E-02  2.30626751E-03
  1.43978933E-03 -1.69798985E-03  3.01591861E-04  3.44870539E-04 -5.01660400E-04
 -8.39937055E-04 -2.36001629E-05  1.09034239E-03  1.20103916E-03 -1.15181123E-03
 -2.14659557E-03 -6.69377688E-05 -2.82716077E-05 -8.37513122E-05  1.26063584E-04
  1.44203986E-04  3.02636787E-04  6.27644787E-04  2.35709944E-03 -9.07608643E-04
 -4.99002588E-05 -6.61350195E-04 -1.89493044E-04 -1.25352568E-03 -5.56381596E-04
  7.06190689E-05  4.73806203E-04  2.03565086E-04 -8.58663354E-05  1.57378593E-03
  4.49173401E-04  1.56780883E-04  3.32193426E-03  1.06399742E-03 -2.71429212E-03
  3.69717521E-03 -9.94025056E-04 -6.51458233E-04 -9.62915380E-04  4.55892406E-04
  7.04360504E-06 -3.04881850E-04 -1.52084186E-03 -2.39641072E-03  1.14937965E-03
  8.60880297E-05 -7.15458185E-04 -2.70864488E-04 -7.69225678E-04  1.45650168E-03
  2.63186476E-03 -3.32453590E-03 -1.40627301E-03  2.70205488E-03 -6.36836380E-04
  2.03496677E-03  4.48939758E-04 -1.61477545E-03  6.40841913E-03  4.27725306E-04
  6.10610041E-04 -2.39383989E-03 -1.57400444E-04  1.45371317E-03 -6.97143063E-03
 -5.38577888E-04  3.52335155E-03 -1.49940512E-02 -1.06579635E-03  7.14254765E-04
 -5.31731524E-03 -4.84651328E-04  3.79790034E-04  2.05456222E-04 -4.30060108E-04
  1.45885206E-03 -2.27445762E-04  7.82828419E-04  5.90326765E-04 -8.21123302E-04
  3.38312700E-03 -4.35061626E-03 -7.02317520E-03 -2.26878558E-03 -1.07972766E-02
 -4.88816331E-03  1.98639460E-02 -4.19459785E-03 -1.74743034E-02 -7.33431574E-03
  1.49999886E-02  2.25496033E-03 -5.69277465E-03 -2.61234969E-03 -3.10957538E-02
 -6.01483169E-03 -4.08509726E-03  1.08652060E-02 -2.94114310E-04  1.66558997E-04
  4.16142456E-04 -9.86656419E-05  5.60318722E-04 -7.78806271E-04  3.35827095E-04
  5.71107710E-04 -4.52387656E-04  1.19904483E-03 -2.39240342E-04 -7.71789636E-05
  8.80092626E-04 -3.48757080E-03 -2.96933237E-04 -1.03828506E-03  1.19116086E-03
 -5.42118026E-03  8.25610831E-05 -4.12309142E-03  3.41047956E-03 -2.46669373E-03
 -3.34168449E-03  3.57725747E-02 -7.33370790E-03 -7.14239101E-03  4.45762712E-03
 -3.28286131E-04  1.35423696E-04 -2.30110304E-04 -2.47547033E-04  3.33630993E-04
 -1.96912400E-03  6.75872862E-04 -8.72112183E-04 -7.15858302E-04  1.34878654E-03
 -2.57172363E-04 -7.41847943E-04  1.46360155E-03  2.56443897E-03 -3.65402322E-03
 -2.76903934E-03 -4.53165265E-03  7.42547621E-04  1.20800248E-03 -1.31515378E-04
  1.80251282E-03  1.55700505E-03 -2.55881280E-03 -6.83932396E-04 -5.94362757E-04
  9.56010320E-04 -1.97805061E-03 -1.54129306E-03  2.94453627E-03 -4.63626731E-03
 -3.98522420E-03  6.09510070E-03 -2.87305919E-03 -1.10464771E-03  3.71337690E-03
 -3.46301662E-04  1.40524717E-04  4.76329759E-04 -1.32544705E-04 -3.66001037E-05
 -6.90939912E-04  5.52107265E-04  1.49876168E-03 -3.84014674E-04 -1.62002021E-04
  8.42924991E-04  2.40081364E-03 -4.57555211E-03 -8.19209656E-03  1.03455321E-02
  4.98987068E-03 -3.25039402E-03 -1.84635503E-03 -2.03766963E-03 -1.36188448E-03
 -8.79224270E-03 -8.87087406E-03 -1.86226551E-03  3.28172269E-03  3.30373208E-03
  6.85537473E-04  9.86567808E-03  1.01405019E-02  2.15528091E-03  2.08596716E-02
  2.11108574E-02  4.25567751E-03  8.99529160E-03  9.00614685E-03  4.00330858E-04
 -7.57669966E-04  7.86079788E-04  9.16341431E-04 -2.49575715E-04  1.74592726E-03
 -1.43908349E-03  1.38341087E-03  1.55287559E-03 -2.72611336E-04  3.40531575E-03
 -7.80861461E-04 -1.19512215E-03  1.01429845E-03  3.09852406E-04 -2.43431509E-03
  3.18907417E-03  3.31600930E-04 -5.64275706E-04 -2.60873588E-03 -8.24674382E-03
  1.57542282E-03  5.37095359E-03  9.53631236E-03  5.30005461E-02  5.40170292E-03
  1.52237795E-03 -1.33131537E-02 -2.53004354E-05 -6.99340630E-05 -6.58202554E-05
  7.33014550E-06  9.03878481E-05 -1.31579843E-03  5.36530851E-04 -2.72438823E-04
 -2.20744685E-05 -6.27626655E-05  1.16398656E-03  1.25601908E-03 -6.24019376E-04
  1.76026328E-03  6.81164028E-03 -1.58296907E-03 -1.76249822E-04  1.71127165E-03
  5.23055774E-03  4.05658902E-02 -1.07062014E-03 -8.68374868E-03 -2.01914533E-02
 -4.94060775E-02  1.23424973E-02  1.47688633E-02  3.31946644E-04 -2.43441868E-03
  3.05443504E-04 -1.26726805E-03  1.75661294E-04  5.64895925E-05 -4.38400866E-04
 -4.91248579E-04  6.39820435E-04 -7.02354549E-04  3.84030463E-03  1.35812065E-05
  3.19131273E-05 -2.81801574E-05 -2.97826334E-04  8.11901438E-04 -2.49745778E-03
  1.05228287E-03 -7.61777128E-04 -8.86632231E-04  4.69260281E-05  4.40767606E-04
  1.79733266E-04 -9.35183991E-04 -1.83728769E-04 -7.41933111E-05  3.91785361E-04
 -4.29064988E-04 -1.81282716E-04  8.93172109E-04 -1.44655487E-03 -6.82575695E-04
  2.81639121E-03 -3.41704698E-04  2.65017033E-04  1.82703349E-03 -1.27933878E-04
  5.37836814E-05 -4.51039029E-05  9.88921439E-06 -5.77180400E-05 -1.71073609E-04
  5.84090648E-05 -9.09266148E-06 -2.31588078E-05  9.19369602E-05  2.96663127E-05
  8.26588379E-05 -1.51982589E-04 -3.42052549E-04  3.11532097E-04  4.41483428E-03
 -3.44384173E-03 -4.81967081E-04 -1.05787285E-03 -1.32232018E-03 -7.37555634E-04
 -4.56836935E-04  1.13995339E-03  2.95377538E-04  2.02198768E-04 -4.04117137E-04
  7.28581280E-04  3.43477101E-04 -1.41972042E-03  2.62156122E-03  2.15919755E-03
 -2.59343838E-03  1.90640150E-03  2.00425054E-03 -7.04706954E-04 -7.38071147E-05
 -6.72798565E-05 -5.77402808E-05 -1.09135400E-05  1.85518375E-04 -6.92111371E-04
  3.98482719E-04  1.35428154E-04 -1.40223970E-04  3.11809683E-04  6.33134770E-01
 -1.29814567E-03 -1.97930876E-03  1.65517286E-03  4.91993414E-04 -4.00959127E-03
  5.04292454E-03  6.93821232E-04 -8.18844632E-04 -4.47280659E-03 -1.06982519E-02
  2.12941390E-03  7.30461316E-03  1.30123919E-02  7.40594480E-02  6.78680277E-03
  3.75733790E-04 -2.09131408E-02 -5.63122330E-05 -1.20453136E-04 -1.30385101E-04
  1.93391587E-05  1.34860212E-04 -1.69798731E-03  8.17185309E-04 -1.54355281E-04
 -1.03790190E-04  3.41314919E-05  1.63667677E-03  1.83496422E-03 -9.71737361E-04
  2.83021988E-03  1.08498943E-02 -1.68841478E-03 -4.00130361E-04  2.96824081E-03
  9.37778982E-03  5.81136050E-02 -1.47875481E-03 -1.21618178E-02 -2.83455063E-02
 -6.75323906E-02  1.82229503E-02  2.22704325E-02  1.75669327E-03 -4.05274223E-03
  4.98792927E-04 -2.07088604E-03  2.65019920E-04  2.20671486E-04 -1.48449437E-03
 -6.55241081E-04  3.45120749E-04 -8.88836270E-04  5.38568564E-03  2.80523730E-05
  7.59701891E-05 -1.19782800E-04 -4.85429011E-04  1.24535852E-03 -3.43534155E-03
  3.81985996E-03 -9.41113508E-04 -1.28219182E-03 -4.51209111E-04  7.48487793E-04
  3.07717913E-04 -1.58123500E-03 -3.02764761E-04 -1.24311141E-04  6.40038686E-04
 -7.47997494E-04 -3.19734128E-04  1.54695086E-03 -2.37328664E-03 -1.10077505E-03
  4.67278002E-03 -6.22044376E-04  2.81585179E-04  2.77852184E-03 -2.21958708E-04
  8.85460402E-05 -7.72686172E-05  1.48050537E-05 -8.32230907E-05 -3.43082050E-04
  1.29401214E-04 -3.56644392E-05 -3.12518998E-05  1.03568006E-04  4.90036431E-05
  1.37716625E-04 -2.56702835E-04 -5.58781894E-04  6.13163759E-04  5.79776389E-03
 -6.86622944E-03 -8.96679377E-04 -1.77702096E-03 -1.93982962E-03 -1.26346158E-03
 -8.01721527E-04  1.90066419E-03  4.88625641E-04  3.27202664E-04 -6.88345781E-04
  1.31528336E-03  7.04175984E-04 -2.33391207E-03  4.03447275E-03  3.14622776E-03
 -4.47243653E-03  2.79697977E-03  2.77057675E-03 -1.49677273E-03 -1.44423535E-04
 -8.69907156E-05 -8.18785221E-05 -2.40710933E-05  3.05419827E-04 -9.85036636E-04
  5.44487714E-04  1.54703153E-04 -1.84502535E-04  4.17252824E-04  5.70669888E-01
  5.32460668E-01 -4.16855094E-03 -6.67751830E-03 -1.21389728E-02  1.80780994E-02
 -1.09291404E-02  1.72527516E-02 -2.24906524E-02  2.18366393E-02 -1.74182582E-02
 -6.26665076E-03 -2.95378936E-02  1.36957524E-02 -4.05335639E-03  2.27645589E-01
 -5.80373777E-03  2.89580380E-02 -2.90072125E-02 -1.30316843E-03  2.89749939E-04
 -3.46152535E-04 -6.27401470E-04  5.78470168E-04  6.02197071E-03 -8.31811587E-04
  2.58179248E-03  2.24471133E-03 -4.87689958E-03  7.79534498E-04  1.15693602E-03
  8.78806986E-03  9.78202722E-04  1.01385795E-02 -1.89795261E-03  1.31998377E-02
  1.82021670E-03  1.45192905E-02  1.40019838E-02 -2.20167994E-02 -5.70558684E-03
  1.55166531E-02 -1.75356279E-01  5.98313200E-02  2.29083914E-02 -3.33314615E-02
 -2.44448772E-03 -9.60531721E-03 -6.32742746E-04  1.92575449E-03 -2.15331187E-03
  5.62323424E-03 -2.73434771E-02 -3.98571739E-03  7.88527682E-03 -1.02859936E-02
 -1.81328985E-04 -5.15105058E-04  1.02116025E-03  2.16964567E-03 -3.41744173E-03
 -7.08081223E-03 -1.81944183E-02  2.66852657E-03 -5.57445262E-03  4.49596194E-03
 -3.07667321E-03  4.20824875E-03 -5.94143079E-03  1.17558831E-03 -1.57900720E-03
  2.25913815E-03  3.75156134E-03 -5.46894202E-03  6.78084097E-03  8.33858910E-03
 -1.01602934E-02  1.79696249E-02  9.41927413E-03 -8.95101191E-03  1.31608785E-02
  8.65595832E-04  1.22389617E-03 -1.53545887E-03  1.21703264E-04  4.49351518E-04
  1.10001869E-03  2.59511278E-03 -5.31450165E-03 -5.47482698E-05  1.01137180E-03
  2.70619180E-04  7.61718996E-04 -1.43731987E-03 -3.51797851E-03  7.48021562E-03
  2.46883436E-03 -3.72119473E-02  4.69134270E-05 -1.29348588E-02 -2.72022317E-03
 -5.91505918E-03  6.38459803E-04  3.45474837E-03  2.16830318E-03 -3.17062222E-04
 -1.23387940E-03  7.68007573E-03 -5.46113753E-04 -4.87608384E-03  1.45649691E-02
 -2.13197403E-03 -6.31230237E-03  1.10975858E-02 -9.26137509E-03 -4.33166305E-03
 -1.00693733E-03 -3.70757910E-04  4.21288246E-04 -2.02117276E-03  1.07920130E-04
 -2.37378586E-03  1.66030965E-03  3.64079897E-03 -4.25105848E-03 -1.62811630E-03
 -8.96013257E-04 -1.41895747E-03  2.01566904E-01 -2.82878498E-03 -4.58779436E-03
  1.69408356E-02 -1.02008991E-02  1.21720735E-03  1.14824541E-02  2.19822160E-02
 -2.02832478E-02 -2.51617072E-04 -1.02411568E-02  1.03814117E-02 -2.80670617E-02
  5.29147797E-03  2.24378379E-01  1.92531429E-02 -2.98721907E-02 -3.68502242E-02
 -7.57695272E-04  3.26429041E-04  5.15828705E-05  3.40629640E-04  3.48567875E-04
  1.00240926E-02 -1.84849370E-03  5.62835518E-04 -7.52317069E-05 -7.07736081E-03
 -6.35883918E-03 -1.01448495E-02  8.41337252E-04  5.10190351E-03 -1.90575440E-02
  3.11156696E-02  1.61151280E-03  8.09234567E-03 -2.71767068E-02  1.37869605E-02
 -9.56343469E-03 -1.61243127E-02  2.07922763E-02 -1.46384836E-01  3.78292811E-02
  6.51843710E-02 -2.70473863E-02  6.65211514E-03 -7.32456506E-04 -7.54591625E-03
  1.44825624E-03  5.21778230E-04  2.28357692E-02 -8.87190180E-03 -2.29315353E-02
  5.88696367E-03 -7.42043853E-03 -9.68806660E-05 -2.73324025E-04  5.27631025E-04
  1.24251477E-03 -1.91752715E-03 -4.83277700E-03  3.25863850E-03 -4.60441976E-03
  2.59512542E-03 -1.90453933E-03  4.45419243E-03 -3.38865317E-03 -5.84530805E-04
 -1.67118233E-03  1.30826175E-03  2.36443643E-04 -5.68983169E-03  3.83226005E-03
  3.47798796E-04 -1.13713867E-02  1.04987054E-02  4.18705799E-03 -9.82013136E-03
  9.92459101E-03  1.49021914E-03 -5.54454014E-04 -1.43960754E-03  8.97477190E-04
  4.23139977E-05 -4.30660222E-04 -2.81850732E-03 -4.23606127E-03  5.78405235E-04
  1.13370972E-03 -1.17181349E-03  2.79020470E-04  7.83101238E-04 -1.46626575E-03
 -3.73646739E-03  8.19019398E-03  2.11759129E-03 -6.93914382E-02 -1.31306237E-02
 -8.92853018E-03 -9.39482005E-03  1.78438888E-04 -3.07636499E-03  5.70892698E-03
 -1.53220688E-04  1.10765836E-03 -2.08149637E-03  2.70649484E-04  4.10599959E-03
 -7.75362112E-03 -1.39750136E-03  8.42156488E-03 -1.17905481E-02 -9.00618265E-03
  2.95689863E-03 -1.06625995E-02 -3.76605993E-04  1.15896276E-03  2.23615579E-04
  1.29859218E-03  8.80861954E-04 -6.37383917E-04  5.76613588E-03  3.23918852E-03
  1.56410659E-03 -7.23013643E-05  2.31654927E-03  3.64369673E-03  3.20000473E-03
  1.99148934E-01  5.76724819E-03  9.08470368E-03 -1.40278058E-02 -2.45904852E-03
  7.89042966E-03 -2.44814280E-02 -1.70234047E-02  2.18186820E-04  9.33843922E-03
 -7.62739144E-03 -1.30784182E-02 -5.41247644E-03 -1.48004304E-02 -1.24624684E-01
 -5.53604733E-02 -6.81056055E-02 -4.57388228E-02  2.24675159E-03 -3.28219447E-04
  5.74805245E-04  1.17683083E-05 -1.36937818E-03  5.84378089E-03 -4.40846582E-03
 -2.12470613E-03  2.13516721E-03 -3.03176214E-03 -1.98388693E-02 -3.13704367E-02
  9.76663871E-03 -1.94994820E-02 -7.35807460E-02  9.08823381E-02  1.39526080E-02
 -2.78503084E-02 -1.04798958E-01 -7.71543979E-03  5.00278908E-03  8.31533010E-03
 -5.93353905E-03  1.67854955E-01  7.28970509E-03  2.11358693E-02  6.42156129E-02
  8.58131958E-03 -1.70860746E-03  7.33458578E-03 -8.23992344E-04 -1.58413259E-03
  6.00191265E-03 -1.80244457E-03  8.00165164E-03  4.62786962E-04 -7.53038825E-03
  3.22178619E-04  9.20356463E-04 -1.86324546E-03 -3.62810870E-03  5.82299103E-03
  9.71817457E-03  6.76168663E-02  7.12769501E-03  1.22581580E-03 -1.09490773E-02
 -5.27107046E-03  2.10419153E-04  9.15162503E-03  2.00787582E-03 -6.15099918E-05
 -3.45317094E-03  6.17895493E-03 -3.65957166E-04 -1.05131475E-02  1.46684624E-02
  2.71475510E-04 -2.42183215E-02  1.07903852E-02 -1.31944160E-03 -1.74424520E-02
  5.64655151E-04  7.97780169E-04  2.77603167E-04 -1.83607801E-04  2.45410466E-04
  1.19474321E-03  1.59769315E-03 -1.47856764E-04 -3.93579749E-04  1.90771353E-04
 -1.14927057E-04 -3.29665392E-04  6.53175189E-04  1.19617716E-03 -1.87520815E-03
 -2.20927523E-03 -6.85486075E-02 -3.23782851E-03 -1.00048273E-02 -6.67005832E-03
  2.20245286E-03  4.22319277E-03 -1.00208146E-03 -7.87837138E-04 -1.55230362E-03
  3.72818038E-04 -2.65261119E-03 -5.11549646E-03  1.27466628E-03 -4.31134450E-03
 -9.41634854E-03  2.69992299E-03 -3.63150578E-03 -9.83205497E-03  2.52338144E-03
  4.48310646E-04 -4.28843253E-04 -6.33486137E-05 -3.98450119E-04 -7.95601768E-04
  1.22275487E-03 -9.60321184E-04  4.97507645E-04 -8.95215314E-04 -9.48106378E-04
  9.20599016E-03  1.45111671E-02  4.40943042E-03 -1.33018377E-02  1.49750800E-01
  4.51243800E-03  6.67355877E-03 -5.05861016E-03 -1.20434699E-03  1.30699628E-02
 -1.56130571E-02 -2.73014965E-03  2.43913815E-03  1.54679881E-02  2.26619778E-02
 -4.86647535E-03 -1.65986613E-02 -2.94794851E-02 -1.79121231E-01 -1.24775876E-02
  7.92945639E-03  6.19271066E-02  1.58304492E-04  4.35584539E-04  4.82084012E-04
 -8.97460135E-05 -3.84015638E-04  3.44890347E-03 -2.24237436E-03 -5.67477757E-04
  5.38019983E-04 -5.07840237E-04 -1.68194724E-03 -1.57325824E-03  2.37312388E-03
 -8.05663569E-03 -2.96147940E-02 -5.56248197E-03  8.82609174E-04 -9.29534591E-03
 -2.81696287E-02 -1.50092213E-01  3.20548100E-03  2.94708426E-02  6.99093443E-02
  1.55168332E-01 -4.89275256E-02 -6.19988463E-02 -1.07187631E-02  1.22205472E-02
 -1.42322442E-03  6.12020475E-03 -6.93077050E-04 -1.22180092E-03  7.30398232E-03
  1.53004547E-03  1.48326432E-03  1.79638868E-03 -1.33959566E-02 -2.34810122E-04
 -6.79397922E-04  1.30877158E-03  2.62224191E-03 -4.89035173E-03  6.44067124E-03
 -2.07592927E-02  1.59353121E-03  3.22875765E-03  3.64670358E-03 -2.58059494E-03
 -1.11369623E-03  5.30767663E-03  1.00824030E-03  4.38908049E-04 -2.06339117E-03
  2.68245796E-03  1.19698603E-03 -5.41005168E-03  7.77845195E-03  3.65989015E-03
 -1.51729321E-02  2.42604785E-03  6.64875835E-06 -7.82528075E-03  7.65284418E-04
 -2.92157722E-04  2.57539216E-04 -4.07767002E-05  2.24868248E-04  1.33113695E-03
 -6.01220101E-04  1.40763833E-04  8.34482499E-05 -9.52779957E-05 -1.93733467E-04
 -5.50357894E-04  1.03295841E-03  2.06439402E-03 -2.56463110E-03 -1.27672651E-02
  2.71225262E-02  3.40535317E-03  5.91625763E-03  5.10079693E-03  4.68560117E-03
  3.08630897E-03 -6.74105905E-03 -1.74681050E-03 -1.15391415E-03  2.50401814E-03
 -5.09669226E-03 -3.06968055E-03  8.11546758E-03 -1.28610092E-02 -9.19703806E-03
  1.65253913E-02 -8.05875612E-03 -6.96711598E-03  7.07845267E-03  5.74081897E-04
  1.87259207E-04  2.14172496E-04  1.05868214E-04 -1.01178113E-03  2.58059458E-03
 -1.25223566E-03 -2.06867582E-04  4.25397073E-04 -1.12483707E-03 -1.46338819E-01
 -2.47750860E-01  4.71090066E-03 -1.14038690E-02 -4.62886402E-02  7.75874475E-01
 -5.88509363E-03 -9.50097910E-03 -1.74390897E-02  2.57349770E-02 -1.57276684E-02
  2.47460120E-02 -3.23128162E-02  3.10143118E-02 -2.50665684E-02 -8.88528437E-03
 -4.22778473E-02  1.95430780E-02 -5.80518259E-03  3.26038531E-01 -8.30816561E-03
  4.16633623E-02 -4.13072369E-02 -1.87569566E-03  4.27823890E-04 -4.76036898E-04
 -8.90989688E-04  8.30776325E-04  8.66985988E-03 -1.16170319E-03  3.77055693E-03
  3.26018719E-03 -7.00081506E-03  1.26883775E-03  1.87884439E-03  1.27616114E-02
  1.32623411E-03  1.47175034E-02 -3.27691761E-03  1.91565244E-02  2.48203602E-03
  2.10863225E-02  2.00371571E-02 -3.13122132E-02 -8.25518077E-03  2.21779412E-02
 -2.51426724E-01  8.55892909E-02  3.24932340E-02 -4.78613957E-02 -3.55244761E-03
 -1.37702872E-02 -9.08963311E-04  2.75036975E-03 -3.09517251E-03  8.02679807E-03
 -3.92233438E-02 -5.68087284E-03  1.12738844E-02 -1.47368253E-02 -2.77044254E-04
 -7.90030985E-04  1.56289442E-03  3.26189158E-03 -5.01506377E-03 -1.02859996E-02
 -2.62661071E-02  3.83871054E-03 -7.96340191E-03  6.44859537E-03 -4.33865179E-03
  6.05043468E-03 -8.56829200E-03  1.65802639E-03 -2.27020515E-03  3.25710997E-03
  5.30041287E-03 -7.85688786E-03  9.74532167E-03  1.17687752E-02 -1.46043431E-02
  2.58513037E-02  1.33769733E-02 -1.28610708E-02  1.88943785E-02  1.22968124E-03
  1.75484955E-03 -2.19992821E-03  1.76074722E-04  6.41835937E-04  1.54229451E-03
  3.73079205E-03 -7.61303493E-03 -7.96206983E-05  1.44525316E-03  3.98782373E-04
  1.12535466E-03 -2.12961037E-03 -5.16299702E-03  1.08669289E-02  3.63863715E-03
 -5.32174949E-02  5.49683260E-05 -1.85832107E-02 -3.83235476E-03 -8.51664563E-03
  6.00199643E-04  5.28785719E-03  3.12257326E-03 -3.35902420E-04 -1.89559704E-03
  1.10723358E-02 -4.05025376E-04 -7.39385879E-03  2.10062588E-02 -2.25204483E-03
 -9.90657215E-03  1.59560579E-02 -1.28077533E-02 -6.77794983E-03 -1.45797564E-03
 -5.28399394E-04  6.09330977E-04 -2.90179358E-03  1.77281487E-04 -3.43205228E-03
  2.38550888E-03  5.23066856E-03 -6.09670331E-03 -2.28892436E-03 -1.01959629E-03
 -1.70005488E-03  2.89281947E-01  4.15827538E-03  6.13992886E-03  6.09104440E-03
  4.15173390E-01 -4.12843879E-03 -6.59278813E-03  2.39424979E-02 -1.49050492E-02
  1.82401670E-03  1.61952982E-02  3.10477145E-02 -2.94600239E-02 -2.89965263E-04
 -1.45239583E-02  1.47063094E-02 -4.03931737E-02  7.33246089E-03  3.19552285E-01
  2.71105423E-02 -4.34131788E-02 -5.27694414E-02 -1.07267008E-03  4.91051399E-04
  9.90538237E-05  4.69776124E-04  4.89729248E-04  1.44119677E-02 -2.65931420E-03
  8.14242661E-04 -1.56409606E-04 -1.01476879E-02 -9.25926308E-03 -1.47403674E-02
  1.29961045E-03  7.41622714E-03 -2.81175962E-02  4.50546166E-02  2.41932214E-03
  1.17703154E-02 -4.00087853E-02  1.90407644E-02 -1.36317607E-02 -2.27182505E-02
  2.98360370E-02 -2.07488857E-01  5.38578356E-02  9.32528240E-02 -3.83283317E-02
  9.64238754E-03 -1.02529037E-03 -1.07450814E-02  2.06953466E-03  7.46536479E-04
  3.27558093E-02 -1.26449919E-02 -3.28514382E-02  8.45042438E-03 -1.06625980E-02
 -1.52902031E-04 -4.34696592E-04  8.41215049E-04  1.91227494E-03 -2.86706880E-03
 -6.95709257E-03  5.08052766E-03 -6.52205240E-03  3.76973649E-03 -2.82458208E-03
  6.34787857E-03 -4.83966480E-03 -7.80099801E-04 -2.38146073E-03  1.86822801E-03
  3.16630630E-04 -8.10928523E-03  5.46851487E-03  4.28949810E-04 -1.61964499E-02
  1.49861329E-02  5.82604765E-03 -1.39977462E-02  1.41804939E-02  2.00324157E-03
 -7.96720137E-04 -2.05023412E-03  1.29459360E-03  5.54897252E-05 -6.15288416E-04
 -4.04752043E-03 -6.03282925E-03  8.55822134E-04  1.61417304E-03 -1.68334645E-03
  4.48515017E-04  1.26725808E-03 -2.38388012E-03 -5.80889298E-03  1.21999171E-02
  3.35332689E-03 -1.00003089E-01 -1.89360737E-02 -1.28977075E-02 -1.34871567E-02
 -9.86338833E-05 -4.47063669E-03  8.26046693E-03 -8.58507795E-05  1.61069672E-03
 -3.01394918E-03  8.06991763E-04  5.96384102E-03 -1.12211248E-02 -1.10829293E-03
  1.22299966E-02 -1.71441566E-02 -1.24085882E-02  4.23586298E-03 -1.54903927E-02
 -5.48796039E-04  1.67389017E-03  3.36968811E-04  1.85171380E-03  1.28650089E-03
 -9.23667619E-04  8.27656665E-03  4.66636778E-03  2.21987844E-03 -4.72326541E-05
  2.38419168E-03  3.99528513E-03  4.01371828E-03  2.85704877E-01 -1.83480260E-02
 -1.37112136E-02  5.13432438E-03  4.09901140E-01  7.77488711E-03  1.27485507E-02
 -2.06114334E-02 -3.97014100E-03  1.18179163E-02 -3.58612287E-02 -2.49779846E-02
 -1.82964397E-04  1.40350030E-02 -1.08237109E-02 -1.89759688E-02 -8.28848584E-03
 -2.17802879E-02 -1.83411554E-01 -8.08301243E-02 -9.96453095E-02 -6.63346508E-02
  3.26838665E-03 -4.60031133E-04  8.61511087E-04  1.73597180E-05 -1.98962844E-03
  8.35300799E-03 -6.42965295E-03 -3.16494005E-03  3.10591044E-03 -4.27767055E-03
 -2.93203013E-02 -4.62205705E-02  1.46461631E-02 -2.82030499E-02 -1.07962717E-01
  1.33304524E-01  2.09180098E-02 -4.02101321E-02 -1.53547992E-01 -1.29167858E-02
  7.52473861E-03  1.24469708E-02 -7.91941093E-03  2.47204542E-01  1.03021377E-02
  3.06630381E-02  9.36112571E-02  1.27028073E-02 -2.46780141E-03  1.07710811E-02
 -1.22693396E-03 -2.28438156E-03  8.66361844E-03 -2.51006842E-03  1.15545324E-02
  6.59513654E-04 -1.09755837E-02  4.78975218E-04  1.36947499E-03 -2.76018633E-03
 -5.33433595E-03  8.40080380E-03  1.42898833E-02  9.86391118E-02  1.03595591E-02
  1.82708333E-03 -1.59730651E-02 -7.75729520E-03  1.81525336E-04  1.34829197E-02
  2.95373058E-03 -4.30853167E-05 -5.08693102E-03  9.05733075E-03 -3.86799595E-04
 -1.53963497E-02  2.15108934E-02  6.77969068E-04 -3.56165345E-02  1.57934612E-02
 -1.67174438E-03 -2.55491013E-02  8.28305234E-04  1.15907726E-03  4.35431631E-04
 -2.73327290E-04  3.59437289E-04  1.78197158E-03  2.32368571E-03 -1.21725143E-04
 -5.84440645E-04  2.66116334E-04 -6.76060313E-05 -1.86545328E-04  3.91966072E-04
  8.69563108E-04 -1.90280568E-03 -2.62328435E-03 -1.00115813E-01 -4.77105859E-03
 -1.45951521E-02 -9.78889103E-03  3.38544652E-03  6.00338782E-03 -1.98002563E-03
 -1.21485535E-03 -2.20628853E-03  7.37466518E-04 -4.09438069E-03 -7.30630649E-03
  2.46308338E-03 -6.79074566E-03 -1.34470645E-02  5.16742069E-03 -5.68348707E-03
 -1.41921154E-02  4.37206622E-03  6.61912696E-04 -5.95832438E-04 -5.76698289E-05
 -5.78311690E-04 -1.14978580E-03  1.81051494E-03 -1.37518953E-03  7.60437170E-04
 -1.29148719E-03 -1.34903890E-03  9.78962479E-03  1.63773253E-02  5.74625372E-03
 -1.88152906E-02  2.17855676E-01 -5.70341745E-02  7.95796957E-03 -2.58790540E-02
  3.17098381E-01 -1.04492273E-03  1.05791871E-03 -9.05812557E-03 -6.26071634E-03
  1.22189596E-02 -1.01824424E-02 -9.66110474E-03 -5.96181337E-03  1.49785752E-02
  2.38405503E-02 -4.15531082E-03 -1.36887999E-02 -2.38611673E-02 -1.54680158E-01
 -7.80456083E-03  1.38698642E-02  6.30023195E-02 -1.69927398E-04  8.72750836E-04
  8.98496635E-04 -2.81544327E-04 -1.07188437E-04 -1.98173455E-04 -6.02989782E-04
 -7.85499653E-05 -2.31595217E-04  1.97013353E-03 -1.02694603E-03  2.53569246E-03
  4.23108234E-03 -1.67670709E-03 -1.82497812E-02 -2.62494195E-02  3.48989201E-03
 -9.46553381E-04 -1.38680311E-02 -1.33418526E-01  5.30854708E-03  2.64525001E-02
  5.48843922E-02  1.34311224E-01 -4.48349043E-02 -5.77773485E-02 -1.24495672E-02
  8.72801161E-03 -4.74808123E-04  5.02376591E-03 -6.96964324E-04 -8.81914472E-04
  2.22219551E-03  2.78922928E-03  1.40996953E-03  8.11219370E-04 -8.72460034E-03
  8.29941901E-04  2.40330496E-03 -4.53497981E-03 -6.89597609E-03  5.27574921E-03
  1.50615739E-02 -2.95275140E-02  1.75415396E-04  2.35965184E-03  5.86398990E-03
 -4.32485175E-03 -3.69470891E-03  3.91746572E-03  1.64559866E-03  1.39409511E-03
 -1.52253615E-03  4.57386867E-03  4.26609922E-03 -3.16587713E-03  1.11546321E-02
  9.22834224E-03 -1.09231059E-02  5.66330314E-03  4.90456803E-03 -4.94893172E-03
  6.59057601E-04 -9.42005638E-05  4.29239989E-04 -1.04834145E-04  2.36106324E-04
  1.65720161E-03 -5.17216723E-05  1.08293107E-03 -1.97953276E-04  4.15959362E-05
  6.49753015E-04  1.91518640E-03 -3.65760571E-03 -5.53495318E-03  5.16331595E-03
 -5.77370568E-03  3.21890619E-02  3.60585379E-03  5.68954038E-03  3.83605639E-03
  1.02689157E-03 -3.02611225E-03 -1.15547836E-02 -4.07209385E-04  1.09396903E-03
  4.29335618E-03 -1.73613042E-03  2.80700317E-03  1.32498444E-02 -5.61279918E-03
  3.26375104E-03  2.70161867E-02 -4.25787529E-03 -1.24491126E-04  1.34190210E-02
  2.55117078E-04  5.60660444E-04  7.71559568E-04 -1.93291245E-04 -2.05068460E-04
  1.74326782E-03 -5.95148040E-04  5.45503502E-04 -4.18556717E-05  1.94051375E-04
 -1.47696305E-01 -2.29711374E-01  2.35498552E-04 -2.00160695E-02 -5.52803946E-02
  6.53384062E-01 -1.80906845E-04 -2.65357644E-02 -7.16924729E-02  5.55290244E-01
 -4.36581446E-03 -7.71293567E-03 -1.59800449E-02  2.48343772E-02 -1.67718585E-02
  2.21883671E-02 -2.93280970E-02  3.06701692E-02 -2.67018047E-02 -8.89258021E-03
 -3.92887260E-02  1.94071650E-02 -6.50913383E-03  2.77748454E-01 -9.06009653E-03
  3.51915907E-02 -3.53814560E-02 -1.71937731E-03  2.94871964E-04 -7.43954859E-04
 -9.66016238E-04  8.64815444E-04  6.96911274E-03 -8.42026806E-04  2.71400721E-03
  2.20567620E-03 -5.83094132E-03 -4.15931952E-04 -6.08598440E-04  7.11753593E-03
  2.60380359E-03  1.30965020E-02  3.03078507E-03  1.09184491E-02  4.59333495E-03
  1.83358440E-02  1.99893050E-02 -3.18070460E-02 -5.49452702E-03  1.89618512E-02
 -2.12123234E-01  7.38207664E-02  2.86731609E-02 -3.99547814E-02 -3.09098238E-03
 -1.20092509E-02 -6.86019063E-04  2.52842850E-03 -2.55311679E-03  6.88379585E-03
 -3.35002595E-02 -4.01502473E-03  9.79611677E-03 -1.28006695E-02 -5.04300337E-04
 -1.45266210E-03  2.83282994E-03  5.31719431E-03 -7.32990565E-03 -1.08546239E-02
 -2.18267190E-02  3.64615462E-03 -7.02498692E-03  5.13392072E-03 -4.63420399E-03
  5.17269724E-03 -9.72430021E-03  1.76914913E-03 -1.94561383E-03  3.67557144E-03
  5.62272830E-03 -6.86164600E-03  1.10083052E-02  1.24850219E-02 -1.27755339E-02
  2.75882107E-02  1.34530370E-02 -1.18707749E-02  1.90838246E-02  8.49817896E-04
  1.68465184E-03 -2.20847771E-03  1.53633170E-04  6.55114282E-04  1.05499955E-03
  3.57651620E-03 -7.23130065E-03 -7.22163033E-05  1.49918608E-03  2.32582615E-04
  6.48872039E-04 -1.21704154E-03 -3.42101165E-03  8.19306560E-03  1.97809235E-03
 -4.64295850E-02  3.24872271E-04 -1.59880230E-02 -3.87168084E-03 -8.55220982E-03
  2.25728851E-03  2.45875754E-03  3.15054537E-03 -9.43907470E-04 -8.45172142E-04
  1.10318567E-02 -2.29766290E-03 -3.89349053E-03  2.12783600E-02 -6.18790259E-03
 -3.40632870E-03  1.60686259E-02 -1.41584459E-02 -2.10532017E-03 -1.31745060E-03
 -5.43619767E-04  4.60361641E-04 -2.67853874E-03  1.26683561E-04 -3.10811086E-03
  1.81893960E-03  4.30625279E-03 -5.66616764E-03 -2.07978985E-03  2.58668833E-04
 -8.22286630E-06  2.50182826E-01  3.80628916E-03  6.51030587E-03  2.21104826E-03
  3.59036338E-01  4.73608766E-03  8.58878086E-03 -2.99725096E-03  3.11028852E-01
 -3.39303771E-03 -5.75410592E-03  2.35580121E-02 -1.43510403E-02 -5.85235201E-04
  1.53866526E-02  3.11113357E-02 -2.78686027E-02 -3.70237761E-03 -1.30507615E-02
  1.55719166E-02 -3.66580246E-02  6.84858697E-03  2.73646461E-01  2.45079475E-02
 -3.59275720E-02 -4.17735624E-02 -1.26073885E-03  3.27881232E-04  3.20190667E-05
  5.95278070E-04  6.58894023E-04  1.09594737E-02 -1.93250236E-03  8.41696891E-04
  1.93064287E-04 -7.97495369E-03 -9.31472152E-03 -1.38137404E-02  2.34407490E-03
  4.72128179E-03 -1.91636163E-02  3.87251651E-02  4.20064043E-03  7.62993874E-03
 -2.74433350E-02  1.74516530E-02 -1.00701409E-02 -2.31719328E-02  2.74814207E-02
 -1.77630299E-01  4.57173982E-02  7.90918679E-02 -3.39596336E-02  7.94033335E-03
 -7.64081616E-04 -9.50636330E-03  1.63529725E-03  8.09457427E-04  2.76240235E-02
 -9.92114277E-03 -2.78344328E-02  6.73220045E-03 -8.70557683E-03 -3.23692847E-04
 -9.32853240E-04  1.81168205E-03  3.54193564E-03 -4.97221026E-03 -7.32233695E-03
  1.70197975E-03 -6.00995983E-03  3.17266717E-03 -2.31896017E-03  5.65063998E-03
 -6.41583122E-03 -3.05627869E-03 -2.12298049E-03  2.45014427E-03  1.15633417E-03
 -7.32221233E-03  7.25695701E-03  3.09985872E-03 -1.46637245E-02  1.81989137E-02
  1.04081330E-02 -1.28306828E-02  1.57239652E-02  4.34238075E-03 -1.11805376E-03
 -1.88471324E-03  1.03972348E-03  8.61048256E-05 -5.10608369E-04 -4.18891818E-03
 -5.52304111E-03  7.54433726E-04  1.44998530E-03 -1.38702287E-03  3.57909238E-04
  1.01372704E-03 -1.91016726E-03 -4.76507178E-03  1.02551730E-02  2.24316147E-03
 -8.29855095E-02 -1.57834009E-02 -1.05634766E-02 -1.20666480E-02  1.64107056E-03
 -5.90880511E-03  5.00473970E-03 -7.28314015E-04  2.15567374E-03 -1.80996799E-03
 -1.36234691E-03  7.47271513E-03 -7.28336876E-03 -5.47101481E-03  1.52829902E-02
 -9.97994910E-03 -1.41198303E-02  6.86297957E-03 -1.01494243E-02 -5.54278461E-04
  1.52390902E-03  3.17089310E-04  1.72630056E-03  1.26618373E-03 -9.67250089E-04
  7.20555137E-03  3.89736448E-03  2.30671728E-03  2.07083181E-04  8.91861153E-04
  2.07951195E-03  3.23725217E-03  2.44908212E-01 -2.15836496E-02 -9.31291854E-03
  4.11688938E-03  3.51326140E-01 -3.06789669E-02 -1.98946547E-02  3.94457947E-03
  3.01892557E-01  4.86707293E-03  9.25342911E-03 -2.02507572E-02 -4.71134098E-03
  1.05249930E-02 -2.97974645E-02 -2.55039858E-02 -2.27754489E-03  1.27938756E-02
 -6.78603315E-03 -1.69532397E-02 -5.53619923E-03 -1.79400985E-02 -1.52359400E-01
 -6.43780772E-02 -7.61632317E-02 -4.90194955E-02  2.55541069E-03 -5.34077885E-05
  9.55869945E-04 -1.73963791E-04 -1.59391289E-03  5.50032520E-03 -4.45374152E-03
 -2.22355116E-03  2.00648957E-03 -2.46221797E-03 -2.40249309E-02 -3.56555221E-02
  1.23900135E-02 -2.00014796E-02 -8.55566975E-02  9.56740882E-02  1.72681568E-02
 -2.87098102E-02 -1.21300228E-01 -1.70906827E-02  6.49148317E-03  1.26831611E-02
 -7.75473036E-03  2.01521819E-01  6.44736538E-03  2.10778131E-02  7.38616591E-02
  9.70675289E-03 -1.77788399E-03  8.95720421E-03 -1.00750900E-03 -1.91260935E-03
  5.15888558E-03 -1.60834847E-03  9.81687583E-03  3.41810257E-04 -8.00284736E-03
  7.48202742E-04  2.15403274E-03 -4.22089279E-03 -7.53759169E-03  1.01476204E-02
  1.51323811E-02  7.51058485E-02  7.88541942E-03  9.54582588E-04 -1.17402571E-02
 -8.42139022E-03 -1.51127937E-03  1.11062628E-02  3.19202445E-03  5.82954574E-04
 -4.18535013E-03  9.75304169E-03  1.61127614E-03 -1.23294896E-02  2.24410891E-02
  4.30346751E-03 -2.90382363E-02  1.64652148E-02  1.23931198E-03 -2.04914290E-02
  7.58161691E-04  1.06500665E-03  3.64352025E-04 -2.50926623E-04  3.31054222E-04
  1.83334290E-03  2.25657212E-03  1.20969770E-04 -6.06482946E-04  3.09046194E-04
  2.22998365E-04  6.63570818E-04 -1.26850987E-03 -1.91980844E-03  1.44564189E-03
 -2.79282138E-04 -7.57380023E-02 -3.29516872E-03 -1.13767493E-02 -7.72542840E-03
  7.81095821E-04  3.01211157E-03 -4.01124823E-03 -2.58195091E-04 -1.11273555E-03
  1.48708799E-03 -1.34732307E-03 -4.25994407E-03  4.51245937E-03 -1.45323064E-03
 -7.65751185E-03  9.27129905E-03 -1.99361730E-03 -1.00144295E-02  6.51324256E-03
  4.42464830E-04 -3.61526027E-04  1.81206838E-04 -6.73845714E-04 -7.28484119E-04
  1.32565593E-03 -1.08761988E-03  8.49205539E-04 -1.39058245E-03 -7.51709830E-04
  1.59348924E-03  5.69117409E-03  4.95996347E-03 -2.34232831E-02  1.69156931E-01
 -3.25139967E-02  6.90155493E-03 -3.26808518E-02  2.46378367E-01 -4.45007185E-02
  7.18066534E-03 -3.46391770E-02  1.92366008E-01  6.69135390E-03  9.30496204E-03
  2.74885482E-03  5.94410347E-03  7.29821250E-03 -2.08061799E-02  5.09679630E-03
  9.22742473E-03  8.64822184E-03 -1.06458947E-02 -3.42246491E-03 -5.26193567E-03
 -3.27359691E-03  3.91216803E-03 -4.43233871E-03 -9.40709409E-04  1.17680669E-02
 -3.75760758E-05 -2.99616396E-05 -2.98437484E-04  1.61397548E-04 -5.91920419E-04
  4.23311929E-03 -2.30801226E-03 -1.13605357E-03  1.09424446E-03 -3.07084210E-03
  1.44054095E-02  1.70307692E-02 -4.06749687E-03 -5.75607818E-03 -2.52845267E-03
 -2.93315173E-02 -6.76418793E-03 -9.70955600E-03 -4.57859086E-03 -2.95797911E-02
 -4.30086821E-03  1.16365967E-03  1.70718237E-02 -4.43539096E-03 -2.95131042E-03
 -3.69731599E-03 -5.32401281E-04  2.22531780E-03 -4.91485329E-04  2.12384414E-04
  3.42835821E-04 -1.77630222E-03  1.11368266E-02 -1.61376652E-03  2.19607363E-03
  1.33027716E-03 -8.61995163E-03  1.17910760E-03  3.41600703E-03 -6.75530037E-03
 -1.12594820E-02  1.38905765E-02  1.44892710E-02 -1.32682486E-02 -5.41407855E-04
  9.76445829E-04  4.41172881E-03 -2.68011831E-03 -2.94810393E-03  6.42047504E-04
  1.03810712E-03  1.14104801E-03 -2.50915109E-04  2.81236058E-03  3.07436727E-03
 -7.26574763E-04  7.49904766E-03  8.58723975E-03 -8.70746137E-04  4.10737412E-03
  4.21462199E-03 -1.80979965E-03  3.57790600E-05 -2.95441875E-04 -2.41886606E-04
  5.04960585E-05  2.30221038E-04 -1.75255077E-04 -1.68116273E-03 -1.87475667E-03
  4.82443429E-04  7.06733231E-04 -3.43682518E-03 -9.91221451E-03  1.88787086E-02
  3.09331280E-02 -3.38025573E-02 -3.18142298E-02  1.16731821E-04  2.97710659E-03
  2.49313447E-03 -2.83366892E-03  8.16476993E-03  6.89838770E-03 -7.59990664E-03
 -3.08240655E-03 -2.60281539E-03  2.87321853E-03 -9.25608101E-03 -8.03430136E-03
  8.03304090E-03 -2.04584534E-02 -1.73642563E-02  1.88270188E-02 -1.18439896E-02
 -9.53061390E-03  1.23225185E-02  7.62259911E-04 -3.62883547E-04 -5.30767695E-04
  4.16762791E-04 -1.52919856E-03  1.87803177E-03  4.65442288E-05 -9.21974745E-05
  6.25532519E-04 -3.57831855E-03 -6.13403117E-03 -1.01431683E-02  1.50184491E-02
  1.78750814E-02  1.43697394E-04  3.20533741E-02  2.14749147E-02  2.56048688E-02
  3.28827648E-04  2.46776249E-02  1.90983859E-02  2.25839790E-02 -2.18865248E-04
  2.18202091E-02 -2.27618354E-03 -3.30829598E-03 -8.58846353E-03  1.04826836E-02
 -8.15878006E-03  8.25027474E-03 -1.42501625E-02  1.48956451E-02 -1.23590675E-02
  1.87707081E-03 -1.37433381E-02  1.13939588E-02 -6.15748201E-03  9.40800691E-03
 -4.91852483E-03  3.73067183E-03  1.12007452E-03  1.29836827E-04  7.05914369E-05
 -6.77210448E-04 -7.28756632E-04  1.82527895E-04  2.91968424E-03  3.37617853E-04
 -3.78848407E-04 -9.97555474E-04 -1.63158092E-03  7.45163127E-06  6.72784844E-05
 -1.36605188E-02  3.52472594E-03 -1.61107901E-03 -8.07176456E-05 -2.08363298E-02
  5.74626607E-03 -2.68135984E-03 -1.09837186E-03 -1.75906075E-02  6.53077216E-03
 -1.48613289E-03 -5.48238334E-03  2.08687603E-03 -1.26900608E-03 -2.05242943E-03
 -3.89004673E-04 -1.77011066E-03  1.31000952E-04  8.08583755E-04 -2.97224575E-04
  1.11509228E-03 -4.70239541E-03  4.28937890E-04  1.58241763E-03 -2.50402002E-03
 -8.22395207E-05 -2.33467454E-04  4.08934713E-04  7.42431760E-04 -6.79938510E-04
 -1.13730550E-03 -3.07605906E-03  1.35512118E-03 -1.94513524E-04  1.08158246E-04
 -1.36123642E-03  4.89395435E-03 -3.24102618E-03  5.18687229E-04 -1.84257074E-03
  1.22442487E-03  1.81474930E-03 -5.91707954E-03  3.69177426E-03  3.74853840E-03
 -1.21494214E-02  8.94334901E-03  4.48720340E-03 -1.01872278E-02  5.52562331E-03
  2.61959597E-04  7.67382904E-04 -8.19183398E-04 -7.82200463E-06  2.22370472E-04
  3.79290326E-04  1.92508682E-03 -2.27651131E-03 -9.33013361E-05  5.90647008E-04
  3.00447775E-04  8.63086738E-04 -1.62483546E-03 -2.79761366E-03  3.28519105E-03
  2.83099688E-03 -3.65804258E-03  2.54322612E-04 -2.08056740E-03  1.67307795E-04
 -4.68449617E-03  1.77685301E-03  3.26598261E-03  1.75910967E-03 -6.82804713E-04
 -1.21037425E-03  5.63040185E-03 -2.29394753E-03 -3.74445070E-03  1.18892100E-02
 -4.66189001E-03 -7.12944688E-03  9.23470918E-03 -5.88670621E-03 -3.81607162E-03
 -4.13456951E-04 -3.93372020E-04 -9.38571176E-05 -1.07377099E-03  6.08710101E-05
 -8.89454221E-04 -4.98936797E-04  3.62430259E-04 -2.54008943E-03 -4.03724588E-05
 -5.29348255E-04 -7.57086027E-04  2.74386433E-02 -1.38521095E-03  2.17272791E-03
  1.95091327E-03  3.93642193E-02 -2.03090750E-03  3.02704961E-03  6.30636315E-04
  3.47592902E-02 -2.24670166E-03  2.46786519E-03  2.07604526E-03  6.86306744E-03
 -1.08212288E-03 -1.68825291E-03  1.19041453E-02 -6.02529549E-03 -5.66219989E-04
  4.78604971E-03  1.73593715E-02 -1.04757850E-02 -1.23406128E-03  3.31341435E-04
  1.12238221E-02 -1.15621290E-02  9.96716616E-04  5.68708723E-03  5.46803860E-04
 -5.04146709E-03  5.51764866E-03 -2.06059447E-04 -4.16517565E-04  1.51388250E-04
  7.12168289E-04  4.44042350E-05  3.48875533E-03 -1.53174197E-03  1.21786704E-03
  1.57806144E-03 -2.74854502E-03  3.17986578E-03  3.65620123E-03  2.80088273E-03
 -1.32905769E-02  1.40235554E-03 -5.55304216E-03  4.48899793E-03 -2.03891105E-02
  2.15737979E-03 -8.13493374E-03  5.24625816E-03 -1.41057082E-02  8.77415383E-03
 -4.70199848E-04 -1.53336876E-03  1.80465086E-04 -1.41987010E-03  1.34209245E-03
 -1.29682624E-04 -1.56644609E-03 -8.40891080E-05 -2.08982655E-04  6.33571016E-03
 -8.45817230E-04 -3.33484319E-03  8.65081773E-04 -3.17006772E-03  6.23789775E-05
  1.84731585E-04 -4.18505360E-04 -6.13616721E-04  9.95359554E-04  4.38056537E-04
 -4.28641929E-03  9.42001874E-06  1.59288981E-03  8.02202765E-05  5.31541093E-03
 -4.44307420E-04 -7.20933441E-04 -1.99643904E-03  1.81570220E-04  2.74455393E-04
 -6.39000338E-03  5.84555914E-04  6.13045376E-04 -1.32772188E-02  2.02460712E-03
  2.80248317E-03 -1.07082573E-02  2.10931291E-03  1.00336442E-04 -5.30294515E-04
 -7.11732477E-04  3.90373337E-04  7.59597464E-05 -2.12055251E-04 -1.80276998E-03
 -1.96365584E-03  5.11048934E-04  3.82049397E-04 -4.53337227E-04 -1.76398252E-04
 -5.13330906E-04  1.00467286E-03  1.49995225E-03 -1.42459519E-03 -1.54741500E-03
 -5.79295960E-03 -1.67300788E-03 -3.20805799E-04 -1.07438509E-03  1.54111686E-03
 -1.57193883E-03  4.82038045E-03 -5.99125276E-04  5.90391957E-04 -1.79315047E-03
 -1.95315749E-03  1.96833114E-03 -5.76838105E-03 -4.29741141E-03  4.48388126E-03
 -1.09669359E-02 -5.45457616E-03  3.71764781E-03 -7.68678384E-03 -7.66234985E-05
  2.52690129E-04 -1.64456913E-04  9.00588616E-04  3.03515534E-04 -3.68470091E-05
  1.28720872E-03  4.09748265E-04  1.78826985E-03  5.36925257E-04 -1.66384805E-03
 -2.38518897E-03  9.62821713E-04  2.88776777E-02 -4.19441946E-03  6.20852905E-03
  1.35763692E-03  4.14003054E-02 -6.04254124E-03  3.33139993E-03  8.88370450E-04
  3.61583897E-02 -6.28698935E-03  6.19741701E-03 -8.41832048E-04  7.79587049E-03
  4.40834102E-03  6.09267846E-03 -4.28722385E-03  4.03016326E-03  4.88542596E-03
 -1.36254598E-02 -5.64876115E-03  6.73196074E-03  5.96372772E-03 -5.14892581E-03
 -6.62047993E-03  4.49515660E-04 -2.62829076E-03 -1.49007560E-02 -7.53886825E-03
 -4.76113311E-03  3.68388361E-03  2.80265744E-04  1.85686091E-04 -6.98063482E-05
 -1.80589688E-04 -5.00464690E-04  2.91995351E-03 -1.31297588E-03 -9.70785451E-04
  2.87765634E-04 -1.78555376E-03  8.63686219E-03  9.74119174E-03 -3.58280329E-03
 -9.39124371E-04 -8.10497746E-03 -1.48654003E-02 -6.10596472E-03 -1.90905057E-03
 -1.19690834E-02 -1.86195186E-02 -4.98492207E-03  4.62158845E-03  5.14684717E-03
  1.63898273E-02 -2.77023326E-03 -2.27533916E-03  5.27842209E-03  1.44128223E-03
 -3.26681651E-04  9.64431564E-04  2.22498531E-04 -1.11516473E-03  5.40348958E-03
 -1.21944277E-03  2.27109713E-03  7.48594256E-04 -4.77140918E-03  4.35811374E-04
  1.25804368E-03 -2.46219182E-03 -4.07197418E-03  4.91033459E-03  4.86755643E-03
 -1.72563339E-03  6.62153620E-04  7.36733555E-04  1.42004488E-03 -2.09299965E-03
  6.40296889E-04  2.02608573E-03  8.05289900E-04 -2.22499167E-04 -7.60596249E-04
  2.40366844E-03 -9.14386785E-04 -2.32232211E-03  5.87091813E-03 -8.40452710E-04
 -4.52391261E-03  4.10641438E-03 -1.58208431E-03 -2.80817391E-03  3.07755643E-04
  1.59426595E-04 -1.48641877E-04 -2.89224954E-05  1.81184069E-04  4.50466469E-04
 -5.62039799E-05 -1.14031778E-03  9.72150487E-05  5.00718371E-04 -1.45177086E-03
 -4.18842967E-03  7.98941185E-03  1.31299552E-02 -1.45013826E-02 -1.33674869E-02
 -3.93774686E-03  1.27859896E-03  2.45632826E-04 -1.40430768E-03  2.62487376E-03
  4.06024074E-03 -2.59809563E-03 -9.82818927E-04 -1.52335659E-03  9.88071844E-04
 -2.81734169E-03 -4.66895578E-03  2.79605167E-03 -6.13892019E-03 -9.79297753E-03
  6.78423952E-03 -2.63929169E-03 -6.29146635E-03  4.41185812E-03  4.00647092E-04
 -2.69245453E-04 -1.90041381E-04 -1.32179370E-04 -8.38973375E-04  9.46105408E-04
 -2.26901444E-04  1.38293485E-04 -4.69740297E-04 -1.81197535E-03 -2.82142966E-03
 -4.05020195E-03  8.56720926E-03  3.39266944E-03  1.08326759E-02  1.06057338E-02
  1.22551709E-02  4.90672652E-03  1.57724509E-02  7.03716343E-03  1.10058108E-02
  3.84363705E-03  1.23175811E-02  1.01704582E-02  2.04117691E-03  1.61167937E-03
  5.99714688E-03  1.48266605E-04  1.74677853E-04  6.23932112E-05 -1.55075885E-04
  3.68814476E-05 -2.83762479E-04  1.77195034E-04 -1.67656608E-04  5.46989656E-06
 -1.03167906E-04  1.93087595E-05 -4.00199382E-04 -3.88999273E-04 -2.70171097E-03
 -1.08095529E-03 -1.47153969E-03 -8.95883685E-04  3.74751729E-05 -2.95549777E-05
  1.71692442E-06  2.12346214E-05 -1.77188713E-05  1.14228249E-04 -1.22767242E-04
 -4.71335874E-05  8.30939442E-05 -7.01864911E-05 -2.76114425E-04 -6.68943545E-04
  3.06952745E-04 -7.25906339E-04 -1.51409085E-03  2.65118612E-03  4.74724341E-04
 -1.03569707E-03 -2.13047599E-03 -9.76175049E-05  2.96036144E-04 -6.91853113E-05
  2.04797574E-04  3.58333032E-03  1.09483905E-04  4.04590916E-04  1.28533033E-03
  2.28072520E-04 -4.47650425E-05  1.37186419E-04 -2.71232818E-05 -1.86706399E-05
  1.66702232E-04 -1.41013923E-05  1.08746651E-04  6.49600267E-06 -1.77576145E-04
 -9.68926528E-07 -4.00460335E-06  5.06936060E-06 -6.50688352E-06  6.12766742E-05
  2.19109272E-04  1.44417383E-03  1.42718628E-04  4.04680687E-05 -2.64175285E-04
  2.66849540E-05 -2.27860869E-05  6.92280835E-05 -9.45496852E-06  8.93415764E-06
 -2.71553877E-05 -3.24407268E-05  2.66655052E-05 -8.97174836E-05 -2.99250592E-05
  7.93455507E-05 -2.42314351E-04 -3.64433280E-05  3.69415033E-05 -2.62098919E-04
 -1.14312643E-05  1.94233651E-06  1.11914133E-05 -1.71222838E-06  1.06167546E-06
 -2.28457804E-05 -4.78400431E-06  1.50157878E-05 -1.43033642E-06 -9.17377938E-06
 -1.01492714E-05 -2.94515268E-05  5.96625400E-05  1.07375365E-04 -1.57938793E-04
 -1.93984970E-04 -1.43564462E-03 -7.98018127E-05 -1.86895174E-04 -1.46338421E-04
  1.69620652E-04  6.18064961E-05 -6.59924936E-05 -6.30587171E-05 -2.22711571E-05
  2.48498458E-05 -1.98931013E-04 -6.57767340E-05  8.59817511E-05 -4.02255100E-04
 -1.19097173E-04  1.78361981E-04 -3.40537734E-04 -1.34415154E-04  1.25068654E-04
  8.05244327E-06 -3.84649160E-06 -5.68720366E-06  1.31019767E-05 -1.00207705E-05
  2.66241484E-05 -1.02345831E-05 -7.48199204E-07  3.06366440E-05 -3.47233135E-06
  3.42736912E-05 -1.16112023E-04 -4.30244091E-05  6.54000165E-05  3.09212910E-03
  8.29506970E-04 -6.80716062E-05  1.15204694E-04  4.52456546E-03  2.99227569E-04
 -4.31266148E-05 -5.04254364E-06  3.50376685E-03  5.01124363E-05 -8.14910677E-06
  1.73098253E-05  2.07441694E-04  7.16036861E-05  3.19936372E-06  2.87454867E-05
  1.17582031E-04 -1.85651890E-04  2.48214856E-04 -1.82073422E-04  1.65766114E-04
 -3.19192823E-04  3.72325892E-04 -1.79391058E-04  1.37561029E-04 -2.18879677E-04
  2.64243896E-04  2.94145693E-03  2.35054882E-04  4.22482962E-04 -3.19668833E-04
 -1.90454018E-05  9.83045951E-06  3.07460104E-05  1.89555698E-05 -5.73226245E-06
  7.67302011E-06 -1.96177668E-05  6.71878371E-05  7.46047613E-05 -2.42166178E-05
  9.47784324E-05  1.65518089E-04  6.95614390E-04 -2.86382788E-05  2.92683218E-04
 -5.18381869E-04  1.04665054E-03 -6.36292858E-05  4.48752136E-04  1.42504468E-04
  4.06373490E-04 -3.32681712E-04  1.97787070E-04 -2.48196546E-03  6.85165945E-04
  2.61215468E-04 -5.22031905E-04 -4.46460546E-05 -5.46911981E-05 -2.51014907E-05
 -4.12655393E-06 -1.92535895E-05  2.05147043E-05 -2.12669396E-04 -1.02168522E-04
  5.04033034E-05 -2.70968798E-05  8.83806980E-06  2.72349010E-05 -5.29515312E-05
 -8.06700564E-05  6.80767966E-05 -2.51109749E-05 -3.02393855E-04 -1.78794266E-05
 -4.99886550E-05  8.91226184E-05  6.76501867E-05 -3.13840011E-05  1.05396617E-04
 -2.55320972E-05  1.21440119E-05 -3.88104271E-05 -8.24606318E-05  4.38188115E-05
 -1.14720053E-04 -1.74488124E-04  9.71068880E-05 -2.12553307E-04 -1.40654744E-04
  1.25786570E-04 -8.14981010E-05  9.86515614E-06 -1.31508346E-05  1.57372641E-05
  1.77135817E-06 -5.36299309E-06  8.02140281E-06 -3.55766185E-05  2.39848255E-05
  2.22941219E-06 -1.45122513E-05  2.58364761E-06  6.48321491E-06 -1.33350438E-05
 -3.94212468E-05  1.09598504E-04  8.33028094E-05 -2.00702500E-04 -1.74223446E-05
 -8.85342532E-05  1.31986401E-05  6.22783410E-05 -9.70098705E-05  1.24905681E-04
 -2.41171188E-05  3.60209365E-05 -4.64660684E-05 -7.13289172E-05  1.18974962E-04
 -1.53735720E-04 -1.65760966E-04  2.44914675E-04 -2.94674998E-04 -1.24744909E-04
  1.79014194E-04 -2.31175481E-04  3.03339667E-06  9.06112231E-06  8.84482473E-06
  1.35299571E-05 -1.41030353E-06  5.53467385E-07  4.38202802E-05  3.91306523E-05
  3.70696439E-05 -1.77132183E-05 -2.17512100E-05 -1.28392160E-06  1.72509291E-03
  7.05536698E-05 -3.40598005E-04 -9.65039648E-05  2.47782718E-03  9.33211316E-05
 -5.02179580E-04 -5.05525139E-05  2.10014960E-03  9.62734370E-05 -3.84535661E-04
  7.69612121E-05  1.13069918E-04  4.43927730E-05  3.66799341E-06 -8.02178296E-06
  2.11261661E-05  7.46888509E-05  1.27388389E-04 -3.18826259E-04  6.26828104E-05
  1.83958363E-04 -4.09313560E-04 -4.69233538E-04  1.13259131E-04  2.34775561E-04
 -2.85048748E-04 -3.88748313E-04 -6.41945324E-05 -9.89028921E-05  1.94005569E-03
 -1.25281162E-04 -6.81158695E-04 -9.28223478E-04  2.05125351E-05  1.93450962E-05
  2.69466131E-06 -2.04011439E-05 -1.77523139E-05  1.33542530E-04 -3.61393722E-05
 -5.39009910E-05 -3.23265049E-05 -7.35354584E-05 -6.93890628E-05 -2.44611113E-04
  8.86530701E-06  4.17721082E-04 -9.85417186E-04  1.13212959E-03 -5.33216944E-06
  6.62814579E-04 -1.37880600E-03  1.41164482E-04 -2.92914598E-04  3.89327218E-04
  4.90552131E-05 -7.52783380E-04  5.52305086E-04  9.59194294E-04  7.03264478E-05
  1.34130054E-04 -1.77799940E-05  7.78461355E-06  2.06691372E-05 -2.92087162E-06
  2.02316501E-04 -1.32856626E-04 -1.75452254E-04  8.37662064E-05 -9.03983556E-05
  1.10350186E-05  3.30962298E-05 -6.61171779E-05 -1.12001882E-04  1.38045593E-04
  1.23598696E-04  5.89040909E-04  5.21646233E-06  1.59560401E-05 -8.59411690E-05
 -6.33174472E-05  7.90382765E-05  1.28154773E-04  2.42460685E-05 -2.92418549E-05
 -4.79036910E-05  7.93174399E-05 -9.13106345E-05 -1.43834843E-04  1.84354503E-04
 -1.68331997E-04 -3.04941195E-04  1.65853508E-04 -1.12494791E-04 -1.67588475E-04
  2.07410886E-05  1.23699754E-05  4.11477819E-06 -3.93432431E-06  1.96808508E-06
  3.45621421E-05  2.28010416E-05 -1.31290408E-05  1.28035467E-06 -2.80060388E-06
 -3.90612581E-06 -1.26977746E-05  2.55490403E-05  2.55123134E-05  2.93550365E-05
 -3.45469630E-05 -1.20195589E-03 -1.55834845E-04 -1.71306331E-04 -1.01655742E-04
 -6.27902130E-05  9.86398191E-05  4.96470313E-05  2.33915958E-05 -3.72438359E-05
 -1.80239905E-05  8.24640759E-05 -1.11620310E-04 -5.98761827E-05  1.66789657E-04
 -2.30804030E-04 -9.32037821E-05  9.69148867E-05 -2.27924793E-04 -8.56605081E-05
  6.20088502E-06  5.64969761E-07  4.08496357E-06 -1.39241009E-05 -1.37536644E-05
  1.28146397E-05  2.63539702E-05  3.37016557E-05 -4.73895554E-05 -4.16614436E-05
  1.04233317E-05 -5.81796831E-05  5.81884813E-05  1.87813942E-03  9.91513799E-04
  3.79449678E-04  7.57276433E-05  2.70492499E-03  1.46202376E-03  9.57272114E-05
  7.59925008E-05  2.24200400E-03  1.07186593E-03  1.05003897E-04  3.40743301E-05
  1.44844911E-04  1.00319063E-04  2.42417296E-05 -2.75483799E-06  3.18013338E-05
 -1.17489977E-06 -1.64136083E-05  8.55654303E-07  6.39061646E-05 -9.03853576E-05
  1.01270715E-04  1.95941213E-06  1.00348343E-04 -1.29403103E-04  7.90267868E-05
 -6.74728150E-06  9.57730582E-05 -4.98328210E-05 -9.05182459E-04 -7.10868123E-05
  7.10836269E-05  2.15285597E-04 -8.62620871E-07 -6.63143169E-06 -5.22773851E-06
  3.73293611E-06  4.33711508E-06 -2.88439054E-05 -2.34397868E-07  8.50265198E-06
  1.30140260E-05  1.54416309E-05 -3.66100363E-06  1.45817581E-05 -8.13217494E-05
 -1.25195030E-04  1.37732847E-04 -1.07180694E-04 -1.16416129E-04 -1.92538577E-04
  1.86988307E-04 -6.31298003E-05  1.03876632E-05 -3.97563792E-05 -2.28952958E-05
  6.03639636E-04 -1.94744447E-04 -2.57039648E-04  9.96028885E-05 -1.78987217E-05
  6.29503084E-06  1.05159326E-05  2.97877347E-06  1.71634400E-06 -4.16531372E-05
  5.21958791E-05  7.14113854E-05  1.00828339E-05  1.58158997E-05 -3.81861383E-06
 -1.15081750E-05  2.26640063E-05  3.72745760E-05 -4.18111074E-05 -2.08014491E-05
 -4.85407893E-05  1.96029137E-05 -5.68827616E-06  4.00631817E-06  2.95368342E-05
 -3.13603960E-05 -3.26958563E-05 -1.11309068E-05  1.16402430E-05  1.21240834E-05
 -3.40823250E-05  3.41480220E-05  3.67252071E-05 -7.40904730E-05  6.80080230E-05
  7.27625512E-05 -4.13730789E-05  2.26424908E-05  3.40382509E-05 -3.29048031E-06
  4.34415008E-06 -7.08497460E-06  1.75513050E-06  2.37602985E-06 -3.06733046E-06
  1.08080696E-05 -1.05185135E-05  1.60425789E-06  6.88669459E-06  3.68762720E-07
  1.53509117E-06 -3.07658570E-06  1.37601595E-06 -2.41619727E-05 -5.16537841E-06
  2.42785259E-04  4.70646439E-05  3.36470168E-05  1.84767347E-05  4.98785305E-05
 -2.63461877E-05 -2.30079124E-05 -1.86210011E-05  1.00799957E-05  8.46376306E-06
 -5.86571863E-05  2.83790404E-05  2.92911177E-05 -1.22910310E-04  6.31230532E-05
  5.04965070E-05 -5.75726416E-05  4.17298490E-05  5.01928272E-05 -2.23604569E-06
 -5.02659334E-06 -2.28062048E-06 -5.19927142E-06 -1.41407377E-08 -3.67902185E-06
 -1.95611992E-05 -1.23904981E-05 -1.06592369E-05  5.08062734E-06 -4.32642063E-06
  1.16262611E-06 -1.61358053E-04 -4.79667180E-04 -5.69091014E-05 -2.48975166E-05
 -2.30360688E-04 -6.88804399E-04 -8.58143256E-05  1.05317323E-05 -1.94472215E-04
 -5.79723134E-04 -5.09552699E-05 -2.15292929E-05 -1.21104908E-05 -4.20686914E-05
 -8.73533004E-06 -1.73821631E-06 -1.78702124E-06 -6.33670109E-06  1.95826376E-06
 -7.57666864E-05 -6.63935559E-05  1.62493336E-05 -9.16939520E-05  3.99314465E-05
  1.18508514E-05  2.07885839E-05 -1.47904319E-04  6.80525227E-05  6.12230360E-06
  5.12605683E-05 -5.62082742E-05  7.12510965E-05  5.46636473E-04  6.99520126E-05
  1.57899253E-04 -5.55482907E-05 -5.02874218E-06  3.22523094E-06  1.18227678E-05
  5.96396153E-06 -2.60786749E-07 -2.18940503E-05  6.06522445E-06  3.01922232E-05
  2.03300074E-05  9.06747353E-06  1.01075508E-05  2.74291849E-05  2.25719816E-04
 -1.92141465E-05  1.07733300E-04 -1.18908591E-04  3.39903730E-04 -3.53826821E-05
  1.66029735E-04  8.81411678E-05  1.58685071E-04 -1.14348671E-04 -1.29296397E-05
 -4.74245803E-04  1.67726447E-04  3.22848063E-05 -1.10108845E-04 -2.54288568E-05
 -1.06379044E-05 -2.19369109E-06 -4.02864866E-06  3.70097322E-07 -4.88719073E-05
 -4.02713713E-05 -1.62480471E-05  6.21565836E-06  3.00065159E-05  2.47585819E-06
  7.09373087E-06 -1.35851753E-05 -2.46292669E-05  3.45202714E-05  1.16146941E-05
 -7.46507947E-05 -4.52484847E-06 -2.23804740E-05  1.89195848E-05  1.85776237E-05
 -2.84842429E-05  1.53128275E-05 -7.07373612E-06  1.06471647E-05 -5.76380615E-06
 -2.09447907E-05  3.52884534E-05 -2.13602113E-05 -4.91191887E-05  6.77297774E-05
 -4.25432724E-05 -3.56871472E-05  6.54711015E-05 -1.55513724E-05  1.18711669E-06
 -2.15911307E-06  4.97169347E-06  5.19914574E-07 -2.04045434E-06  1.91278808E-06
 -3.33500499E-06  1.43466527E-05 -1.31049389E-06 -5.52729762E-06 -3.00661543E-07
 -1.20938613E-06  2.62347759E-06  2.46325334E-07  1.05457487E-05 -8.02110968E-06
  5.20553865E-05  5.00091811E-06 -1.45258304E-05  1.91192154E-05 -1.82660331E-05
 -8.44595549E-05  4.90966503E-05  6.67692321E-06  3.15554010E-05 -1.85926357E-05
  1.97385590E-05  9.76558196E-05 -6.01347356E-05  3.92546026E-05  2.03546323E-04
 -1.29043398E-04  8.54614429E-06  1.21777936E-04 -9.60776842E-05 -2.94832786E-06
  3.93881801E-06  4.93247420E-06  1.91516959E-06  6.81780166E-06 -7.39365886E-06
  9.36996895E-06  9.42179644E-06  9.05663687E-06  1.02116725E-05  3.35599988E-05
  5.64429210E-05  4.07056275E-04 -1.91343720E-04 -8.60643925E-05 -1.73309685E-04
  5.85440682E-04 -2.76798526E-04 -1.28518022E-04 -1.17849051E-04  4.92861868E-04
 -2.31414528E-04 -8.97008193E-05 -5.60460875E-05  1.87988798E-05 -2.27367311E-05
 -3.27923480E-05 -2.52075591E-06  5.51678939E-06 -2.90214582E-06  4.73666059E-08
  1.91935134E-06 -4.31773057E-04 -2.11150551E-04  3.56179159E-04 -1.12918445E-03
  2.84963071E-04 -7.93907523E-04  9.64274717E-04 -1.37709421E-03  2.39103452E-04
  2.06418858E-04  4.68789927E-04 -1.97214921E-03 -1.82763533E-03 -1.44131518E-02
 -5.03737874E-03 -5.85267494E-03 -3.03151039E-03  1.46833886E-04 -1.39435413E-04
  5.44004093E-05  1.14258222E-04 -6.15716042E-05  2.47832758E-04 -5.44954817E-04
 -1.09028743E-04  4.11628655E-04 -1.37885258E-04 -4.05005113E-03 -5.30213296E-03
  2.26727588E-03 -3.49262772E-03 -6.12468559E-03  1.16279038E-02  3.49120531E-03
 -4.97749259E-03 -8.44355929E-03 -1.07270242E-03  2.25599124E-03 -4.05308106E-04
  1.20734712E-03  1.79571032E-02  1.37790224E-04  6.36111587E-04  5.63047424E-03
  9.34931529E-04 -2.20092253E-04  7.03056788E-04 -1.68178204E-04 -6.55525328E-05
  2.93419970E-04  5.52231797E-06  6.39396571E-04 -3.06189240E-05 -6.23730962E-04
  8.10135661E-05  2.37241431E-04 -4.60676889E-04 -7.54938337E-04  8.17102157E-04
  1.63650900E-03  5.76122009E-03  7.07018856E-04  1.41168854E-04 -1.01585526E-03
  2.33771077E-04 -2.78382124E-04  4.42886580E-04 -8.69020222E-05  1.05150025E-04
 -1.69150436E-04 -3.16993909E-04  3.32418541E-04 -4.19985308E-04 -5.09992832E-04
  7.31813076E-04 -1.24513906E-03 -4.49124308E-04  4.70693067E-04 -1.23346331E-03
 -4.50988447E-05  2.08199490E-06  7.16719503E-05 -8.32432173E-06  1.28073138E-06
 -5.57450700E-05 -1.82686188E-05  1.67590408E-04 -2.82001825E-05 -5.92673190E-05
  6.60019386E-06  2.15226121E-05 -3.13083344E-05 -8.80944892E-07 -2.10139664E-04
 -5.34511956E-04 -5.44055686E-03 -2.39511524E-04 -7.54496494E-04 -5.21856838E-04
  4.80635491E-04 -2.36976260E-05 -4.75769138E-04 -1.79132776E-04  1.00184268E-05
  1.75539308E-04 -6.41593910E-04 -3.77107102E-05  5.35895055E-04 -1.26601276E-03
 -2.11436322E-05  1.05316139E-03 -1.25216775E-03 -2.96199705E-04  6.51851625E-04
  2.44965171E-05  5.44761263E-06  5.21530683E-06  6.89660226E-05 -4.34049168E-06
  1.01239979E-04 -5.01843618E-05  9.31198091E-06  1.96583938E-04  8.23757113E-05
 -2.77428481E-03 -3.91462238E-03  7.73391245E-04 -2.48071986E-03  1.29797343E-02
  9.24119178E-03  1.08463658E-03 -3.44870214E-03  1.90730069E-02  6.36422428E-03
  9.32525921E-04 -3.34981109E-03  1.50087611E-02 -1.08849607E-04 -4.18737286E-05
 -2.54063713E-04  7.09843615E-04  3.10456985E-04 -2.02271358E-05  7.81558027E-05
 -2.29891573E-06 -3.94595674E-06  1.46674320E-03  5.09960296E-04  5.99875478E-04
  9.12609980E-04 -1.49717048E-03  9.48956584E-04 -1.15709972E-03  1.36449666E-03
 -2.52711978E-03  1.27895253E-03 -1.52723264E-03  8.64816051E-04 -1.67566650E-03
  1.55587959E-03  1.79006404E-02  5.35487121E-04  2.07453379E-03 -2.23090279E-03
 -2.09629010E-04  3.77638165E-05  1.73832263E-04  1.24718421E-04  2.21531306E-05
 -4.12200172E-04 -1.32370623E-04  3.63213547E-04  4.58681723E-04  7.61485209E-05
  3.36472003E-04  4.59726043E-04  4.96928390E-03 -3.99526732E-04  2.11376035E-03
 -1.07735159E-03  7.57603199E-03 -6.84487209E-04  3.12545950E-03  1.88175642E-03
  2.78115026E-03 -2.44989750E-03  1.54225066E-03 -1.39271067E-02  4.80154790E-03
  1.85536473E-03 -2.60721085E-03 -2.93345414E-04 -3.97038064E-04 -7.05035788E-05
 -5.73509621E-05 -1.04554041E-04 -2.09176795E-05 -1.20184767E-03 -2.79835291E-04
  2.32966113E-04 -1.36234617E-04 -8.82050362E-05 -2.60290768E-04  5.09586621E-04
  8.28764194E-04 -9.24909153E-04 -1.07851409E-03 -1.44479600E-03  1.93976875E-05
 -4.09014472E-04  4.11928639E-04  3.84401494E-04 -7.91002649E-04 -6.07204893E-05
 -1.44357256E-04  2.97315616E-04  2.08796880E-05 -4.74186647E-04  9.15710435E-04
  1.37171957E-05 -9.67942654E-04  1.93177972E-03  5.84621715E-05 -7.84996231E-04
  1.63279613E-03  1.66057955E-04 -5.13795965E-05 -6.60024964E-05  5.73738870E-05
  1.12016092E-05 -8.12490422E-06 -1.12741893E-04 -2.08339026E-04  9.90983803E-05
  2.59241182E-06 -3.90936208E-05  4.55043143E-05  1.32786261E-04 -2.62180928E-04
 -5.05276698E-04  8.56060028E-04  4.86691668E-04 -2.18178848E-03 -8.78530576E-05
 -7.21092067E-04 -2.61617428E-04  2.73572266E-04 -6.09507899E-04 -3.17158298E-04
 -1.06323929E-04  2.26288712E-04  1.20289814E-04 -2.72816264E-04  8.07450420E-04
  3.02428217E-04 -6.87942659E-04  1.58206716E-03  7.47145617E-04 -7.14637106E-04
  1.02903504E-03  2.27275019E-04 -9.04249212E-07  8.26260191E-05  8.49310876E-05
  8.82131921E-05  3.15512119E-05 -4.53667360E-05  2.97877159E-04  2.55784311E-04
  2.76247947E-04 -5.55425271E-05  5.60140653E-04  7.79168320E-04  1.24130527E-02
 -4.52290653E-04 -9.97303036E-04 -1.80084170E-03  1.78264721E-02 -7.02919986E-04
 -1.50831598E-03 -1.39419003E-03  1.52520441E-02 -4.04411291E-04 -1.12192170E-03
  6.44730890E-04  8.22600462E-04  1.71770081E-04  1.46690055E-04 -2.73723799E-05
  1.43162513E-04 -2.43121027E-05 -9.27230212E-06  3.82204128E-05 -1.42563164E-05
  1.04409210E-03  4.34865831E-04  6.64398864E-04 -1.96306119E-03  2.02079587E-04
  2.29207007E-04 -1.90118316E-03 -2.93254212E-03  3.60423804E-04 -3.01869104E-05
 -1.76665730E-03 -2.36209499E-03 -2.32815166E-04 -5.08457667E-04  1.30035126E-02
 -1.24296410E-04 -3.40952444E-03 -4.12363504E-03 -1.14206629E-05  1.60537129E-04
 -2.81512083E-05 -1.52642093E-04  6.36699812E-06  1.54763871E-04  9.22974539E-05
 -4.22231783E-04 -3.38197321E-04  1.25913418E-05 -2.31412167E-03 -3.01617853E-03
 -2.86936634E-04  3.86937498E-03 -3.98885988E-03  6.57415728E-03 -4.62232874E-04
  6.08193613E-03 -5.58886383E-03  1.70865319E-03 -2.19585332E-03  2.68475355E-03
  4.91227110E-04 -5.69028118E-03  2.89202804E-03  5.49437666E-03 -5.87219773E-04
  6.00419723E-04 -4.43112040E-06 -7.01112383E-05  1.23526607E-04  8.30481861E-05
  8.27453020E-04 -3.78152376E-04 -9.32370537E-04  3.00989046E-04 -1.96081021E-04
 -5.28192544E-05 -1.56741352E-04  3.07873081E-04  4.97057333E-04 -5.57234662E-04
 -2.13751891E-04  2.12692558E-03 -1.57040131E-04  1.33614780E-04 -4.09273402E-04
 -8.18668878E-04  5.22506135E-05 -2.47432729E-04  3.09028285E-04 -1.99857694E-05
  8.94331683E-05  9.43601037E-04 -1.06212154E-04  2.99422601E-04  2.07337316E-03
 -1.61250368E-04  4.41495978E-04  1.65904815E-03 -1.55247928E-04  3.04943114E-04
 -2.46044183E-06  8.31639916E-05 -3.28563153E-05 -2.04899803E-05  3.76197592E-05
  4.31545149E-05  1.64921955E-04 -1.24506968E-04  5.24247077E-06  4.60326657E-05
  7.65406867E-05  2.24220079E-04 -4.35477572E-04 -7.87420393E-04  1.14511926E-03
  4.47779697E-04 -6.43007461E-03 -8.82127844E-04 -9.61736419E-04 -7.95175320E-04
 -3.39822755E-04 -1.16936125E-04 -6.60036934E-04  1.25261843E-04  4.01550093E-05
  2.47621559E-04  4.72962982E-04  1.45295209E-04  6.99673766E-04  8.84191657E-04
  2.28163168E-04  1.55400549E-03  4.21258964E-04 -4.61780100E-04  8.38227141E-04
 -7.14702642E-06  4.07486522E-05  6.79185488E-05 -1.23123572E-04 -7.09335648E-06
 -2.72035229E-05  1.80272672E-04  1.94803170E-04 -3.44066341E-04 -1.43238054E-04
 -1.21563173E-03 -1.72735709E-03 -4.55083138E-04  1.19120031E-02  2.30865326E-03
  4.11714511E-03 -6.99087156E-04  1.71420393E-02  3.50344347E-03  2.64801029E-03
 -4.48140115E-04  1.45026003E-02  2.37285329E-03  6.51097249E-04  8.55233841E-05
  8.64530332E-04  3.25901470E-04  7.16907031E-05 -1.99904395E-05  1.70673047E-04
 -3.66874643E-05 -1.87551928E-05  1.66279111E-04 -1.55715638E-04  1.07234544E-03
 -2.06697177E-04 -2.49911823E-04  1.69353702E-04  2.38423626E-04 -1.65375087E-04
  5.09979896E-04  2.70017833E-04  3.97480810E-04 -1.58026703E-04  5.85673163E-04
  2.17245029E-04  3.71670744E-04 -1.75785641E-04 -5.64870964E-03 -3.24430360E-04
  3.91675048E-04  1.09570678E-03  3.64828868E-05 -3.57746076E-05 -2.25374960E-05
  2.72342278E-05 -1.86998348E-06  1.52411103E-05  6.48078803E-06  8.10895365E-06
  8.50293369E-05  1.95195105E-05  3.55637741E-04  4.64452712E-04 -4.66423292E-04
 -9.09279636E-04  4.58353917E-04 -1.01911510E-03 -7.02494188E-04 -1.41009977E-03
  6.17997911E-04 -6.74167278E-04  1.56577324E-04 -2.44214424E-04 -2.70744622E-04
  3.65758945E-03 -1.18250221E-03 -1.48688878E-03  6.83491348E-04 -8.13885546E-05
  2.72664155E-05  7.14204740E-05 -1.24077888E-05 -1.49829994E-05 -2.03588944E-04
  2.03458277E-04  3.36513444E-04 -5.11518248E-05  2.95611593E-05  2.38563207E-05
  7.03987754E-05 -1.37333298E-04 -2.22788267E-04  2.42717680E-04  2.15935848E-04
 -1.43677340E-04  4.91537515E-05  3.02274183E-05  2.29197443E-05 -7.02761804E-05
  2.55509184E-04  1.75678575E-05  2.64508707E-05 -9.61062263E-05 -5.75259566E-06
  8.61868707E-05 -2.87157258E-04 -1.36202758E-05  1.76985402E-04 -6.24844540E-04
 -1.03843521E-05  8.45500555E-05 -4.50912364E-04 -1.73099068E-05  1.15473845E-05
 -1.28089634E-06 -1.28463423E-06  4.66023560E-06 -2.67297381E-06  2.22155182E-05
  7.64436991E-06  7.68863360E-06 -6.24619377E-07  4.06100718E-06 -2.83833169E-05
 -8.26933292E-05  1.62114084E-04  2.98026137E-04 -4.50926550E-04 -2.53536311E-04
  1.54902904E-03  2.82370427E-04  2.36219285E-04  1.90473632E-04  3.20233651E-04
 -4.92137693E-05  1.08985824E-04 -1.19378713E-04  1.98663208E-05 -4.11519466E-05
 -3.92534961E-04  3.88667224E-05 -1.03606569E-04 -7.96059035E-04  1.21314150E-04
 -2.55976195E-04 -4.03576188E-04  1.65349574E-04 -8.98379717E-05  3.87854533E-06
 -2.68381073E-05 -2.26752075E-05 -5.12633566E-06 -1.26280545E-05  1.59223893E-05
 -9.82939211E-05 -7.09505693E-05 -1.38249421E-06  1.95929022E-05  1.37637850E-04
  1.97497838E-04 -9.82706484E-04 -3.11639970E-03  1.56853671E-04 -4.76277226E-04
 -1.40176816E-03 -4.47410255E-03  2.05589620E-04 -2.69364231E-04 -1.22266538E-03
 -3.82903392E-03  2.57743600E-04 -1.95188586E-04 -6.07001379E-05 -2.91657300E-04
 -3.00710847E-05 -1.36375695E-06 -1.06698996E-05 -3.59051095E-05  1.03844126E-05
  4.80136587E-07  2.30670519E-05 -6.79813894E-05 -2.37490404E-04  6.84885678E-05
  2.78982964E-04  2.04398107E-04  4.78434108E-04 -4.14457936E-04 -7.81500468E-05
  1.04733324E-04  6.87717061E-04 -7.22007517E-04 -8.93929736E-05 -1.46381048E-04
  4.90158448E-04 -4.13792697E-04  1.68733036E-04  2.86375163E-03  7.66666834E-05
  7.28959135E-04 -4.13769935E-04 -2.94150105E-05 -5.42895204E-06  5.94718234E-05
  4.67980140E-05  1.84200942E-07  7.09842043E-05  8.86789776E-06  2.71238023E-04
  1.48290952E-04 -1.02694515E-04  9.94681624E-05  1.05258591E-04  1.23055222E-03
 -7.43559387E-04  5.21062842E-04 -1.22368805E-04  1.87179576E-03 -1.13855750E-03
  8.31804526E-04  4.03777454E-04  9.25131485E-04 -9.21892893E-04  2.79636330E-04
 -2.66806667E-03  9.16463118E-04 -1.08121794E-04 -5.55209795E-04 -9.16094524E-05
 -1.32936345E-04 -4.47402303E-06 -2.41898193E-05 -2.02949476E-05 -8.09502089E-05
 -3.62837032E-04 -6.70453817E-05  6.88745942E-05 -2.25284010E-05 -3.01438585E-06
 -7.96088385E-06  1.16566862E-05  1.95802181E-05  1.51990941E-05 -5.74418386E-05
 -1.36780117E-04  6.57215805E-05 -1.20298346E-04 -4.25510346E-06  1.63311004E-04
 -1.78192825E-04 -2.27705102E-05 -6.19657821E-05  6.67750630E-05  9.52355107E-06
 -1.96766335E-04  2.13545123E-04  2.11567708E-05 -4.37748728E-04  4.38063941E-04
  1.34893887E-04 -3.69379493E-04  3.18592264E-04 -6.78603052E-06 -2.31649987E-05
 -2.66404221E-05  2.73046932E-06  1.01264348E-05 -1.57605550E-05 -8.27243258E-05
 -4.73054879E-05  1.40627865E-05  6.12197494E-06 -4.09782755E-05  4.23819874E-05
  1.21983620E-04 -2.41824087E-04 -4.37644449E-04  6.29194794E-04  5.58188668E-04
 -1.79036046E-04 -4.25105164E-05 -1.85470711E-04  1.55582664E-04 -2.39489545E-04
 -3.09199816E-04  8.21054557E-04  8.91250937E-05  1.15625483E-04 -3.08280497E-04
  2.69203239E-04  3.69847692E-04 -9.57942967E-04  5.64584199E-04  7.77661588E-04
 -1.99696309E-03  2.66793804E-04  5.20555731E-04 -1.27860211E-03 -2.81362894E-05
  5.62477427E-06 -5.52805662E-06  3.23075806E-05  3.58425097E-05 -5.89353588E-05
  4.18111683E-05  2.17081341E-05  9.42621829E-05  6.21132804E-05 -6.50579545E-06
 -5.34986254E-06  3.31446752E-03 -1.16455110E-03  8.24476809E-05 -5.58499385E-06
  4.76524667E-03 -1.68001107E-03  1.04276698E-04 -6.32078560E-06  4.04071116E-03
 -1.42339202E-03  1.24686139E-04 -1.39696982E-04  2.71335703E-04 -1.29954920E-05
 -7.28603314E-05  1.47690420E-06  3.73983685E-05 -1.57661450E-05  2.99506927E-07
  1.17397407E-05  5.50436517E-05  2.64770499E-04 -1.26318188E-04  4.84900655E-06
  9.09741401E-05  2.40586914E-04  3.43772048E-04 -5.72348164E-04 -6.31073828E-04
  1.31203699E-04 -4.27714122E-04 -4.60309645E-04 -5.12616159E-04  9.16665742E-05
 -3.50157611E-03  2.31939226E-04  1.53176440E-03  3.42160417E-03 -1.67559468E-02
 -1.91332921E-03 -1.53763678E-03  1.99589864E-03  7.97139703E-05  1.81319465E-06
  5.90948896E-05 -1.22247746E-05  6.30734045E-06 -1.39353947E-03  3.80328939E-04
 -3.19973243E-04 -7.31338898E-05  4.24550774E-04 -2.79368590E-04 -3.69031076E-04
  9.82378801E-04  1.24845972E-03  2.24728900E-04  1.88871643E-04  1.67015151E-03
  2.18922081E-03  5.63742641E-04 -2.50659677E-03 -3.99468376E-03 -5.91160527E-03
 -3.18811073E-03  3.17861699E-02  3.13470828E-03  5.51060609E-03  4.87491657E-03
 -2.01403589E-04  1.79362657E-04  2.05768256E-04 -1.19725279E-04  3.14794343E-04
 -1.77115019E-03  1.01157116E-03  5.47175767E-04 -4.84955286E-04  1.32498166E-03
 -9.38753564E-06 -2.82539104E-05  7.77967624E-05  2.57146617E-05 -2.89446870E-05
 -4.10955799E-04  5.58544675E-04  3.04913169E-04  2.43588910E-04 -3.22350579E-04
  2.50334886E-04  2.66487597E-04 -8.34532389E-05 -9.18666831E-05 -9.95703845E-05
  2.57783655E-05 -3.06770892E-04 -3.05534911E-04  1.59617755E-04 -5.65416522E-04
 -7.72044673E-04 -2.75249502E-04 -4.11562938E-04 -3.59054168E-04  3.52923874E-04
 -3.97787303E-05  2.64008042E-05  6.71116726E-06 -6.10979960E-06  4.60905129E-06
  1.10995731E-04  5.41448318E-05  1.75850797E-04 -5.55600460E-05  8.66663203E-05
 -3.92449647E-06 -1.15741629E-05  2.52268658E-05  5.54419559E-05 -2.03794649E-04
  9.22857445E-04  4.89202463E-03  8.89097818E-04  9.60697755E-04 -2.57167690E-04
 -1.99181701E-04 -2.19631107E-04  4.56176136E-05  8.39877697E-05  9.18612511E-05
 -2.12746059E-05  1.51771418E-04  1.72946237E-04 -1.95317129E-05  7.99717411E-04
  8.28397844E-04 -3.28609675E-04  6.16125343E-04  7.29158239E-04 -5.81673337E-06
  8.51127475E-06  8.36564291E-06  2.94612748E-05 -1.25258190E-05  3.38264468E-05
 -1.76210313E-04 -3.20113340E-05 -9.39942633E-05 -5.80074320E-06  1.62678008E-04
  8.33411653E-05  1.32249204E-04 -7.49590216E-04 -1.06685458E-03 -4.82646885E-04
 -3.57973078E-04 -1.13941985E-03 -1.54438695E-03 -5.23132737E-04  4.68610143E-04
 -3.35143607E-04 -5.18656636E-04 -3.29119058E-04 -2.54572251E-03  1.10950573E-04
 -2.41457966E-04 -1.01642588E-03 -1.70154106E-05 -1.78952976E-05 -2.74036461E-05
  5.26369300E-06  1.47196686E-05 -3.36243754E-05  9.81067663E-05  8.33338914E-05
 -2.50389205E-05 -3.15404934E-05  3.71493944E-01  7.01211850E-04  9.87418115E-04
 -1.64370760E-03 -1.81733039E-03  3.63265264E-04 -1.19176229E-03 -1.30601092E-03
 -1.45545304E-03  2.57260589E-04 -1.01542571E-02  6.68651644E-04  4.42600157E-03
  9.89160940E-03 -4.79522386E-02 -5.45562926E-03 -4.38178570E-03  5.69814694E-03
  2.37147568E-04  1.69276553E-06  1.70785162E-04 -3.46425235E-05  1.74234656E-05
 -4.07737871E-03  1.12186649E-03 -9.24830552E-04 -2.17649422E-04  1.24321989E-03
 -7.81147437E-04 -1.00985113E-03  2.77547144E-03  3.52524522E-03  6.29542236E-04
  3.86878700E-04  4.72878893E-03  6.20197548E-03  1.60573201E-03 -7.19750130E-03
 -1.15358139E-02 -1.70677078E-02 -9.19631771E-03  9.11773621E-02  9.04866206E-03
  1.58726280E-02  1.39785274E-02 -5.64751256E-04  5.07400731E-04  5.82973630E-04
 -3.37760205E-04  8.84172821E-04 -5.16763658E-03  2.94910811E-03  1.59160031E-03
 -1.41279550E-03  3.86070072E-03 -2.81992476E-05 -8.91332965E-05  2.46372388E-04
  8.64014518E-05 -8.53487756E-05 -1.17575938E-03  1.59078797E-03  8.66965918E-04
  6.90929390E-04 -9.21111005E-04  7.12475880E-04  7.55515596E-04 -2.45512661E-04
 -2.61275152E-04 -2.82764008E-04  7.44612705E-05 -8.72604094E-04 -8.63812612E-04
  4.68417047E-04 -1.60967892E-03 -2.20830845E-03 -8.11896343E-04 -1.16986226E-03
 -1.01517290E-03  1.01800700E-03 -1.13920137E-04  7.55653121E-05  1.88581008E-05
 -1.72909733E-05  1.24222743E-05  3.28624705E-04  1.57499551E-04  5.14250522E-04
 -1.61600797E-04  2.49105209E-04 -1.14237602E-05 -3.33302465E-05  7.15714004E-05
  1.61243137E-04 -5.92993793E-04  2.66827387E-03  1.40722796E-02  2.55499426E-03
  2.76191750E-03 -7.35845072E-04 -5.66615095E-04 -6.26412240E-04  1.25348296E-04
  2.42535705E-04  2.65770062E-04 -6.00807955E-05  4.27066950E-04  4.89393172E-04
 -4.74948176E-05  2.30109872E-03  2.38305324E-03 -9.47092782E-04  1.76922267E-03
  2.09724110E-03 -7.33949866E-06  2.47999921E-05  2.35517382E-05  8.43476936E-05
 -3.58807723E-05  9.73169105E-05 -5.13133306E-04 -9.64895854E-05 -2.78550409E-04
 -1.51228204E-05  4.71547665E-04  2.43763632E-04  3.81732810E-04 -2.15479964E-03
 -3.06936671E-03 -1.39437534E-03 -1.02201421E-03 -3.27812592E-03 -4.44157589E-03
 -1.50058177E-03  1.38663773E-03 -9.39799932E-04 -1.46046730E-03 -9.39412055E-04
 -7.33854263E-03  3.16790465E-04 -6.98218966E-04 -2.92611142E-03 -4.84242033E-05
 -5.58648226E-05 -8.33503543E-05  1.64609340E-05  4.34402239E-05 -9.78260151E-05
  2.92656872E-04  2.50531709E-04 -7.51581337E-05 -9.34524439E-05  6.26627956E-01
  1.09388906E+00 -1.49015714E-03 -2.06680945E-03  3.34732567E-03  3.73282602E-03
 -6.52834027E-04  2.63042441E-03  2.77841476E-03  3.15335236E-03 -3.92058943E-04
  1.93481841E-02 -1.31514123E-03 -8.56819028E-03 -1.90819957E-02  9.47863952E-02
  1.05609090E-02  8.19854364E-03 -1.18028349E-02 -4.58236634E-04 -1.99897557E-05
 -3.42333446E-04  6.83742032E-05 -1.38162815E-05  7.80890184E-03 -2.14920800E-03
  1.76828845E-03  4.18409042E-04 -2.38641317E-03  1.38979214E-03  1.67864083E-03
 -5.39244043E-03 -6.84943822E-03 -1.22385175E-03  3.41105268E-04 -9.07724356E-03
 -1.19016034E-02 -3.07268548E-03  1.52994780E-02  2.24410144E-02  3.32094162E-02
  1.79090155E-02 -1.75911955E-01 -1.63167148E-02 -2.92860254E-02 -2.70149157E-02
  1.15865278E-03 -1.03253698E-03 -1.16653908E-03  6.77931575E-04 -1.76579978E-03
  1.00618445E-02 -5.74956764E-03 -3.12482455E-03  2.76400275E-03 -7.55937039E-03
  7.71017607E-05  2.44645005E-04 -6.14495074E-04 -3.75510808E-04  3.44946414E-04
  2.44056264E-03 -2.62443846E-03 -1.62949098E-03 -1.30150034E-03  1.72341449E-03
 -1.40864912E-03 -1.47563124E-03  5.34785545E-04  5.16895047E-04  5.53357126E-04
 -1.63802750E-04  1.72149854E-03  1.69128832E-03 -9.59183777E-04  3.19817024E-03
  4.31168685E-03  1.40633113E-03  2.28089454E-03  1.96252594E-03 -2.03053931E-03
  2.39934361E-04 -1.59972669E-04 -4.02132233E-05  3.64198680E-05 -2.49146972E-05
 -5.77414995E-04 -3.23604120E-04 -9.84420395E-04  3.16403784E-04 -4.97981948E-04
  2.34826362E-05  6.74435087E-05 -1.42537628E-04 -3.29574228E-04  1.19337255E-03
 -5.11854165E-03 -2.75902010E-02 -4.94956056E-03 -5.36981807E-03  1.37269674E-03
  1.15364345E-03  1.28775178E-03 -2.21572872E-04 -4.95236307E-04 -5.47129204E-04
  1.10566570E-04 -8.96637568E-04 -1.03771376E-03  7.19003971E-05 -4.60412711E-03
 -4.80284373E-03  1.80042518E-03 -3.47478756E-03 -4.12597313E-03 -4.51902910E-06
 -3.64056550E-05 -5.03996467E-05 -1.69676934E-04  7.50317692E-05 -2.09618325E-04
  1.00608692E-03  1.84880176E-04  5.29542370E-04  3.82712049E-05 -9.53046346E-04
 -5.19568111E-04 -7.97541572E-04  4.45858240E-03  6.35660896E-03  2.90059479E-03
  2.09226768E-03  6.75252410E-03  9.19459970E-03  3.21501266E-03 -2.72278597E-03
  2.20794882E-03  3.34677987E-03  1.97732640E-03  1.39361827E-02 -6.76755897E-04
  1.22534807E-03  5.52578573E-03  1.01041198E-04  1.12780655E-04  1.71620390E-04
 -3.43267890E-05 -8.49103531E-05  2.19453459E-04 -5.36304364E-04 -4.30179261E-04
  1.31761249E-04  1.75072309E-04 -1.26246686E-01 -3.55592664E-01  5.97170919E-01
 -2.48944097E-03 -3.69969031E-03  6.35942269E-03  6.93118307E-03 -1.67770369E-03
  5.90434290E-03  5.75001014E-03  6.35073046E-03 -1.28855999E-03  3.13946845E-02
 -2.13061192E-03 -1.42275102E-02 -3.18574608E-02  1.67649854E-01  1.88779461E-02
  1.40686687E-02 -2.26954125E-02 -7.28261004E-04 -1.03839547E-04 -6.13713986E-04
  1.25005431E-04  2.22590477E-05  1.25465202E-02 -3.23401233E-03  3.06334695E-03
  6.16241482E-04 -3.94263087E-03  2.56034454E-03  3.36769289E-03 -1.07023241E-02
 -1.35260300E-02 -2.24380447E-03 -1.06804217E-03 -1.75525268E-02 -2.27997435E-02
 -5.35820977E-03  2.78869024E-02  3.71377050E-02  5.51612604E-02  3.01902840E-02
 -2.99031990E-01 -2.38066625E-02 -4.51597089E-02 -4.60333985E-02  2.25973777E-03
 -1.99963288E-03 -2.23293716E-03  1.30144278E-03 -3.38121301E-03  1.67918151E-02
 -9.70155164E-03 -5.43121441E-03  4.70662342E-03 -1.28344676E-02  2.81444488E-05
  9.40813837E-05 -3.92269622E-04  1.64730605E-04  1.44650981E-04  3.67910211E-03
 -2.75006167E-03 -2.90141140E-03 -2.49458496E-03  2.58574060E-03 -3.05492660E-03
 -3.35248405E-03  7.44656387E-04  1.12799714E-03  1.25726607E-03 -2.22017219E-04
  3.69238116E-03  3.86084045E-03 -1.42144218E-03  7.06745237E-03  9.29366911E-03
  2.46873586E-03  4.88235384E-03  4.58219779E-03 -3.30649021E-03  4.18246264E-04
 -3.14551443E-04 -1.18159091E-04  7.99036436E-05 -5.55026112E-05 -8.64216516E-04
 -5.94875455E-04 -1.66339319E-03  5.49712215E-04 -8.85837146E-04  6.12116159E-05
  1.80060578E-04 -3.84891149E-04 -8.13531509E-04  2.39974758E-03 -8.16358258E-03
 -4.66921200E-02 -8.27652030E-03 -9.01755535E-03  2.19114577E-03  2.28791009E-03
  2.45731208E-03 -7.02241205E-04 -9.52732475E-04 -1.01737243E-03  3.08491480E-04
 -1.89398383E-03 -2.06539373E-03  4.96424382E-04 -8.48622696E-03 -8.68596105E-03
  3.77174392E-03 -6.24515407E-03 -7.16475629E-03  6.74348364E-04 -6.54100346E-05
 -1.06595106E-04 -3.27041148E-04  1.42551606E-04 -3.83504409E-04  1.63304302E-03
  2.82005095E-04  7.97102222E-04  9.38466211E-05 -1.64836504E-03 -7.77295162E-04
 -1.26090582E-03  8.46605042E-03  1.18732526E-02  4.97150079E-03  3.56854486E-03
  1.27141483E-02  1.71670153E-02  5.65760833E-03 -4.67991951E-03  5.15233640E-03
  7.33491464E-03  3.32099927E-03  2.30193535E-02 -1.17691952E-03  1.93951941E-03
  9.08818400E-03  1.83086356E-04  1.67682440E-04  2.72183047E-04 -5.18397400E-05
 -1.39729162E-04  3.78930687E-04 -7.88275613E-04 -5.94228876E-04  1.86846418E-04
  2.56349412E-04 -1.83915864E-01 -4.95886441E-01  7.93772870E-01  1.08852348E+00
  4.78247223E-03  7.14946065E-03 -1.10783541E-02 -1.19742525E-02  3.19611575E-03
 -1.43579010E-02 -1.19840264E-02 -1.33178594E-02  2.46426811E-03 -3.38781697E-02
  2.31447672E-03  1.66355736E-02  3.78213397E-02 -2.41227631E-01 -2.49929840E-02
 -1.50957141E-02  3.96606985E-02  7.16930221E-04  4.62524091E-04  9.37899181E-04
 -1.95826532E-04 -2.79281342E-04 -1.32092209E-02  2.79241062E-03 -3.85524997E-03
 -4.86832122E-04  4.43188012E-03 -1.97062911E-03 -2.20920135E-03  1.66572599E-02
  2.09170786E-02  3.12499001E-03 -6.08849544E-03  2.58253979E-02  3.30903122E-02
  6.64402478E-03 -4.79349055E-02 -4.40391598E-02 -6.64353809E-02 -3.85871458E-02
  3.76278332E-01  1.39598959E-02  3.79394669E-02  5.81939548E-02 -4.04233563E-03
  3.51867739E-03  3.63922980E-03 -2.13126178E-03  5.33674870E-03 -2.02946983E-02
  1.21438136E-02  7.30181550E-03 -5.98808957E-03  1.60889685E-02 -6.62724428E-05
 -1.94344045E-04  5.45358698E-04  4.45762114E-04 -1.08884939E-03 -5.40434186E-03
 -2.49287166E-03  3.70803100E-03  3.53557047E-03 -2.35742084E-03  5.76460194E-03
  6.35689026E-03 -1.32227356E-03 -2.14460032E-03 -2.38542769E-03  4.36072180E-04
 -6.82933376E-03 -7.41855825E-03  1.87346631E-03 -1.36003415E-02 -1.66624868E-02
 -1.41747871E-03 -8.79244035E-03 -8.82234535E-03  4.40028474E-03 -7.29352841E-04
  6.25860394E-04  3.04366422E-04 -1.71315822E-04  1.08281691E-04  2.88749674E-04
  1.08173830E-03  2.01077598E-03 -7.53300724E-04  1.26077110E-03 -2.51298630E-04
 -7.34203753E-04  1.48923243E-03  2.73107280E-03 -5.24763474E-03  7.34294161E-03
  6.32088075E-02  1.04033407E-02  1.16675207E-02 -1.84856580E-03 -4.18785477E-03
 -4.51964371E-03  1.22587481E-03  1.65416803E-03  1.77378133E-03 -5.15365972E-04
  4.00583259E-03  4.35636613E-03 -1.08218657E-03  1.36598159E-02  1.41998616E-02
 -5.47523219E-03  9.36128719E-03  1.03588236E-02 -2.04692617E-03  2.20643012E-05
  2.25911030E-04  5.64927508E-04 -2.57626393E-04  6.91059324E-04 -1.90534397E-03
 -2.80686683E-04 -6.63895095E-04 -2.55260870E-04  2.44271415E-03  1.60585602E-03
  2.45907807E-03 -1.63851568E-02 -2.24764249E-02 -8.25202239E-03 -6.50424766E-03
 -2.40736131E-02 -3.24497131E-02 -1.05624542E-02  4.96478835E-03 -1.46818454E-02
 -1.96176362E-02 -5.97012072E-03 -2.62664635E-02  1.57345572E-03 -1.85048183E-03
 -1.01279115E-02 -3.27716321E-04 -1.56188593E-04 -3.50279137E-04  6.15566985E-05
  1.56246026E-04 -7.61268034E-04  3.24901046E-04 -2.07597275E-04  2.32395996E-05
 -2.05363657E-04  3.56383457E-02  1.03070979E-01 -2.25638573E-01 -4.53793878E-01
  8.16389695E-01 -1.93748414E-03 -1.66493752E-03 -5.47113648E-03 -6.08552692E-03
  1.10253492E-03  4.87307055E-03 -5.69594780E-03 -6.65336340E-03  2.78459617E-04
 -2.42949092E-02  4.43353325E-03  1.81417908E-02  3.50655033E-02 -2.37149585E-01
 -2.89226794E-02 -2.03771514E-02  3.79807170E-02  1.31446607E-03 -5.16567973E-05
  6.59939595E-04 -3.83364797E-05 -4.35614746E-04 -5.38238440E-03  1.48545600E-03
 -2.21707360E-03  3.26262900E-04 -8.65477000E-04  7.10306848E-03  1.07626284E-02
 -3.23038708E-04 -1.54414007E-03 -3.16767772E-03 -3.72652729E-02 -1.03375569E-03
 -2.26243565E-03 -2.83017856E-03 -7.74943427E-02 -5.65294949E-02 -7.93776872E-02
 -3.34678979E-02  3.74515977E-01  1.46551305E-02  3.92265031E-02  5.94501151E-02
 -1.81824796E-03  1.46722429E-03  2.04440884E-03 -1.25133381E-03  3.77014937E-03
 -1.07951343E-02  5.77065598E-03  2.97003407E-03 -2.87633605E-03  8.35871111E-03
 -4.53147696E-05 -1.09172824E-04  4.06721635E-04  5.12623391E-04 -2.00978284E-03
 -1.03813876E-02 -1.71007707E-04  3.61791564E-03  3.25150559E-03 -2.83905205E-03
  4.50820923E-03  6.90031471E-03  4.23081556E-03 -1.67573261E-03 -2.56337323E-03
 -1.56858962E-03 -5.69913543E-03 -7.99982065E-03 -3.37661734E-03 -1.09449429E-02
 -1.64524460E-02 -9.45669758E-03 -7.82587139E-03 -9.10736183E-03  4.83933424E-04
  1.20150301E-04  2.50055740E-04  3.63954716E-04 -9.66065730E-05 -5.15374050E-05
  7.32006894E-04  7.89476258E-05  1.03211050E-03 -3.90511957E-04  1.09753643E-03
  9.23725728E-04  2.66790525E-03 -5.03457105E-03 -8.09295464E-03  7.07944821E-03
  2.06199533E-02  5.23361856E-02  9.33040485E-03  9.79223455E-03 -3.48782703E-03
 -1.49275060E-03 -3.19710966E-05  4.73870450E-03  6.21186769E-04  8.22581321E-05
 -1.78410123E-03  5.70512721E-04 -1.29844366E-03 -5.38105452E-03  6.19694613E-03
  3.04723319E-03 -1.17325070E-02  4.60056542E-03  3.44672813E-03 -5.48523689E-03
 -1.76537143E-04  7.05096399E-05  2.22789447E-04 -1.62922021E-04  6.44821113E-04
 -2.02528722E-03  6.65790965E-04  3.82990934E-04 -5.86212690E-04  2.39619584E-03
 -1.65399205E-03 -2.14510438E-03  1.98271172E-03  9.27418783E-04 -3.87790134E-03
  5.36654681E-03  2.21579112E-03  1.08372619E-03 -4.20323453E-03  1.17316622E-02
  7.98405662E-03  8.68219028E-03 -2.15397693E-03 -1.60845696E-02  6.54561856E-03
  5.96304274E-03 -4.91645238E-03 -1.87862102E-04 -1.17660226E-04 -2.22736993E-04
  3.84339707E-05  1.19946526E-04 -5.77539682E-04  3.64331829E-04 -7.03788034E-06
 -3.15011444E-05 -1.36657669E-04  5.32569241E-02  1.52683055E-01 -3.04629291E-01
 -5.43536428E-01  7.75457888E-01  7.72358521E-01  9.91121341E-03  1.29574729E-02
  6.33923733E-03 -1.32355360E-03 -2.41082086E-02 -2.82647470E-02  8.05985926E-03
 -4.40437184E-03 -3.80660620E-02 -1.45679335E-02  5.09630453E-03 -9.95251608E-04
 -1.92025559E-02 -4.50152017E-02  9.45710875E-03  3.69061557E-02  6.99245293E-02
 -1.47621525E-03 -4.50890423E-04 -1.43366268E-03  2.81574240E-04  2.97422138E-04
  8.08765483E-03 -4.34618503E-03 -1.79256699E-03  1.88137594E-03 -5.11609739E-03
  3.33144951E-02  4.20992550E-02 -2.33830825E-02 -1.81659825E-02  2.61209620E-02
 -8.39294846E-02 -3.52199157E-02 -2.83558743E-02  3.66375483E-02 -1.97000207E-02
  1.20275478E-03  6.43725001E-03  1.36421406E-02 -4.59335353E-02 -6.10754827E-02
 -8.23311701E-02 -2.67992610E-02 -3.02326699E-03  5.22009598E-04 -2.22991092E-03
  6.74921403E-04 -2.00987556E-03  6.19415640E-03  5.76621361E-04  1.98253927E-03
  8.16826309E-04 -7.37046107E-03  1.77261568E-03  5.07599066E-03 -1.00322453E-02
 -1.59589763E-02  2.08479904E-02  2.80053028E-02 -5.47832191E-02  4.07635751E-03
  6.97199058E-03  5.82669092E-03  2.97185954E-02  2.40261495E-02 -3.06287585E-02
 -1.11394776E-02 -9.02477011E-03  1.14288908E-02 -3.31022756E-02 -2.71043598E-02
  3.31818516E-02 -7.11295505E-02 -5.70305827E-02  7.46011565E-02 -4.52591018E-02
 -4.21358418E-02  3.15391711E-02 -3.97990806E-03  1.14267909E-03 -1.25218181E-03
  1.98693299E-05  1.93199768E-04 -8.78663262E-03  2.31435767E-03 -3.01677340E-03
  1.22461752E-04  4.25765490E-04  4.78570241E-03  1.37413127E-02 -2.62232783E-02
 -4.32245112E-02  4.94132656E-02  5.08439821E-02  3.14864016E-02 -1.21466116E-03
  9.45655627E-04  6.49986982E-03 -1.04840636E-03  4.42660581E-03  1.54183863E-02
  4.19488598E-04 -1.61983621E-03 -5.75764100E-03  1.81609375E-03 -4.28242064E-03
 -1.75022366E-02  4.65197288E-03 -7.49118266E-03 -3.53732196E-02  6.13526323E-03
 -5.51799666E-04 -2.12898559E-02 -2.70833549E-04 -6.95592036E-04 -9.76335799E-04
  2.64668378E-04  1.28105237E-04 -8.00571257E-04 -1.23737035E-03 -1.22239809E-03
  6.09270612E-05  2.05891520E-03 -6.27604189E-03 -1.10026307E-02 -2.31994057E-03
 -2.32208145E-02 -5.56471648E-02  3.80495045E-02 -2.90250805E-03 -3.34634918E-02
 -8.16184451E-02  3.57366724E-02 -4.23793275E-03 -2.82906552E-02 -6.32314359E-02
  1.27616178E-02  3.13238263E-03  4.79199677E-03  2.93844088E-03 -1.11825629E-03
 -7.19840941E-06 -7.93599936E-04  1.56317139E-04 -5.50684023E-05 -4.66019863E-03
 -9.23121577E-04 -4.23406085E-03  8.92286080E-04  1.62693049E-04 -2.11596166E-02
 -6.08246748E-02  1.14322059E-01  1.84188013E-01 -1.92596327E-01 -1.84904375E-01
  1.30901635E-01 -9.30904698E-04 -9.53242520E-04 -2.57498972E-03 -2.41697408E-03
  3.90464663E-03  1.48767348E-03 -3.13606967E-03 -2.69298145E-03  5.25408209E-03
  1.63879222E-03 -2.57334589E-04 -1.12220928E-03  2.69442489E-03 -3.27737077E-02
 -6.92962129E-03 -1.07510289E-02  3.84386160E-03  2.38722811E-04  2.64713089E-04
  1.33361102E-04 -2.25479488E-04  5.62823013E-05 -8.42153916E-04  9.29145075E-04
 -1.33464672E-03 -6.30631105E-04  1.37093846E-03 -3.80980416E-03 -5.25333723E-03
  1.34787551E-03  8.48222662E-03 -3.27889831E-03  1.18799736E-02  2.07843964E-03
  1.35551034E-02 -4.49964339E-03 -5.15729687E-04 -1.89622127E-03  3.33096339E-03
 -2.96602316E-03  4.87823508E-02 -2.39578775E-03  4.15976703E-03  9.13066616E-03
  2.09825469E-04  5.99932751E-04  8.03699655E-04 -6.66826832E-04  4.28671546E-04
 -1.11807927E-03  1.89267401E-03  1.80163282E-03 -3.08596668E-03  7.71506432E-04
 -6.47512067E-06 -1.22437144E-05  7.36191089E-05  1.19802701E-04 -7.76584290E-04
 -1.07844280E-03  1.51715952E-03  1.93021529E-05  2.28310527E-03 -1.63692970E-04
 -3.60029121E-03  2.63697939E-03  2.45079285E-03  1.35076640E-03 -9.88461969E-04
 -9.16798134E-04  4.00367865E-03 -3.08298297E-03 -2.40485466E-03  8.59728531E-03
 -6.57209309E-03 -6.08149330E-03  5.06643438E-03 -3.67572798E-03 -1.98781255E-03
  2.69531818E-04 -1.57991850E-04  3.24025703E-04 -1.05108343E-04  1.30975633E-05
  7.83514935E-04 -2.55103881E-04  7.52259766E-04 -2.47998387E-04  9.36763719E-05
 -5.07031108E-04 -1.45451991E-03  2.80379542E-03  4.68170683E-03 -5.79153889E-03
 -5.87472855E-03 -2.68941038E-03  5.80804154E-05  1.73035695E-04 -1.15877259E-03
 -9.42440002E-04 -3.09906467E-03 -2.28831167E-04  3.53960713E-04  1.15802887E-03
  7.55521422E-05  8.33594931E-04  3.29023054E-03  2.98439277E-04  2.11874861E-03
  7.11137889E-03  1.16926085E-04  4.84843734E-04  3.62620804E-03 -7.75434877E-04
  9.16344751E-05  2.09826247E-04  2.54397176E-04 -5.02739374E-05  1.36486927E-04
  1.14064829E-04  2.31184864E-04  2.43132786E-04  8.18417896E-05  2.35970987E-04
  3.46094836E-04  7.36208577E-04 -8.01770263E-03  2.49127572E-06  5.87392518E-03
 -3.03038744E-03 -1.15356309E-02  5.14547291E-05  8.68797402E-03 -2.35434114E-03
 -9.35890774E-03  4.11851762E-04  6.85211935E-03 -1.66583925E-03 -6.63401519E-04
 -1.43193395E-03 -9.26940186E-05  9.77506651E-05 -9.78794013E-05  7.28030733E-05
 -2.36085347E-05 -1.81916765E-05  3.56860734E-04 -4.61378034E-04  6.89575116E-04
 -1.04758573E-04 -2.32586067E-04  4.33766612E-03  1.24742846E-02 -2.36082655E-02
 -3.85925039E-02  4.25361295E-02  3.86834978E-02 -1.78813213E-02  6.16293089E-03
 -1.09194846E-03 -1.21478580E-03 -3.00344648E-03 -1.04331480E-03  5.04594230E-03
  1.97555448E-03 -3.63206574E-03 -7.70126263E-04  7.58071219E-03  5.20981644E-04
 -1.87069947E-03  9.08243134E-04  4.38099872E-03 -4.60243980E-03 -5.25895401E-03
 -5.94777153E-03 -8.23353916E-03  1.24309051E-04  1.11422848E-04  5.21602066E-04
  1.89607802E-05 -3.03499649E-05 -3.11569864E-03  2.32821913E-04  8.23335227E-04
 -3.41410815E-05  1.54058220E-03 -5.93513082E-03 -8.19273033E-03  1.08141020E-02
  5.28419209E-03 -2.00815321E-03  1.86713708E-02  1.67492216E-02  8.32256986E-03
 -2.23848730E-03  5.28441112E-03  3.69290866E-03 -2.24850121E-03 -2.74951239E-03
  2.59295850E-02  1.04741215E-02  1.19218579E-02  6.98555771E-03  5.53612863E-05
  3.16792637E-04  9.11561311E-04 -4.44067989E-05  7.26598219E-04 -2.76496324E-03
  1.58298511E-03  1.21937094E-03  9.95636656E-04  2.89430651E-03 -1.04859181E-04
 -2.96409350E-04  6.39050371E-04  9.59404956E-04 -1.70077694E-03 -2.56169144E-03
  6.88901241E-03  7.33709476E-04 -1.17183699E-03 -2.40664648E-04 -1.97240351E-03
 -5.29132310E-03  5.76318715E-03  7.37714667E-04  1.98504601E-03 -2.15553928E-03
  2.05933293E-03  6.06167229E-03 -6.10763506E-03  4.58722796E-03  1.24616065E-02
 -1.42782470E-02  2.97332983E-03  8.80642214E-03 -6.19516902E-03  6.55866935E-04
 -2.72610980E-05  1.57549422E-04  2.45012955E-05  4.61575424E-05  1.62814331E-03
 -5.73996491E-05  6.59569418E-04 -1.35826730E-05  7.96785012E-05 -7.64409225E-04
 -2.19451734E-03  4.19414157E-03  6.93462824E-03 -8.03824126E-03 -8.20319104E-03
 -3.32552124E-03  5.97503489E-04 -7.01534438E-05 -9.06191989E-04 -1.96830558E-03
 -1.44414410E-03 -1.91374883E-03  7.36308225E-04  5.35912038E-04  7.05815727E-04
  2.06074116E-03  1.43104313E-03  2.25417624E-03  4.42744301E-03  2.90041897E-03
  4.01544925E-03  2.44828945E-03  8.98523572E-04  2.17246323E-03  4.95377616E-05
  1.23417820E-04  2.89178048E-04 -1.19464860E-04  1.83787359E-05  5.17261632E-05
  3.93955183E-05  1.64832274E-04 -1.66587831E-04 -2.35931363E-04  3.83478466E-04
  9.23926315E-04  6.30675619E-04 -2.35238577E-03  8.42378528E-03 -4.22282053E-03
  8.26482948E-04 -3.32815446E-03  1.24455161E-02 -3.29691840E-03  1.14921319E-03
 -2.53568601E-03  1.00105371E-02 -4.08582448E-03 -1.43339315E-03 -1.74279197E-03
 -1.51813897E-03  1.68320946E-04  4.37833018E-05  7.16538795E-05 -2.36467775E-06
  3.74959462E-05  9.06939939E-04  5.97323269E-04  4.54484356E-04 -1.16345761E-04
  9.25795941E-05  5.72887184E-03  1.64793617E-02 -3.11286259E-02 -5.06572605E-02
  5.48601061E-02  4.99301016E-02 -2.83672281E-02  3.58334061E-03  8.52167266E-03
  3.57450501E-05 -2.26437693E-04  2.30540964E-03  3.14776197E-03  1.78862394E-03
  5.70024586E-04  2.69361188E-03  4.54166011E-03  4.41767268E-03 -3.87654827E-03
  6.52309445E-04  1.95759789E-03  4.74075164E-03  9.33750248E-02  1.87913583E-02
  9.50739922E-03 -3.15250657E-02  6.00865888E-05  1.91864333E-04  1.08999132E-04
 -7.50979051E-05 -1.22835781E-04 -2.58272227E-03  2.81963768E-03  1.34734615E-03
 -1.02894603E-03  1.11487468E-03 -3.84687929E-03 -5.32871384E-03  3.07070047E-03
  5.52925369E-03 -1.68359858E-03  1.24442576E-02  4.19761225E-03  8.08619603E-03
 -2.28581858E-03  1.60519772E-02 -1.98244424E-03 -1.58040146E-03 -3.52194604E-03
 -8.70245908E-02  2.63271915E-02  2.73958692E-02 -1.35562047E-02 -1.91373779E-04
 -7.76730475E-04 -9.61888383E-04  1.08724191E-04  4.58644866E-04 -3.66795182E-03
 -3.30345965E-03 -5.16668791E-03  1.57711875E-04  3.37683066E-03 -2.63596240E-04
 -7.64652198E-04  1.49662008E-03  2.21597942E-03 -2.11005224E-03 -3.47997081E-03
  1.38561413E-02 -4.38159885E-03 -5.24546479E-03 -2.08084207E-03 -1.01038527E-02
 -9.13694640E-03  2.70728131E-03  3.78483257E-03  3.42445864E-03 -1.00607884E-03
  1.16012775E-02  1.05149830E-02 -3.00034108E-03  2.43138784E-02  2.17958474E-02
 -6.96796889E-03  1.61227608E-02  1.52978855E-02 -2.89553101E-03  4.99902616E-04
 -3.50691920E-04 -6.91354684E-05  8.29863230E-05 -2.15286742E-04  1.28117002E-03
 -5.34075354E-04  1.53406605E-04  1.09858190E-04 -5.61498047E-04 -4.43302656E-04
 -1.27621977E-03  2.36179127E-03  3.75669981E-03 -3.17582488E-03 -3.35662397E-03
 -3.70337653E-04 -3.69892027E-06  4.64505679E-04  8.29962278E-04  2.84504346E-03
  1.73531152E-03 -2.87621669E-03 -1.07084272E-03 -6.55097978E-04  1.08034397E-03
 -3.04342284E-03 -1.71303126E-03  3.33027850E-03 -7.17856570E-03 -4.64528726E-03
  6.72563534E-03 -3.97474689E-03 -1.62636764E-03  5.61504316E-03 -1.51714556E-05
 -4.11163581E-05 -1.99970047E-04  1.03911470E-04 -2.59438108E-04  2.40433217E-05
 -2.76587382E-05 -5.10960542E-04  3.45780344E-04 -1.07422547E-03 -7.55545056E-05
  1.34699243E-04  7.59608185E-03  1.04678508E-02 -2.24594548E-03 -1.70013534E-03
  1.08149671E-02  1.49701017E-02 -3.07697960E-03 -1.36342331E-03  8.87434485E-03
  1.24109264E-02 -2.46858958E-03 -5.74266480E-03 -9.46599731E-05 -1.52058216E-03
 -3.32034991E-03 -2.52434864E-05  1.16586701E-04  1.80567640E-04 -6.67475817E-05
  3.91872538E-05 -9.09092699E-05  5.64205483E-04  1.00958655E-03 -3.21059564E-04
  1.20467819E-04  1.58159239E-03  4.55989925E-03 -8.46798782E-03 -1.32197182E-02
  1.19198860E-02  1.09468626E-02 -1.94630667E-02  3.20409444E-04  2.79524400E-03
  9.81861131E-03  4.03584736E-03  6.35843881E-03  5.61185788E-03 -1.48030546E-02
  9.06291664E-03 -1.70882065E-02  1.06842611E-02 -1.96473803E-02  1.00464212E-02
 -1.04374137E-02  1.36492047E-02 -1.85616728E-02  6.39604756E-03 -2.49526145E-02
 -9.54649823E-03 -2.34570099E-02  1.80006931E-02 -1.07941343E-03  4.60716363E-04
  5.87448483E-04 -3.71139394E-04  5.46341713E-04 -4.71812769E-03  1.85912272E-03
 -3.64329483E-03 -1.70086989E-03  4.83522082E-03 -8.72704312E-03 -1.37789678E-02
  1.51352153E-02  2.97085838E-02  7.71919932E-03  3.85676963E-02  2.36574812E-02
  4.84469970E-02  1.11276645E-02  2.49658477E-02  1.59577181E-02  1.99081420E-02
  6.80479225E-03  4.54184157E-02 -1.41059993E-02 -5.51265691E-03  4.80637057E-03
 -9.67317721E-04  1.14636173E-03  1.60625446E-03 -3.76576935E-03  3.15865808E-04
 -2.38885059E-03  4.28687357E-03  6.85186146E-03 -1.67991015E-02 -1.41156844E-04
 -1.88900511E-04 -5.45463456E-04  1.11753702E-03  2.09398367E-03 -3.95000690E-03
  1.34309139E-03 -1.08009639E-02 -2.12507537E-04  8.57964319E-03  1.44617965E-03
  3.63488699E-03  1.56711939E-04 -1.64638424E-03 -1.38324372E-03 -4.55353443E-05
  5.54330913E-04 -4.39269009E-03 -2.28765115E-04  2.31926598E-03 -9.85947512E-03
 -3.83366308E-04  1.21340152E-03 -9.31516884E-03  4.37988137E-04  1.50137321E-04
 -1.26175384E-03 -9.69898747E-04  5.76106797E-04 -3.34251610E-04  5.29641457E-05
 -1.42013032E-03 -1.87510119E-03  1.62301800E-03 -9.09209938E-04  8.49635373E-05
  1.91981508E-04  5.45560879E-04 -1.11594301E-03 -2.18426296E-03  3.94595564E-03
  1.97608426E-03 -1.80599415E-02 -4.03052456E-03 -1.04790367E-03 -3.22242371E-03
 -1.12329351E-03 -7.49103925E-03  1.03267750E-03  4.31176152E-04  2.81482056E-03
 -4.20161395E-04  1.06774724E-03  9.09891390E-03 -1.12178220E-03  2.84384500E-03
  1.86948427E-02 -4.12606437E-03 -1.38890294E-03  1.36117582E-02 -5.05652589E-03
  5.14431941E-04  8.05657629E-04  4.47126924E-04  1.27512155E-03  2.22043518E-04
  7.15425843E-04  1.06506551E-03  1.18681866E-04  3.93789096E-03  4.87974798E-04
  2.66343378E-04  4.16740594E-04 -3.86874463E-04 -9.59411997E-03 -1.30109920E-03
 -1.24698579E-03 -3.42178640E-04 -1.37592539E-02 -1.81722008E-03  2.15345318E-04
  1.97072926E-05 -1.00434189E-02 -1.26351264E-03  1.50791210E-03 -1.84243630E-03
 -5.40489721E-03  7.58467139E-04 -7.32404845E-05  3.85551609E-05 -4.58944889E-05
 -1.14402990E-04  2.35981716E-06 -1.83049686E-04  9.80219152E-04  1.05596518E-03
 -4.86329434E-04 -1.38714932E-04 -1.28596741E-03 -3.70327103E-03  7.82995514E-03
  1.33679463E-02 -2.08766872E-02 -4.11778283E-02  1.50533101E-04  1.40344297E-02
 -3.85179565E-03 -3.46522671E-03  1.38797331E+00  4.24536788E-03  6.73704917E-03
 -1.65580117E-02  2.43751668E-03  3.26613032E-03 -1.94900376E-02 -2.18202154E-02
  5.75851830E-03  3.55832204E-03 -1.34140190E-02 -1.79376627E-02  9.92279896E-03
 -1.54036793E-04  4.28658735E-02 -6.90708808E-03  4.43858014E-03 -8.58170385E-03
 -8.10475199E-04  1.00599212E-03  4.38053178E-04 -2.53913064E-04  5.82658422E-04
 -1.02111157E-02  3.49366379E-04 -2.23429204E-04 -7.66862940E-06  6.08835792E-03
 -1.22720031E-02 -1.93689241E-02  2.97690637E-02  3.16783330E-02  1.05011156E-02
  5.36094504E-02  4.83545336E-02  4.98031598E-02  1.67070918E-02  5.00976510E-02
  1.95069005E-02  2.42355642E-02 -5.58745597E-04 -2.80313661E-02  9.94877381E-03
  1.57408417E-03 -6.15236132E-03 -2.02629853E-03  2.44492164E-03  1.82731263E-03
  1.63664332E-03  2.19997827E-03 -8.82457776E-03  8.89516480E-03  6.26970293E-03
  8.16533713E-03  1.08283838E-02 -8.07429007E-05 -2.39061036E-04  5.18283056E-04
  7.21466839E-04 -1.29945422E-03  3.52400666E-03 -2.95395438E-03  4.37600714E-03
 -9.41116411E-04  2.34290071E-03 -6.24226018E-04  1.34508567E-03 -2.47367539E-03
  2.52990095E-04 -5.50194854E-04  8.80163564E-04  7.85081648E-04 -1.34244502E-03
  3.29332376E-03  2.25088661E-03 -5.46601827E-03  2.79017625E-03  3.33654557E-03
 -4.63499977E-03  2.84215430E-03 -4.21340757E-05  1.06890114E-03 -6.96854455E-04
  1.79335423E-04  5.49088625E-04  1.36777207E-03  2.37164938E-03  4.88067307E-05
  2.36811974E-04  7.82034466E-04  1.92090627E-04  5.46738247E-04 -1.12841330E-03
 -2.13224027E-03  3.82615242E-03  1.62031446E-03 -1.05379823E-02 -8.27266000E-05
 -3.83383371E-03  1.11577488E-03 -7.06010977E-03 -3.19095897E-03 -8.71530398E-04
  2.66727640E-03  1.19775816E-03  2.79870870E-04  8.49195685E-03  3.65720968E-03
  1.42919698E-03  1.79881299E-02  7.15846177E-03 -1.35553646E-05  1.42983194E-02
  2.38663578E-03 -4.36287766E-04  1.59682619E-04 -1.89057192E-04  5.43330236E-04
 -1.28554258E-03 -3.82281551E-04 -9.10474165E-05 -1.55384776E-03 -8.01863197E-04
 -2.97766422E-03 -1.05005415E-03  1.49371064E-03  2.43626138E-03 -1.10533560E-02
 -8.90420979E-03 -8.38941228E-03 -7.98253653E-03 -1.58638154E-02 -1.25503036E-02
 -1.20157207E-02 -4.04226326E-03 -1.31961771E-02 -1.07887263E-02 -8.76480179E-03
 -1.03008629E-02 -6.80310373E-03 -7.44230586E-03 -6.30431106E-03 -1.87266871E-04
  9.81383670E-05  6.05693416E-05  5.77793867E-05  8.15737386E-05 -3.23324504E-04
  1.20716259E-03  1.21693853E-03 -2.78007165E-04  3.88652367E-05 -1.72636229E-03
 -4.96849644E-03  1.04872371E-02  1.80222417E-02 -2.80561550E-02 -5.63108197E-02
 -8.08326470E-03 -3.43294762E-03  1.19215706E-02 -5.78456890E-04 -1.58791889E-02
  1.37840472E+00 -1.48115121E-03 -2.20130834E-03  4.28521796E-03 -2.40457310E-03
  4.89040714E-04  2.14430922E-03  4.13148419E-03 -3.46196081E-03  7.56339886E-03
 -2.79828816E-03  8.09486222E-03  1.86316721E-03  1.01749373E-02  1.97314088E-01
  6.30485385E-02  4.48877336E-02 -6.57485653E-02  5.84730558E-04 -5.79374816E-05
  2.31724877E-04  5.06944091E-05 -6.65866697E-04 -6.50459300E-03  4.56084645E-03
  9.57399119E-04 -1.82530649E-03  3.23868710E-03 -5.21369503E-03 -8.21251403E-03
  7.88219144E-03  1.06947004E-02 -3.85988086E-03  2.13423746E-02  1.08729001E-02
  1.64057218E-02 -4.18575907E-03  5.57355554E-02  5.71310341E-03 -1.85430051E-03
 -2.22292789E-02 -2.23019013E-01  4.69118053E-02  4.38234300E-02 -4.02412436E-02
 -3.08053105E-03 -9.49522442E-04 -2.38526722E-03 -6.90326118E-04  1.58615505E-03
 -1.93359066E-02 -7.33728956E-03 -1.52682745E-02 -3.16009940E-03  1.44535375E-02
  3.90811541E-04  1.11240352E-03 -2.20148524E-03 -4.80486940E-03  9.23183497E-03
  5.25100332E-03  2.68561357E-02 -1.00022956E-02 -1.12419771E-02 -5.28685348E-03
 -3.77283458E-03 -4.99702559E-03  1.57952147E-03  1.36722603E-03  1.84482087E-03
 -5.68494819E-04  5.07983761E-03  6.56885853E-03 -2.01211928E-03  8.38742361E-03
  1.13057358E-02 -5.48291472E-03  8.04466017E-03  1.22119997E-02 -2.37996249E-03
  6.57394815E-04 -8.69270940E-05  7.85449819E-04 -9.03989479E-05 -8.98405287E-04
  2.16643538E-03  9.51062827E-04  3.13994857E-03 -5.73893081E-04 -2.46205573E-03
 -9.73065793E-05 -2.74158750E-04  5.33397981E-04  1.25209615E-03 -2.33218968E-03
 -1.97303456E-03  2.96645671E-02 -5.94562713E-04  4.23409797E-03  9.30533355E-03
  2.20600879E-03  5.20849609E-04 -2.04348469E-04 -8.21894966E-04 -1.96859324E-04
  5.01031777E-05 -2.77442881E-03 -5.32001460E-04  5.73347377E-04 -6.05031689E-03
 -2.29689928E-03 -8.82117424E-04 -3.18682372E-03  1.78251619E-03  7.34291924E-04
 -1.10285410E-04  1.12088990E-04 -1.26427350E-04  4.27599607E-04  2.81944083E-04
 -5.32286824E-04 -6.06928535E-04 -1.43009474E-03  1.55421622E-03  6.06266671E-04
  3.20727494E-03  5.28825398E-03 -5.27487755E-03 -1.31055306E-02 -1.13488585E-02
 -1.77106720E-02 -7.54827488E-03 -1.88174540E-02 -1.61627390E-02 -1.17043492E-02
 -9.85094993E-03 -1.89565452E-02 -1.16948044E-02 -3.29300190E-02 -3.04955026E-03
 -1.08236535E-02 -1.66770983E-02 -2.07060550E-04  1.62706077E-04  1.00253354E-04
 -1.04488823E-04  1.44609454E-04 -3.36957691E-04 -1.02921619E-04 -1.89910245E-04
 -6.46914906E-05  3.74643037E-04 -5.44959188E-04 -1.56117659E-03  3.25232518E-03
  5.87266329E-03 -8.92886966E-03 -2.02565341E-02 -2.25307339E-02 -2.31947835E-03
  7.81777474E-04  2.58321371E-02 -5.59148614E-03 -6.45844478E-03  1.40010705E+00
 -1.44448997E-03 -2.31644448E-03 -2.12967725E-03  5.58164820E-03 -3.42049289E-03
  6.34954847E-03 -4.03122899E-03  7.42779770E-03 -3.79830369E-03  3.82234346E-03
 -5.17933847E-03  6.98884541E-03 -2.41473378E-03  9.64941203E-03  3.62317843E-03
  8.85706854E-03 -6.84020184E-03  4.03076762E-04 -1.72482834E-04 -2.23593612E-04
  1.38479177E-04 -2.02141907E-04  1.73275502E-03 -6.93158323E-04  1.34807066E-03
  6.38377533E-04 -1.80094924E-03  3.28721573E-03  5.13909637E-03 -5.62758205E-03
 -1.10592836E-02 -2.86787330E-03 -1.42380803E-02 -8.77760435E-03 -1.80261479E-02
 -4.13415396E-03 -9.08061839E-03 -5.93443544E-03 -7.36916463E-03 -2.54504554E-03
 -1.73745221E-02  5.34150631E-03  2.09744634E-03 -1.85954270E-03  3.55284256E-04
 -4.24610071E-04 -5.98912861E-04  1.41756256E-03 -1.10667055E-04  8.52232719E-04
 -1.57666078E-03 -2.54565141E-03  6.31177833E-03  1.06849983E-04  6.27778611E-05
  1.78549683E-04 -3.65457199E-04 -7.06088334E-04  1.41914676E-03 -5.28471043E-04
  4.08551161E-03  8.57039060E-05 -3.22273134E-03 -5.48504705E-04 -1.36807941E-03
 -2.20218515E-05  5.69962541E-04  5.20835139E-04  3.18405279E-06 -1.91093871E-04
  1.65687091E-03  4.50277046E-05 -8.28845436E-04  3.72218398E-03  4.96335037E-05
 -3.93479893E-04  3.51574455E-03 -2.31919293E-04 -2.13806694E-05  4.69886192E-04
  3.67155579E-04 -2.19400194E-04  1.25854345E-04 -1.86862590E-05  5.34028067E-04
  7.09946751E-04 -6.10664191E-04  3.41782419E-04 -3.16094858E-05 -8.30166482E-05
 -2.40558148E-04  4.93266128E-04  9.30171131E-04 -1.56504670E-03 -8.21055266E-04
  6.78083960E-03  1.51549491E-03  3.90145130E-04  1.22557076E-03  4.18333871E-04
  2.82198933E-03 -3.87952239E-04 -1.60195791E-04 -1.06005263E-03  1.57688889E-04
 -3.90792116E-04 -3.42136900E-03  4.24056416E-04 -1.03960644E-03 -7.02652182E-03
  1.54328047E-03  5.47567361E-04 -5.11873049E-03  1.89735902E-03 -1.91857441E-04
 -3.04432278E-04 -1.68838951E-04 -4.81306246E-04 -8.64143042E-05 -2.69151480E-04
 -4.08801572E-04 -5.36986369E-05 -1.48359454E-03 -1.86429628E-04 -7.09805345E-05
 -1.23081361E-04  8.93653719E-05  3.54133686E-03  4.83339528E-04  4.11815445E-04
  4.88456562E-05  5.08009904E-03  6.75764913E-04 -1.29551879E-04 -7.33029245E-05
  3.69600566E-03  4.66500588E-04 -6.08753176E-04  6.70381000E-04  1.99373570E-03
 -3.07355606E-04  2.74628256E-05 -1.47847904E-05  1.72910651E-05  4.30721904E-05
 -4.88480474E-07  6.93741997E-05 -3.66517234E-04 -3.92570944E-04  1.82099484E-04
  5.07018313E-05  4.30518330E-04  1.26531086E-03 -2.77503657E-03 -4.80577599E-03
  7.76597315E-03  1.52210798E-02 -5.60596054E-05 -5.27233586E-03  1.45889090E-03
  1.30717850E-03 -4.73702226E-01  6.24149759E-03  2.16607955E-03  1.61786710E-01
 -1.52412210E-03 -2.45547259E-03  6.23138371E-03 -9.48025849E-04 -1.23157662E-03
  7.22859022E-03  8.23008458E-03 -2.19210526E-03 -1.34589275E-03  4.90674673E-03
  6.74917800E-03 -3.77904035E-03  7.12338449E-05 -1.56549404E-02  2.68069604E-03
 -1.63326351E-03  3.10775615E-03  2.98725973E-04 -3.77981464E-04 -1.64297484E-04
  9.54006338E-05 -2.15006844E-04  3.77131937E-03 -1.24113533E-04  6.42741194E-05
  1.53797909E-06 -2.26048158E-03  4.62463509E-03  7.23146998E-03 -1.10721223E-02
 -1.17674890E-02 -3.89494893E-03 -1.98207768E-02 -1.79746029E-02 -1.84790911E-02
 -6.20392684E-03 -1.84184006E-02 -7.21044686E-03 -8.98716510E-03  2.27018435E-04
  1.00625213E-02 -3.65977551E-03 -5.25707986E-04  2.23001806E-03  7.49532596E-04
 -9.11673312E-04 -6.82368581E-04 -6.23182503E-04 -8.17922959E-04  3.24788382E-03
 -3.30448227E-03 -2.32574256E-03 -3.10791021E-03 -3.99857068E-03  2.13047945E-05
  6.05772621E-05 -1.34006421E-04 -1.81016711E-04  4.13952550E-04 -1.34159670E-03
  1.15483039E-03 -1.64507671E-03  3.52710624E-04 -8.89475230E-04  2.76942029E-04
 -5.21695204E-04  8.79801338E-04 -1.10783213E-04  2.12543824E-04 -3.13433420E-04
 -3.38723172E-04  5.21807111E-04 -1.19569119E-03 -9.37677485E-04  2.07890150E-03
 -9.99789370E-04 -1.31312192E-03  1.76124868E-03 -1.04871157E-03  7.80004446E-06
 -4.00995534E-04  2.60621380E-04 -6.76614950E-05 -2.05709996E-04 -5.16731985E-04
 -8.89825588E-04 -1.26455940E-05 -9.07471357E-05 -2.95174592E-04 -8.31116221E-05
 -2.41457926E-04  4.98993488E-04  9.10369911E-04 -1.51259568E-03 -6.88048485E-04
  3.93710217E-03  1.90884304E-05  1.43935069E-03 -4.07263792E-04  2.65070958E-03
  1.18335640E-03  3.18428501E-04 -1.00103868E-03 -4.43757437E-04 -1.02103334E-04
 -3.18291444E-03 -1.34715243E-03 -5.25124061E-04 -6.73542764E-03 -2.63106448E-03
  1.14381226E-05 -5.36348255E-03 -8.56864624E-04  1.66049158E-04 -5.84334594E-05
  7.19581489E-05 -2.03438065E-04  4.85495413E-04  1.43025507E-04  3.30243155E-05
  5.78679858E-04  2.92457739E-04  1.12732213E-03  3.96016952E-04 -4.98523060E-04
 -8.43928450E-04  4.10053420E-03  3.27368950E-03  3.13769814E-03  2.88510643E-03
  5.88657910E-03  4.61442552E-03  4.49552733E-03  1.42617405E-03  4.89534766E-03
  3.96870433E-03  3.27330583E-03  3.80680286E-03  2.52438743E-03  2.74843852E-03
  2.33437412E-03  7.01467996E-05 -3.68130979E-05 -2.27867054E-05 -2.19370385E-05
 -2.99313935E-05  1.21692953E-04 -4.47522494E-04 -4.52214191E-04  1.02711008E-04
 -1.60949535E-05  5.80160003E-04  1.70472696E-03 -3.73157320E-03 -6.50294649E-03
  1.04551078E-02  2.08386899E-02  3.01254855E-03  1.30151576E-03 -4.46594544E-03
  2.36129945E-04  6.23996889E-03 -4.69944544E-01  2.56102317E-03 -2.44132375E-03
  1.60317686E-01  5.17446602E-04  7.98926458E-04 -1.65168294E-03  8.67847151E-04
 -1.88766152E-04 -8.33228833E-04 -1.61435435E-03  1.24618391E-03 -2.85255039E-03
  1.00937971E-03 -3.06724072E-03 -7.03565122E-04 -3.81620679E-03 -7.37938451E-02
 -2.36518145E-02 -1.68467905E-02  2.46100059E-02 -2.23252805E-04  2.63912171E-05
 -8.40292605E-05 -2.09491724E-05  2.52292800E-04  2.40368176E-03 -1.69772256E-03
 -3.59258167E-04  6.78400984E-04 -1.19029778E-03  1.96968731E-03  3.08346431E-03
 -2.90225526E-03 -3.93582151E-03  1.46554033E-03 -7.96000336E-03 -3.99276996E-03
 -6.03652192E-03  1.59793683E-03 -2.08082263E-02 -2.11323823E-03  7.39467489E-04
  8.33237531E-03  8.35158503E-02 -1.75379253E-02 -1.63789929E-02  1.50737724E-02
  1.15174621E-03  3.60885860E-04  8.98439452E-04  2.59591842E-04 -5.92834129E-04
  7.22926713E-03  2.76969777E-03  5.74136967E-03  1.18438526E-03 -5.39456700E-03
 -1.44933934E-04 -4.12259845E-04  8.16546330E-04  1.78972435E-03 -3.46086379E-03
 -1.94357077E-03 -1.00563287E-02  3.74819362E-03  4.20903101E-03  1.98153275E-03
  1.38408025E-03  1.84590119E-03 -6.19849455E-04 -5.01451005E-04 -6.81742175E-04
  2.23230827E-04 -1.87381335E-03 -2.43561795E-03  7.86015279E-04 -3.08240330E-03
 -4.19159321E-03  2.10701203E-03 -2.96621591E-03 -4.54391021E-03  9.16490156E-04
 -2.50347872E-04  3.45739177E-05 -2.95933477E-04  3.37810951E-05  3.38425466E-04
 -8.13073815E-04 -3.52969769E-04 -1.17552391E-03  2.14129954E-04  9.26936612E-04
  4.19470204E-05  1.19849796E-04 -2.35182896E-04 -5.26799123E-04  9.38426004E-04
  7.79457861E-04 -1.11911310E-02  2.15293161E-04 -1.60610212E-03 -3.50285974E-03
 -8.54292801E-04 -2.34967710E-04  4.21064376E-05  3.18365259E-04  8.85666389E-05
 -6.13440622E-06  1.07330998E-03  2.45339920E-04 -1.78028689E-04  2.33583662E-03
  9.51890940E-04  3.99995150E-04  1.23080265E-03 -6.24971482E-04 -2.33345018E-04
  3.94571245E-05 -3.94908800E-05  5.14505932E-05 -1.63481820E-04 -1.01766923E-04
  1.94909331E-04  2.30391262E-04  5.39704615E-04 -5.88016795E-04 -2.22469002E-04
 -1.12834218E-03 -1.90067801E-03  2.00618365E-03  4.94504225E-03  4.23838574E-03
  6.52684308E-03  2.87200024E-03  7.10209021E-03  6.03709013E-03  4.30265466E-03
  3.73329491E-03  7.15042167E-03  4.36351652E-03  1.23361302E-02  1.13789701E-03
  4.04960479E-03  6.24731172E-03  7.70132751E-05 -6.05773600E-05 -3.72163339E-05
  3.90305675E-05 -5.37722394E-05  1.22413351E-04  4.45224728E-05  7.58898282E-05
  2.27832316E-05 -1.41702542E-04  1.88450490E-04  5.52809907E-04 -1.19286638E-03
 -2.17645612E-03  3.37168754E-03  7.55257542E-03  8.39693890E-03  8.76687422E-04
 -2.74946164E-04 -9.67890598E-03  2.16192953E-03  2.55609759E-03 -4.78317661E-01
 -8.34817886E-04 -1.00815700E-03  1.63538169E-01 -5.27727429E-03 -8.09484352E-03
 -6.96190748E-03  1.82745120E-02 -1.06286615E-02  2.13350236E-02 -1.29385241E-02
  2.47354265E-02 -1.17386014E-02  1.08940246E-02 -1.68384245E-02  2.23218981E-02
 -7.87318772E-03  3.56524351E-02  1.08559731E-02  2.65105146E-02 -2.23277083E-02
  1.26571745E-03 -5.55517660E-04 -7.12131386E-04  3.53251971E-04 -5.38819697E-04
  5.00606243E-03 -2.03198284E-03  3.88865725E-03  1.85134367E-03 -5.63361648E-03
  9.24494450E-03  1.47039671E-02 -1.81604553E-02 -3.31049256E-02 -8.78023635E-03
 -4.18293981E-02 -2.79802745E-02 -5.36690789E-02 -1.26816951E-02 -2.50650472E-02
 -1.87080849E-02 -2.11819857E-02 -7.41351785E-03 -5.68080418E-02  1.75532811E-02
  7.93861498E-03 -6.28058591E-03  1.10437238E-03 -1.39640687E-03 -1.88509416E-03
  4.44300642E-03 -2.94122359E-04  2.35444277E-03 -4.76462785E-03 -7.57267794E-03
  1.93129687E-02  8.76449354E-04  2.90475373E-04  8.40127281E-04 -1.67975388E-03
 -3.06345288E-03  5.08621094E-03 -3.64255503E-04  1.25861015E-02  3.16600201E-04
 -9.81825955E-03 -1.49492780E-03 -4.45156897E-03 -3.35191691E-04  2.21005622E-03
  1.69472311E-03  1.10708498E-04 -7.68012482E-04  5.34317128E-03  4.32648115E-04
 -2.82593047E-03  1.20665478E-02  7.62692010E-04 -2.42358772E-03  1.12946557E-02
 -5.44586518E-04 -5.19135721E-04  1.54625984E-03  1.14441624E-03 -7.27354248E-04
  3.89894014E-04 -3.73008106E-05  2.00884788E-03  2.20267779E-03 -1.95524014E-03
  1.05519278E-03 -7.33545811E-05 -1.33913382E-04 -3.74978357E-04  8.04168521E-04
  1.71305126E-03 -3.70670833E-03 -1.17009428E-03  1.86864534E-02  4.43603811E-03
  8.50230296E-04  3.55256854E-03  1.17996031E-03  9.09699155E-03 -1.29193718E-03
 -4.49967915E-04 -3.41496199E-03  5.24265109E-04 -1.14771145E-03 -1.11113348E-02
  1.41531912E-03 -2.89713030E-03 -2.26233371E-02  5.05004784E-03  2.00989798E-03
 -1.65371493E-02  6.12173478E-03 -5.93666377E-04 -9.62014240E-04 -5.27133007E-04
 -1.54117724E-03 -3.02427209E-04 -8.81562720E-04 -1.27729803E-03 -1.36574342E-04
 -4.72833970E-03 -5.78774481E-04 -4.10784367E-04 -5.87666744E-04  1.12040290E-03
  1.21288521E-02  1.44171819E-03  1.52897273E-03  1.37052085E-03  1.74293847E-02
  2.06636913E-03 -2.80680528E-04  9.36125846E-04  1.29373746E-02  1.31543529E-03
 -1.82623496E-03  2.21203725E-03  5.98669619E-03 -9.15095958E-04  8.36212037E-05
 -5.06278897E-05  6.84278292E-05  1.27694971E-04  5.64939991E-06  1.97983673E-04
 -1.08293507E-03 -1.02940225E-03  5.19078141E-04  1.06365909E-04  1.67948759E-03
  4.80482043E-03 -9.93029254E-03 -1.72463742E-02  2.62299454E-02  4.75846707E-02
 -1.02143246E-03 -1.59553730E-02  4.38477936E-03  4.27200342E-03 -2.21977644E-02
  1.91700641E-02  6.79105582E-03  1.14278251E-02 -7.40406241E-03 -2.58660281E-03
  1.28303964E-01 -5.51463909E-03 -8.52938092E-03  2.02515966E-02 -2.83934715E-03
 -3.33730250E-03  2.41666830E-02  2.71481411E-02 -6.41608101E-03 -3.33018067E-03
  1.36987214E-02  2.15773190E-02 -1.23662702E-02  2.92982035E-04 -4.04473101E-02
  8.03874554E-03 -6.12905764E-03  7.40733367E-03  9.47078013E-04 -1.22658339E-03
 -4.88906232E-04  3.40687583E-04 -5.69084034E-04  1.11786026E-02 -3.87454725E-04
 -4.28616267E-05  2.05535085E-04 -7.07318829E-03  1.30353793E-02  2.07168919E-02
 -3.32263145E-02 -3.66947787E-02 -1.16495986E-02 -5.82039857E-02 -5.35789424E-02
 -5.70800749E-02 -1.85406402E-02 -5.28801893E-02 -2.09609147E-02 -2.73047775E-02
  1.97950587E-03  2.63718683E-02 -9.26025306E-03  2.43020100E-04  6.29638008E-03
  2.41311237E-03 -2.90263674E-03 -2.16835617E-03 -1.95129279E-03 -2.49016331E-03
  9.78757594E-03 -9.97487123E-03 -6.89342030E-03 -9.79712022E-03 -1.16282358E-02
  1.74557826E-04  5.13264502E-04 -1.03606581E-03 -1.55333151E-03  2.03789423E-03
 -2.67375041E-03  4.21601755E-03 -4.99318173E-03  1.23346808E-03 -2.63691465E-03
  6.85449713E-04 -1.47298621E-03  3.26875814E-03 -2.75842643E-04  6.01763325E-04
 -1.18516728E-03 -9.39327695E-04  1.50827454E-03 -4.03876272E-03 -2.47984826E-03
  6.04946809E-03 -4.58576792E-03 -4.06544719E-03  5.31436320E-03 -3.96291936E-03
  8.07109673E-05 -1.32858777E-03  8.43905539E-04 -1.97913038E-04 -6.46431227E-04
 -1.29556089E-03 -3.00780197E-03  1.13097159E-04 -2.52736545E-04 -9.64517267E-04
 -1.31566016E-04 -3.69257741E-04  8.05857087E-04  1.63445789E-03 -3.56046027E-03
 -6.64661796E-04  9.23452853E-03 -2.58466331E-04  3.97616934E-03 -1.46165350E-03
  8.61807996E-03  3.79483977E-03  1.23009433E-03 -3.25145333E-03 -1.41850309E-03
 -4.06682041E-04 -1.04340664E-02 -4.42910780E-03 -1.90187856E-03 -2.18472260E-02
 -8.39089131E-03 -5.18556772E-04 -1.73559638E-02 -2.69706722E-03  1.71811474E-04
 -1.53225638E-04  2.32935732E-04 -6.40565877E-04  1.56088127E-03  4.07328928E-04
  9.12557792E-05  1.85723220E-03  9.23982669E-04  3.58259880E-03  1.25516867E-03
 -2.00925632E-03 -3.16037876E-03  1.40709953E-02  1.17703937E-02  1.01421870E-02
  9.83259832E-03  2.02176652E-02  1.66954540E-02  1.46439822E-02  4.98210706E-03
  1.69414880E-02  1.44002040E-02  1.04888373E-02  1.17663264E-02  7.65559963E-03
  8.60162644E-03  7.16702352E-03  2.36520018E-04 -1.03980104E-04 -5.43030716E-05
 -7.33391128E-05 -7.55333932E-05  4.74037811E-04 -1.18989212E-03 -1.23962563E-03
  2.73135946E-04 -8.10158289E-05  2.24012320E-03  6.40460782E-03 -1.32255251E-02
 -2.31061909E-02  3.51068253E-02  6.50602348E-02  7.88000556E-03  3.83276620E-03
 -1.34217534E-02  9.75395461E-04  1.92160948E-02 -1.06860346E-02  7.50581527E-03
 -7.42395422E-03  6.98188194E-03 -2.92199813E-03 -2.21588889E-02  1.15085551E-01
  2.03658742E-03  2.93187632E-03 -5.24589998E-03  3.05156856E-03 -3.81255856E-04
 -3.13264820E-03 -5.17007025E-03  4.46584882E-03 -8.53706916E-03  2.09985065E-03
 -9.89947892E-03 -2.11305502E-03 -1.18366255E-02 -2.25298270E-01 -7.26059658E-02
 -5.22714450E-02  7.39286469E-02 -6.29928507E-04  4.44083940E-05 -2.95092964E-04
 -6.53996098E-05  7.33728083E-04  7.46118465E-03 -5.39554331E-03 -1.33632745E-03
  2.11924087E-03 -3.73589056E-03  5.61870485E-03  8.89379936E-03 -9.10837470E-03
 -1.20391358E-02  3.67000406E-03 -2.33130154E-02 -1.24320713E-02 -1.82454351E-02
  3.81176351E-03 -6.29932844E-02 -6.81199052E-03  2.69322289E-03  2.62008937E-02
  2.55292241E-01 -5.31166036E-02 -4.92943950E-02  4.63420862E-02  3.74062730E-03
  1.08952037E-03  2.86655114E-03  8.12442200E-04 -1.87236273E-03  2.23912736E-02
  8.52946948E-03  1.78209467E-02  3.62544164E-03 -1.65760994E-02 -4.63712323E-04
 -1.31830076E-03  2.60904520E-03  5.67373193E-03 -1.08944473E-02 -6.09909317E-03
 -2.91844058E-02  1.16460519E-02  1.29560984E-02  5.77551389E-03  4.98866936E-03
  6.56584945E-03 -1.72862171E-03 -1.82038995E-03 -2.43395416E-03  6.19187894E-04
 -6.56112319E-03 -8.47067586E-03  2.24233288E-03 -1.12525811E-02 -1.50651637E-02
  6.01824920E-03 -1.01075696E-02 -1.53430008E-02  2.47534826E-03 -7.51531537E-04
  1.32969014E-04 -9.09130943E-04  9.84241504E-05  1.04580055E-03 -2.42158458E-03
 -1.07134162E-03 -3.64374403E-03  6.55550689E-04  2.88033337E-03  7.44652691E-05
  2.06193623E-04 -4.04205186E-04 -1.08479878E-03  2.28247371E-03  1.97040497E-03
 -3.52389790E-02  5.33738189E-04 -5.04392677E-03 -1.06394926E-02 -2.59606084E-03
 -3.17532307E-04  6.42186340E-04  9.69522728E-04  1.21710819E-04 -2.12875056E-04
  3.25957159E-03  2.86740605E-04 -1.10298515E-03  7.16359632E-03  1.98948389E-03
 -1.11100481E-05  3.89193582E-03 -2.47426932E-03 -1.48213125E-03  1.59310319E-04
 -1.47667380E-04  1.39555034E-04 -5.06874708E-04 -3.76326405E-04  6.41212771E-04
  6.64717098E-04  1.62674562E-03 -1.83054718E-03 -7.76381044E-04 -4.14441093E-03
 -6.70781624E-03  6.73030389E-03  1.64186356E-02  1.43092337E-02  2.18377601E-02
  9.65895346E-03  2.36548566E-02  2.05283949E-02  1.44750431E-02  1.22212604E-02
  2.34320060E-02  1.47556731E-02  3.79502950E-02  3.62997836E-03  1.25610361E-02
  1.93640682E-02  2.71538932E-04 -1.89147974E-04 -8.57356401E-05  1.13620121E-04
 -1.58937382E-04  4.99548840E-04  1.43851406E-04  3.54469318E-04  5.18940835E-05
 -4.83494909E-04  6.72202479E-04  1.91186242E-03 -3.92106119E-03 -7.18243290E-03
  1.08276666E-02  2.33759063E-02  2.47958604E-02  2.76294957E-03 -8.16002134E-04
 -2.94789040E-02  6.91627501E-03  7.65442715E-03 -3.77579004E-02 -2.64070646E-03
 -2.98620938E-03  1.72688047E-02 -8.01156760E-03 -8.47211241E-03  1.47317918E-01
 -7.52654563E-03 -1.30554756E-02 -1.50527306E-02  3.74451898E-02 -2.39681440E-02
  3.89710695E-02 -2.74156737E-02  5.08209973E-02 -2.71835789E-02  2.02306880E-02
 -3.60531054E-02  4.68822264E-02 -1.66804200E-02  7.58467132E-02  2.62245445E-02
  6.03477587E-02 -4.86353755E-02  2.48108413E-03 -1.07728498E-03 -1.57255860E-03
  7.86487234E-04 -1.12922977E-03  8.82097301E-03 -3.79387022E-03  7.97837387E-03
  3.83006763E-03 -1.08404212E-02  1.90501769E-02  3.01903238E-02 -3.60584252E-02
 -6.81505386E-02 -1.70034054E-02 -8.56350748E-02 -5.53733590E-02 -1.10668229E-01
 -2.46904262E-02 -4.68610713E-02 -3.70234746E-02 -4.31992779E-02 -1.69092581E-02
 -1.28879437E-01  3.70179109E-02  1.55815329E-02 -1.46599322E-02  1.82952777E-03
 -2.49821319E-03 -3.74603108E-03  9.35475418E-03 -4.17838482E-04  2.84482313E-03
 -8.51458765E-03 -1.51005006E-02  4.07116433E-02  3.58066990E-03  3.87285679E-05
  8.75090007E-05 -3.41351811E-04 -1.40611162E-03  5.89668629E-03 -4.24193781E-03
  2.85594309E-02  3.62582474E-04 -2.15234787E-02 -3.95537189E-03 -1.03483676E-02
 -8.60668200E-04  1.44121445E-03  3.93966432E-03  2.83000426E-04 -4.39012292E-04
  1.25260673E-02  1.08747384E-03 -2.98295206E-03  2.80943331E-02  1.60605287E-03
  8.36152173E-04  2.57595658E-02 -1.10589625E-03  1.61354062E-03  2.81217468E-03
  2.53077434E-03 -1.65985391E-03  8.37263677E-04 -5.48190404E-05  3.53572608E-03
  4.92397618E-03 -4.13242129E-03  2.21971215E-03 -1.54058358E-04 -8.09308160E-04
 -2.33015672E-03  4.63328866E-03  8.35646038E-03 -1.27302181E-02 -7.58479909E-03
  4.51326319E-02  1.00735465E-02  2.62452815E-03  8.43407697E-03  2.40549053E-03
  1.86298843E-02 -3.96909870E-03 -9.06346190E-04 -6.98547075E-03  1.56002340E-03
 -2.03774366E-03 -2.24475200E-02  4.51067119E-03 -5.35301417E-03 -4.59678545E-02
  1.31395454E-02  4.79963648E-03 -3.36239538E-02  1.47333491E-02 -1.25487833E-03
 -2.05822249E-03 -1.14322387E-03 -3.26720508E-03 -6.35075380E-04 -1.89948386E-03
 -3.09959051E-03 -8.11600706E-04 -9.89387688E-03 -1.21393124E-03  6.26384904E-04
  7.23323171E-04 -3.17852525E-03  1.82993278E-02  1.98415390E-03 -1.11305214E-03
 -5.04152293E-03  2.63139113E-02  2.75724222E-03 -3.64409517E-03 -4.88189090E-03
  1.83735625E-02  1.77332604E-03 -5.96288721E-03  3.44791551E-03  1.10431399E-02
 -3.03997063E-03  1.44895870E-04 -1.34850405E-04  7.62804171E-05  2.91998097E-04
  1.59628066E-05  3.53737213E-04 -2.43184276E-03 -2.52095110E-03  1.20301011E-03
  2.14502163E-04  2.82333548E-03  8.23689171E-03 -1.77442162E-02 -3.11746050E-02
  4.98292972E-02  9.14734843E-02 -6.67946489E-04 -3.41022035E-02  9.71955025E-03
  8.96601216E-03 -2.26476014E-01  4.58763307E-02  1.64194171E-02  8.50297238E-02
 -1.76899848E-02 -6.25409373E-03  2.59790764E-01 -5.43868359E-02 -1.99292589E-02
  5.50975021E-01 -7.75160966E-03 -1.35566742E-02  4.16200471E-02 -8.07716296E-03
 -9.39451464E-03  4.38009911E-02  5.59273935E-02 -1.62219505E-02 -1.07417990E-02
  2.56942411E-02  4.52346498E-02 -2.67412030E-02  7.95772192E-04 -8.16013794E-02
  2.26810714E-02 -7.56663674E-03  1.41221446E-02  1.64390363E-03 -2.44903728E-03
 -1.03784767E-03  6.53693775E-04 -1.15706651E-03  2.07476298E-02  4.29829240E-05
 -2.66615613E-04 -7.29566676E-05 -1.32441161E-02  2.71417205E-02  4.29858981E-02
 -6.82663883E-02 -7.30941803E-02 -2.22639674E-02 -1.20416602E-01 -1.10207426E-01
 -1.13812928E-01 -3.60774098E-02 -1.03190682E-01 -4.16958635E-02 -5.47627146E-02
  1.58489105E-03  4.18552764E-02 -1.97089102E-02 -1.15988835E-04  1.06812359E-02
  4.21907782E-03 -5.56810129E-03 -4.34973380E-03 -4.39606075E-03 -4.99565515E-03
  1.72642315E-02 -1.92900632E-02 -1.35745298E-02 -2.20894179E-02 -2.21372537E-02
 -3.44753084E-04 -1.01362512E-03  1.80806595E-03  3.03006435E-03 -1.76502519E-03
 -9.76506599E-03  1.07234399E-02 -1.12854114E-02  1.49453727E-03 -6.50433534E-03
  1.70504666E-03 -6.04714698E-03  3.01031854E-03 -6.78748041E-04  2.36267091E-03
 -1.08028866E-03 -2.04468943E-03  6.45489362E-03 -4.91422792E-03 -5.65276156E-03
  1.92803132E-02 -2.73980244E-03 -8.26346222E-03  1.54212516E-02 -5.33835125E-03
 -4.45426176E-04 -2.61268973E-03  1.58345375E-03 -4.30202731E-04 -1.31879968E-03
 -3.59532616E-03 -5.81702070E-03  1.95828779E-04 -6.44453586E-04 -1.98981164E-03
 -7.95733865E-04 -2.29234834E-03  4.57507869E-03  8.04758847E-03 -1.21015198E-02
 -6.73794214E-03  2.68343930E-02 -4.19729012E-05  9.61613416E-03 -2.19927646E-03
  1.76182852E-02  6.43139882E-03  1.12669026E-04 -6.63655198E-03 -2.39431780E-03
  5.42536950E-05 -2.10369024E-02 -7.09304775E-03 -1.08305864E-03 -4.41688258E-02
 -1.34853463E-02  4.05922790E-03 -3.55175676E-02 -3.03657299E-03  3.88544646E-03
 -3.87982435E-04  5.26096484E-04 -1.30334513E-03  3.27719658E-03  9.93718636E-04
  1.11641083E-05  3.49397741E-03  1.40629885E-03  7.75008823E-03  2.86748394E-03
 -1.45627001E-03 -2.97998220E-03  2.23699154E-02  1.53293905E-02  1.84187978E-02
  1.25353307E-02  3.21962758E-02  2.15643775E-02  2.64513082E-02  4.77493238E-03
  2.66868131E-02  1.88509969E-02  1.90410200E-02  2.16624810E-02  1.47568697E-02
  1.56572767E-02  1.34562887E-02  4.11106235E-04 -2.60758224E-04 -2.11206803E-04
 -1.36647873E-04 -1.55725940E-04  6.87312236E-04 -2.73943006E-03 -3.01963544E-03
  6.77096994E-04 -2.14328454E-04  3.86017028E-03  1.12567330E-02 -2.41671044E-02
 -4.26628497E-02  6.76199352E-02  1.25907054E-01  1.84082786E-02  8.57495579E-03
 -2.84324345E-02  2.47604967E-03  4.53748769E-02 -1.98433008E-01  2.11392808E-02
 -1.75060124E-02  7.42232014E-02 -8.16714582E-03 -5.36597779E-02  2.26701745E-01
 -2.46738602E-02 -1.27833564E-01  4.71275522E-01  3.21208971E-03  5.27030533E-03
 -1.26046853E-02  4.09292671E-03 -2.13059881E-03 -6.65076760E-03 -1.32862577E-02
  5.75258549E-03 -2.00325827E-02  4.59462010E-03 -2.11682966E-02 -4.53351437E-03
 -2.46355333E-02 -4.67188428E-01 -1.51157029E-01 -1.07568292E-01  1.55941677E-01
 -1.60966328E-03  3.29100298E-04 -4.76595765E-04 -2.17807837E-04  1.72403946E-03
  1.37001242E-02 -1.04180730E-02 -2.51770073E-03  4.07644315E-03 -6.52833970E-03
  1.23435633E-02  1.94864471E-02 -1.73170921E-02 -2.26371762E-02  1.04271709E-02
 -5.11573566E-02 -2.34320177E-02 -3.45871858E-02  1.17808510E-02 -1.29555080E-01
 -1.28190970E-02  6.43896598E-03  5.31191656E-02  5.30245489E-01 -1.10764409E-01
 -1.03388175E-01  9.57690011E-02  7.18984386E-03  2.56756212E-03  5.95760418E-03
  1.69464726E-03 -3.75355210E-03  4.51232815E-02  1.87777804E-02  3.77004799E-02
  7.42552879E-03 -3.32956131E-02 -1.06418651E-03 -3.04365700E-03  6.02814707E-03
  1.27984509E-02 -2.38724845E-02 -1.28685638E-02 -6.30766433E-02  2.39283969E-02
  2.65827355E-02  1.23418798E-02  8.43195431E-03  1.13073091E-02 -5.63861470E-03
 -3.05950508E-03 -4.19050944E-03  2.04262132E-03 -1.15165704E-02 -1.50414716E-02
  6.94864269E-03 -1.89415793E-02 -2.62179905E-02  1.68278687E-02 -1.78859082E-02
 -2.84834242E-02  7.42704973E-03 -1.84848730E-03  3.62032782E-04 -1.97502192E-03
  2.03768740E-04  2.24122712E-03 -5.36337130E-03 -1.99926447E-03 -7.48184760E-03
  1.30689750E-03  6.12868701E-03  4.48431113E-04  1.28764997E-03 -2.51415325E-03
 -5.08946803E-03  8.18358889E-03  6.16103979E-03 -7.27756762E-02  1.17349943E-03
 -1.08150601E-02 -2.27677743E-02 -6.72285851E-03 -3.15494834E-03 -1.38049082E-03
  2.50983209E-03  1.18128583E-03  5.66275585E-04  8.35092859E-03  3.47389796E-03
  7.38790661E-04  1.80365975E-02  9.86963428E-03  6.01923231E-03  9.57611509E-03
 -2.23510642E-03  6.45380781E-04  1.64601018E-04 -1.51109266E-04  5.05382055E-04
 -1.19776808E-03 -4.62919307E-04  1.00466411E-03  1.52342293E-03  3.54401271E-03
 -4.01326719E-03 -1.12374322E-03 -5.99144020E-03 -1.04549353E-02  1.30714764E-02
  3.15781031E-02  2.57688017E-02  3.77412640E-02  1.87792435E-02  4.54676289E-02
  3.67711967E-02  2.47822890E-02  2.44192264E-02  4.59184235E-02  2.63110549E-02
  7.82767033E-02  7.07542119E-03  2.54616363E-02  3.96826970E-02  4.53214567E-04
 -3.84448989E-04 -2.44026634E-04  2.48819938E-04 -3.22422650E-04  5.66091603E-04
  4.48316127E-04  5.60967710E-04  1.23732940E-04 -9.98943289E-04  1.38683870E-03
  4.03224707E-03 -8.46167654E-03 -1.54216206E-02  2.30931036E-02  4.72220653E-02
  5.23662593E-02  5.83662934E-03 -1.23888371E-03 -6.17527958E-02  1.50546190E-02
  1.95195382E-02 -2.55552188E-01 -5.75334787E-03 -7.57286047E-03  9.59726898E-02
 -1.79505413E-02 -2.23255045E-02  2.96669945E-01 -4.35615188E-02 -6.04763146E-02
  6.21312320E-01 -4.97943655E-03 -8.22768737E-03 -1.73572778E-02  3.26231888E-02
 -1.49885373E-02  2.29775759E-02 -2.89248689E-02  4.65436516E-02 -1.71476727E-02
  1.00829230E-02 -3.35688052E-02  3.83638486E-02 -1.26169444E-02  7.74120664E-02
  1.58153670E-02  3.71613190E-02 -3.79077681E-02  1.55613637E-03 -4.60841320E-04
 -1.48017159E-03 -2.72738042E-04 -4.83447688E-04  3.45654149E-03 -1.45032581E-03
  3.41408558E-03  4.71287314E-04 -4.82853362E-03  4.04803645E-03  7.15464384E-03
 -2.49754667E-02 -2.26302861E-02 -9.69053074E-03 -2.25366941E-02 -3.75711059E-02
 -3.75131819E-02 -1.42242976E-02 -6.01190121E-03 -2.87000984E-02 -7.75559948E-03
 -1.20208702E-02 -1.04244870E-01  2.78653416E-02  1.55097583E-02 -1.35026038E-02
  5.64546719E-04 -1.66836798E-03 -1.70171126E-03  6.09555751E-03  3.46234967E-04
 -7.91184304E-04 -5.15308725E-03 -7.71832586E-03  2.48985255E-02  3.97677645E-03
  2.91567982E-04  8.32532344E-04 -1.67121622E-03 -3.28075231E-03  5.98811695E-03
  4.30920102E-04  1.83637413E-02  6.43426258E-04 -1.33188243E-02 -1.72422645E-03
 -9.30388015E-03  9.46643172E-04  1.14090760E-03  3.52772654E-03 -3.93494105E-04
 -3.68619077E-04  1.12292145E-02 -1.27140443E-03 -1.81612805E-03  2.46423094E-02
 -3.51610064E-03 -6.25691590E-04  2.21490571E-02 -5.04351137E-03  1.74206106E-03
  2.28029869E-03  2.03715764E-03 -1.57252508E-03  4.83869204E-04  2.00906241E-04
  3.86652540E-03  4.35862692E-03 -3.61166365E-03  1.22102994E-03  3.55837014E-04
 -7.54432337E-04 -2.16783008E-03  4.20055754E-03  7.32449632E-03 -9.82297713E-03
 -6.83538201E-03  2.09908490E-02  5.89057393E-03  6.20604816E-04  5.28312282E-03
 -1.07763560E-03  1.49418279E-02 -4.12708152E-03  4.11191112E-04 -5.61292178E-03
  1.58820252E-03  1.91684497E-03 -1.79130762E-02  4.88750345E-03  3.26658511E-03
 -3.74467313E-02  1.18745182E-02  9.50378667E-03 -2.74065652E-02  1.19928565E-02
 -6.26710123E-04 -1.57198642E-03 -7.36309598E-04 -2.74092158E-03 -9.07447018E-04
 -9.74133226E-04 -2.85423533E-03 -9.38363427E-04 -7.72207056E-03 -2.01825444E-03
  2.19056518E-04  4.49129860E-04 -3.91515226E-04  9.55484779E-03  1.26712986E-03
 -2.02910832E-03 -8.85262352E-04  1.37887324E-02  1.80469301E-03 -3.44925450E-03
 -5.83189385E-04  8.56280299E-03  1.30549116E-03 -6.59639084E-03  2.89235635E-03
  2.06073049E-03 -3.02873669E-03  5.66817464E-05 -1.03421447E-04  1.79114629E-04
  1.50855003E-04  1.03818163E-06  9.46725160E-05 -1.56255879E-03 -4.78240708E-04
  5.15042523E-04 -7.41755122E-06 -5.19278239E-04 -1.49702350E-03  2.00916253E-03
  2.08780518E-03  4.71366238E-03  2.17084572E-02 -3.06240442E-03 -1.97604621E-02
  6.72698965E-03  7.40315046E-03 -1.26944167E-01  4.29351561E-02  1.59837989E-02
  4.77357680E-02 -1.63280711E-02 -6.02508445E-03  1.46775040E-01 -4.98483346E-02
 -1.87296519E-02  3.12435427E-01 -1.11402020E-01 -3.97490132E-02  1.84494117E-01
 -4.69929903E-03 -7.82056800E-03  3.27738478E-02 -1.03240334E-02  7.20663627E-04
  2.36333348E-02  4.62820053E-02 -1.73899475E-02  3.08639943E-03  1.26376766E-02
  3.62437936E-02 -2.50395663E-02  4.75198403E-03 -1.69184794E-02  1.52542049E-02
 -8.68282755E-03  1.19358544E-03  6.50170807E-04 -1.67658719E-03 -2.72872377E-04
  9.81752370E-04 -4.82738690E-04  9.52491082E-03 -3.88840091E-04 -2.89592714E-04
  1.07572598E-03 -5.80005342E-03  7.01487455E-03  1.20133115E-02 -2.19533591E-02
 -3.77004944E-02 -7.45823044E-03 -3.59326351E-02 -3.59850224E-02 -5.76809742E-02
 -1.25460619E-02 -3.46340789E-02 -5.82219038E-03 -3.04518799E-02  6.38536351E-03
  8.25873983E-04 -5.82328543E-03  4.65128898E-03  2.57077123E-03  2.34145735E-03
 -2.81766243E-03 -2.54852775E-03 -3.41281047E-03 -2.25817690E-03  8.54992970E-03
 -9.61643031E-03 -8.01232417E-03 -1.48716997E-02 -1.08047149E-02  1.85032138E-04
  5.31889079E-04 -1.07155417E-03 -1.76361032E-03  2.63957263E-03 -1.42958091E-03
  6.84247170E-03 -6.74197600E-03  2.15668679E-03 -3.20178135E-03  3.56566171E-03
 -4.12546699E-03  3.78756442E-03 -1.37331821E-03  1.60108740E-03 -1.39996374E-03
 -4.43443464E-03  4.62720993E-03 -5.03314893E-03 -1.01922307E-02  1.25958091E-02
 -7.39981965E-03 -1.11438379E-02  1.14168822E-02 -6.24805956E-03 -3.34627889E-04
 -2.22062360E-03  1.49518344E-03 -2.31302351E-04 -9.22699619E-04 -1.97608653E-03
 -4.97913379E-03  1.77550512E-03 -3.53105915E-04 -1.70014395E-03 -7.78331476E-04
 -2.23811537E-03  4.35488570E-03  7.45889394E-03 -9.87617719E-03 -7.00814234E-03
  6.71914472E-03 -1.40122593E-03  4.83083965E-03 -1.38710281E-03  1.36695576E-02
  1.62671478E-03  9.46928146E-04 -5.15127790E-03 -5.95255268E-04 -3.09265702E-04
 -1.63632117E-02 -1.48477611E-03 -1.59846927E-03 -3.45283897E-02 -2.63360508E-03
 -4.01822965E-04 -2.75604033E-02  3.43948474E-03 -4.31673657E-04  1.43248371E-04
  5.68966245E-04 -6.97335010E-04  2.72858138E-03  4.15156688E-04  6.91021083E-04
  2.43601748E-03  5.73277130E-04  6.61368205E-03  1.28372601E-03 -4.42668252E-04
 -8.48420507E-04  1.15144119E-02  1.00963770E-02  1.21989358E-02  3.33922747E-03
  1.66183188E-02  1.42440939E-02  1.76031986E-02 -9.36210949E-04  1.29538351E-02
  1.25280622E-02  1.23798346E-02  9.25088452E-03  4.73532169E-03  7.76728009E-03
  5.25067759E-03  3.26873415E-04 -3.51146573E-05 -6.52297892E-05 -1.14605303E-04
 -5.50021342E-05  9.84945370E-04 -6.94046898E-04 -1.28882923E-03  1.79659815E-04
  5.23757242E-05 -7.19936809E-04 -2.08105376E-03  2.84267159E-03  2.80011026E-03
  6.56344744E-03  3.06140909E-02  8.35483000E-03  5.65386243E-03 -1.53302382E-02
  2.98973717E-03  4.28002819E-02 -1.00236947E-01  1.94456442E-02 -1.62810543E-02
  3.75871258E-02 -7.40446724E-03 -4.96184357E-02  1.15875991E-01 -2.23735409E-02
 -1.11932156E-01  2.42288719E-01 -5.13778392E-02 -8.24973708E-02  1.32696638E-01
  3.29189658E-03  5.28779391E-03 -1.45816729E-02  1.20415793E-03  9.28445861E-04
 -9.88397169E-03 -1.78653542E-02  2.23507000E-03 -9.61330355E-03  1.84801102E-03
 -1.83904444E-02 -2.10120815E-03 -1.60731551E-02 -2.96154339E-01 -9.75291352E-02
 -6.95815638E-02  9.85074692E-02 -8.91659334E-04  5.12728443E-04 -1.61399700E-04
 -4.29283166E-04  9.48893573E-04  8.64436136E-03 -7.11178042E-03 -2.70326585E-03
  2.23379165E-03 -3.62807413E-03  6.02113354E-03  9.59338943E-03 -7.84560250E-03
 -5.26857628E-03  2.10484604E-03 -2.50233875E-02 -1.00598988E-02 -7.60472115E-03
  1.44251834E-03 -7.48949147E-02 -6.75717133E-03  1.26315166E-02  3.03601956E-02
  3.38975299E-01 -7.15938549E-02 -6.63801414E-02  6.12257302E-02  4.33336492E-03
  1.97100731E-03  4.38766209E-03  1.00180999E-03 -2.23414184E-03  2.70806281E-02
  1.20590520E-02  2.43167756E-02  4.33888743E-03 -1.99798576E-02 -4.39002365E-04
 -1.24384312E-03  2.48639378E-03  5.80617018E-03 -1.21748685E-02 -5.28409779E-03
 -4.06865270E-02  1.61881520E-02  1.80518939E-02  8.17993823E-03  8.27543642E-03
  1.22549621E-02 -3.12172379E-03 -3.03780224E-03 -4.56783978E-03  1.12415969E-03
 -1.04324347E-02 -1.52587241E-02  3.90305961E-03 -1.88125854E-02 -2.89869633E-02
  9.27698848E-03 -1.48751078E-02 -2.59712760E-02  4.28410787E-03 -1.01469829E-03
  6.26411790E-04 -1.09912413E-03  1.93778882E-05  1.47628605E-03 -2.94824400E-03
 -2.66685633E-04 -4.38222342E-03  5.72738911E-04  3.90955222E-03  3.18732769E-04
  9.11478044E-04 -1.71671837E-03 -3.35999540E-03  4.85126213E-03  3.00556811E-03
 -4.95357378E-02 -2.23066771E-04 -7.92079139E-03 -1.38434413E-02 -7.59126230E-03
 -3.16405148E-03  9.77757253E-04  2.84518123E-03  1.18240173E-03 -3.45084691E-04
  9.10776975E-03  3.40975618E-03 -1.63245197E-03  1.98206420E-02  9.02777706E-03
 -9.92678705E-04  1.15744444E-02 -9.28203272E-04 -3.63721819E-03  1.73634244E-04
 -3.93705745E-05  5.80997292E-04 -1.07273851E-03 -2.39356017E-04  6.34542223E-04
  9.04941562E-04  2.56150227E-03 -3.20967573E-03 -5.07026707E-04 -1.91325169E-03
 -3.76188559E-03  6.60651430E-03  1.85364088E-02  2.10779285E-02  1.56526335E-02
  9.51458396E-03  2.67543621E-02  3.01644136E-02  8.59767946E-03  1.32694314E-02
  2.65798585E-02  2.21013691E-02  4.65185689E-02  4.25658474E-03  1.38970284E-02
  2.43121836E-02  3.50547944E-04 -2.49997217E-04 -6.20259183E-05  1.36563608E-04
 -2.00807831E-04  6.15719229E-04  2.12712751E-04  8.30985679E-04 -1.39849659E-05
 -6.64785711E-04 -2.82214296E-04 -8.28715062E-04  1.24750377E-03  8.77441171E-04
  2.63925608E-03  1.32045390E-02  3.26976317E-02  4.47327810E-03 -4.87826207E-04
 -3.89220395E-02  1.56165091E-02  1.90094761E-02 -1.56879040E-01 -5.89701273E-03
 -7.25236745E-03  5.89380540E-02 -1.81037965E-02 -2.16304771E-02  1.82586104E-01
 -4.11915960E-02 -5.30892267E-02  3.82556629E-01 -3.01728317E-02 -3.82920348E-02
  2.37905341E-01 -1.77191348E-04 -2.30440228E-04 -6.26899042E-04 -2.70899845E-04
 -6.22376023E-05  4.71344151E-04 -1.14750365E-03 -5.87909021E-04  1.35405043E-05
  1.13082571E-03 -4.23317455E-04 -1.18866454E-04 -6.36908527E-04  5.95133209E-05
  6.18352216E-04  4.67067308E-04 -6.30095500E-04  9.79801659E-05  6.31232900E-05
  6.24228275E-05 -3.59522719E-05 -9.46182327E-05  8.44911919E-04  7.47170449E-05
  2.92944470E-04 -5.73797997E-05 -5.37302356E-04  1.59584594E-03  2.53448668E-03
 -1.98197075E-03 -2.20335986E-03 -2.25705894E-03 -7.12357580E-03 -3.37618897E-03
 -3.68709228E-03 -3.23186841E-03 -5.32351984E-03 -1.47227350E-03 -8.86494247E-04
 -5.46055425E-04 -1.58191969E-03  8.40319240E-05  2.98966689E-04  1.88300760E-05
  2.27622604E-04 -1.34841153E-04 -9.22019421E-05  8.27683894E-05 -2.22041525E-04
  6.60837903E-04 -7.38726582E-04 -6.49989560E-04  2.80035978E-04 -6.04403874E-04
  3.39211287E-05  9.72303814E-05 -2.01592508E-04 -3.68438271E-04  6.34518754E-04
  2.55270935E-04  7.41427449E-04 -3.26267403E-04 -3.78849288E-04 -1.50056703E-04
 -9.26241154E-04 -4.73236527E-04  3.81828274E-04  3.48705559E-04  1.79690532E-04
 -1.39212069E-04  1.09326749E-03  5.49477286E-04 -4.71647621E-04  2.31307158E-03
  1.28335968E-03 -6.67425678E-04  1.62654366E-03  8.87824060E-04 -4.87406659E-04
  6.81868094E-05  1.60123073E-05  2.61501275E-05 -6.55231373E-06 -2.53857308E-05
  1.81297765E-05  3.81841753E-05 -4.24731246E-05  2.12135591E-06 -4.20917746E-05
  1.01720072E-06  3.16728767E-06  6.52870505E-06  1.60490742E-05 -1.08463542E-04
 -3.42003927E-04  3.03859313E-04 -2.82555610E-05 -2.03982646E-05  8.12615227E-06
 -4.00510427E-04 -1.29101765E-04  1.63627879E-04  1.48213758E-04  4.62060051E-05
 -5.86476757E-05  4.65053153E-04  1.27934115E-04 -2.29864611E-04  9.16144937E-04
  2.66568843E-04 -2.44607881E-04  4.05625196E-04 -1.28013391E-04 -1.66360791E-04
 -6.46318061E-05  1.42706504E-05  7.63758464E-06 -3.70613712E-05  7.28420285E-05
 -7.03238540E-05  1.15092385E-04  1.54711761E-04 -1.15218244E-04  1.19049336E-04
 -1.13965911E-04 -2.15107983E-04  7.65640371E-04  1.69829831E-03  1.14748979E-03
  7.81785233E-04  1.09573237E-03  2.44227423E-03  1.66333255E-03  4.62146699E-04
  8.64802534E-04  1.91941661E-03  1.31642467E-03  7.95131206E-04  4.79196958E-04
  6.21344617E-04  5.50910862E-04  2.11945553E-05 -6.81651094E-06  1.65915789E-05
 -2.53766661E-06 -4.93052455E-06  4.34302750E-05 -1.10813986E-04 -1.34078708E-05
  1.46183927E-05 -7.11291102E-06  7.58357417E-06  1.63826481E-05  4.34890730E-05
  4.16109857E-04 -1.37065573E-03  1.12321235E-03  9.58855538E-04 -5.06855533E-04
 -7.18985168E-04  1.28392105E-04 -2.47013764E-03 -3.31638898E-03 -2.22979985E-05
  9.28484029E-04  1.24642824E-03 -1.01027794E-05  3.21914067E-03  4.30412256E-03
 -4.00317904E-04  6.41436720E-03  8.57723583E-03 -1.02099856E-03  2.78315370E-03
  3.52782469E-03 -1.10037041E-03  3.82410508E-04  3.45510941E-04  5.60878851E-04
 -1.73190285E-03  1.10316384E-04  2.32280908E-05 -1.72701398E-03 -2.52500915E-03
  3.37018513E-04 -2.25002625E-05 -1.15686669E-03 -1.65680268E-03  7.06935610E-04
  3.36182157E-05  5.40738094E-03  6.67009622E-04  2.79260962E-04 -1.65243680E-03
  2.81912693E-06  9.24028119E-05 -3.07729988E-05 -1.20047923E-04 -9.03473454E-06
 -3.29248993E-04  1.17690751E-04 -4.25991703E-04 -2.74855262E-04  3.03716150E-04
 -8.40529211E-04 -1.35334642E-03  3.26076762E-04  3.40653074E-03 -1.10473741E-03
  3.81668623E-03  5.37148865E-04  5.36929215E-03 -1.50615267E-03  3.45722261E-03
 -8.53554673E-04  2.39743326E-03 -1.15021091E-03 -3.68352028E-03  1.14555725E-03
  1.60032815E-03 -7.24024013E-04 -1.01358999E-04  4.02785500E-05  1.00371896E-04
 -8.05077254E-06  1.17448048E-04 -7.62980007E-04 -7.35769753E-05 -1.28835370E-04
 -2.00465340E-04  5.72409912E-04  1.39013929E-06  4.18617515E-06 -7.91586868E-06
 -3.46806394E-05  9.66904900E-05  2.56592542E-04  4.90732382E-04  6.45858306E-06
  6.46502246E-05 -1.22943790E-04  1.57010252E-05  1.15392432E-03 -4.76082135E-04
 -6.00124551E-06 -4.35933169E-04  1.76739762E-04  2.44331465E-05 -1.33418500E-03
  5.56575724E-04  5.91194274E-06 -2.93759185E-03  9.75235561E-04  3.24727088E-04
 -1.89756711E-03  6.46726160E-04 -1.19835501E-05  1.16075960E-04 -1.42708367E-05
 -2.80334645E-05  1.73122016E-05  7.31742382E-05  3.03108473E-04  1.03291265E-05
 -7.16994119E-05  1.13318419E-05  1.18980798E-05  3.42236006E-05 -6.44437450E-05
 -1.18555077E-04  1.62558218E-04  5.94412722E-06 -7.29410232E-04 -2.22738935E-04
 -2.28822190E-04  1.26920344E-04 -8.09054245E-04  1.70211873E-05 -8.14365281E-05
  3.05582301E-04 -7.81594448E-06  2.77975288E-05  9.48245802E-04 -4.10765259E-05
  1.04947063E-04  2.07426932E-03 -9.47554339E-05  6.59551682E-05  1.45593306E-03
 -3.33934628E-04 -5.97235328E-05  9.43461876E-06  4.16349240E-06  4.77335324E-05
 -1.02938446E-04  1.34268107E-07 -3.70899909E-05 -5.07343293E-05  7.63778666E-06
 -2.10916290E-04 -2.48740034E-06  2.80922206E-04  4.42877973E-04  6.39704483E-06
  6.48317585E-04  6.25477018E-04 -1.39859220E-03  3.11158784E-06  9.42999795E-04
  9.29302367E-04 -1.17737670E-03  3.70645223E-05  6.50388502E-04  7.31095656E-04
 -1.20326308E-03  8.46018108E-05 -7.26112758E-04 -4.57616935E-04  6.89077311E-06
 -1.37704441E-06  3.92600144E-05 -1.09122602E-05  1.05522387E-06  2.10992848E-05
 -1.48044690E-05  2.55834570E-04 -5.78624709E-05 -1.96994554E-05  4.26114941E-07
  3.92269939E-06 -5.07014247E-05 -3.00745047E-04  8.91862388E-04 -6.16123179E-04
 -1.84073286E-03  5.04824696E-04  3.68244513E-04  6.86077007E-04  1.59220453E-03
  1.53206931E-03  1.92616686E-03 -6.00010792E-04 -5.63335034E-04 -7.43483457E-04
 -2.07654692E-03 -1.70506445E-03 -3.00177867E-03 -4.21237636E-03 -3.29260743E-03
 -6.12699603E-03 -1.48485134E-03 -1.21988863E-03 -3.21841054E-03 -1.42374144E-04
  2.52958035E-04  4.12069886E-04  7.06967407E-04 -1.44609636E-03 -7.44323291E-04
  5.03494571E-04 -2.32949802E-03 -2.04765631E-03 -9.52991895E-04  7.08614683E-04
 -1.53859528E-03 -1.06935816E-03 -1.49752184E-04  4.59098087E-04  9.64019512E-03
  1.03640870E-03  3.35748065E-04 -3.08549042E-03 -3.03013937E-05  9.75921942E-05
  7.38760933E-05 -4.74228044E-05 -2.57835067E-05 -5.57853974E-04  3.67379655E-05
 -1.77177977E-04 -6.77046661E-05  3.55862555E-04 -1.04957092E-03 -1.71318905E-03
  2.46911681E-03  3.03187570E-03 -1.27584187E-03  4.91226670E-03  3.79136507E-03
  4.78505437E-03 -1.63635836E-03  4.40243986E-03  9.03457799E-04  1.47765342E-03
 -9.50699976E-04 -6.77559628E-03  2.61233099E-03  2.62287623E-03 -1.06534830E-03
 -8.67119484E-05  3.04624829E-05  1.05005689E-04 -2.87637527E-05  1.41281024E-04
 -9.35539297E-04 -1.59827035E-04 -3.39320992E-04 -8.28906169E-06  8.05423441E-04
  7.42948889E-06  2.13159956E-05 -4.23410532E-05 -1.12782539E-04  2.46381566E-04
  3.92882676E-04  1.06750554E-03  1.70064770E-05 -1.48018640E-04 -1.70652026E-04
  5.04708152E-04  3.60605305E-04 -1.52633253E-04 -1.90678011E-04 -1.37589520E-04
  5.49032142E-05 -5.49700998E-04 -3.90090324E-04  1.83031430E-04 -1.22524856E-03
 -9.77099633E-04  1.25919716E-04 -5.10963913E-04 -4.69629918E-04  1.09462071E-04
 -1.88606538E-05  9.51311203E-05  2.75246771E-05 -1.89970758E-05  4.20954929E-06
  6.17679384E-05  2.48123616E-04  1.40431936E-04 -5.72951394E-05 -3.88885816E-05
  2.49842943E-05  7.17029254E-05 -1.37584803E-04 -2.57804990E-04  3.89677172E-04
  7.55050069E-05 -1.52265733E-03 -3.47376280E-04 -4.14269774E-04  1.28904577E-04
 -6.19174024E-04 -5.22846236E-04  1.08055838E-04  2.32915161E-04  1.94983598E-04
 -4.43871010E-05  7.24861367E-04  6.00094257E-04 -1.19979318E-04  1.56437987E-03
  1.24230793E-03 -4.47766253E-04  9.74210861E-04  5.25280548E-04 -4.63011649E-04
  5.42487549E-06  3.27332482E-05  7.74539815E-05 -5.98708859E-05  2.53944203E-05
 -4.78033700E-05  1.56331757E-05  5.38356682E-05 -1.01708392E-04  2.53533936E-05
  3.90512029E-04  5.99919760E-04  1.18808759E-03  1.06573365E-03  1.32017562E-03
 -1.84947627E-03  1.69955489E-03  1.54326826E-03  1.94855944E-03 -1.60493355E-03
  1.40226775E-03  1.15798724E-03  1.51851492E-03 -1.56673279E-03 -1.37765268E-04
 -6.57237449E-04 -6.72969617E-04  2.61463850E-05  2.34053312E-05  4.81763442E-05
 -1.35103351E-05  9.29163947E-06  1.30966380E-04  1.59984113E-04  2.76393568E-04
 -7.83317875E-05  3.11603931E-05 -1.01582961E-05 -2.68644086E-05 -2.62011112E-06
 -2.87168705E-04  1.01965542E-03 -8.33865130E-04 -2.96967655E-03  3.42709428E-04
  8.00716051E-04  1.03152055E-03  1.26105795E-03  2.50889241E-03  2.53309853E-03
 -4.63180384E-04 -9.37939080E-04 -9.78082143E-04 -1.36476168E-03 -3.12688615E-03
 -3.98367409E-03 -2.68365443E-03 -6.25699529E-03 -8.11560679E-03 -5.59725644E-04
 -2.48019746E-03 -4.39767484E-03 -1.84797998E-04  2.70078462E-04  3.72489106E-04
 -1.78437748E-04 -2.96220212E-04 -3.56863823E-03  3.48264920E-03 -1.44422863E-03
  9.35802175E-04 -5.63642049E-03  5.28040100E-03 -2.18141906E-03  8.53780132E-04
 -4.52526242E-03  4.06589065E-03 -1.83330859E-03 -3.91908167E-03 -7.41896934E-04
  4.81647822E-04  9.38247105E-04  1.33101947E-04  9.36240550E-05 -2.21038980E-04
 -3.44347308E-04 -2.05430579E-05  6.91590371E-04  3.26209546E-04 -4.16499600E-04
 -7.85864467E-04 -2.57334632E-04  8.05087810E-04  1.30028637E-03 -6.51411589E-03
  2.56185004E-03 -1.68799711E-03 -3.70954325E-03 -1.01330650E-02  3.85466584E-03
 -2.66589619E-03 -3.00004228E-03 -6.58822336E-03  4.16726241E-03 -1.63466375E-03
  2.34416249E-03 -1.51907119E-03 -6.32533800E-04  2.82819752E-04 -1.61316172E-05
 -1.95708640E-04  1.18811995E-04  1.93135685E-04 -1.40428707E-04  2.21689307E-04
 -6.34809961E-04  3.44563361E-04 -7.97030266E-05 -6.34827430E-04  5.91328225E-06
  1.70113296E-05 -3.61293883E-05 -5.17041191E-05  7.05948042E-05 -7.23116053E-05
 -2.56827318E-04 -1.53658430E-05 -7.13065014E-05  4.27818505E-05 -1.58041640E-03
  9.09289305E-04 -2.79500662E-04  5.96043073E-04 -3.41876424E-04  1.07426487E-04
  1.91126131E-03 -1.13671061E-03  3.38039202E-04  4.01829637E-03 -2.27890080E-03
  8.84197336E-04  3.30634908E-03 -2.16596146E-03  7.68090658E-04  1.67727744E-04
  2.34301220E-04 -2.25694954E-04 -2.84988734E-05  7.38201700E-05  3.54698006E-04
  5.98912638E-04 -6.37866906E-04 -6.74391367E-05  2.13629012E-04 -1.06834759E-05
 -3.05595974E-05  6.27930916E-05  1.19586270E-04 -2.11601495E-04 -1.44781052E-04
  7.56781848E-04  2.24509571E-04  7.91938531E-05  1.21112962E-06 -1.37646745E-03
  1.42035616E-03 -4.63360868E-04  5.19991481E-04 -5.36546981E-04  1.77175497E-04
  1.66345996E-03 -1.71445776E-03  5.47043221E-04  3.52404737E-03 -3.63023011E-03
  1.29593991E-03  2.97773511E-03 -2.94530570E-03  1.11764213E-03 -5.18963947E-05
 -1.21832451E-04 -3.71914877E-05 -3.26930445E-04 -6.77491364E-05 -8.85747699E-05
 -2.56870510E-04  2.82872663E-06 -7.84384096E-04 -1.57190326E-04 -1.70224232E-04
 -2.69110748E-04  5.90470854E-04 -8.38695483E-04  9.39911564E-05  8.52273523E-04
  8.38360199E-04 -1.19819485E-03  1.15362976E-04  6.89451551E-04  1.00213275E-03
 -1.25336641E-03  2.16180863E-04  7.54250551E-04  1.37842823E-03 -6.25656597E-04
  7.54344967E-04 -2.30173759E-05 -4.54233531E-05  1.20061539E-05 -4.39029715E-07
 -1.66608682E-05 -1.72022372E-04 -3.37503356E-04  8.21283315E-05  1.78569224E-05
 -9.64143678E-05  8.61887995E-06  2.27393696E-05 -4.19304009E-06  1.88307461E-04
 -7.01734127E-04  6.16031385E-04  1.43021291E-03  2.90950407E-04 -9.59796459E-04
 -2.00142209E-04  2.11424072E-05 -2.74251135E-03 -5.65557256E-04 -4.03497483E-05
  1.05350864E-03  2.08140854E-04 -7.97050736E-04  4.09185841E-03  6.64707615E-04
 -1.88312023E-03  8.41514659E-03  1.23862211E-03 -7.76228314E-04  3.28545688E-03
  7.65688101E-04  2.17952794E-04  4.35540550E-05 -1.54493053E-04  6.89625408E-04
  2.85871385E-04  4.61627756E-04 -6.23661936E-04  1.06819592E-03  2.66731548E-04
 -1.39691636E-03 -6.65217769E-04  1.94141670E-03  2.23321215E-04 -2.27149390E-03
 -1.05698980E-03  1.16227911E-03  8.57279622E-04  7.62772570E-03 -3.83329944E-04
 -8.90302507E-04 -1.60597606E-03 -1.20724655E-04  2.71441729E-05 -9.35674759E-05
 -9.23492807E-05  1.32384926E-04 -1.37706623E-03  2.64087307E-04 -5.26621531E-04
 -3.08578660E-04  9.73558563E-04 -2.80168829E-03 -4.50950709E-03  2.46988870E-03
  6.16138634E-03  2.12116487E-03  1.28785901E-02  4.21307697E-03  9.91486339E-03
  3.07737597E-03  9.61954813E-03  6.73613313E-04  3.57724650E-03 -2.87823381E-05
 -3.08718748E-03  1.81221368E-03  2.13644929E-03 -8.45507122E-04 -3.28444330E-04
  1.45936147E-04  1.78630033E-04 -8.85093921E-05  3.75915566E-04 -1.28421296E-03
  7.58599925E-04  7.24579716E-04 -5.16863395E-04  1.12828891E-03 -4.35125842E-05
 -1.25282930E-04  2.62083008E-04  4.51702947E-04 -7.59506928E-04 -2.30681296E-04
 -8.01646238E-05  2.49753919E-04  3.58240540E-04  9.93712045E-05 -2.23158634E-05
  5.85712844E-04 -4.61786096E-04  7.85301486E-06 -2.23833004E-04  1.67527215E-04
  2.89255367E-05 -6.86161544E-04  6.09744441E-04  3.87113667E-05 -1.68486847E-03
  6.83999781E-04  7.57631314E-05 -1.24610552E-03  7.26847683E-04 -2.61790685E-05
  3.04074380E-05 -9.01583359E-05 -2.80195959E-06  5.17174803E-05  1.82191852E-04
  1.18114017E-04 -3.89712681E-05 -3.94254110E-05  8.55547026E-05  2.47097727E-05
  7.02575094E-05 -1.60043988E-04 -3.13079729E-04  6.67457763E-04  7.54636386E-04
 -2.11885504E-03 -1.83510772E-04 -2.76502069E-04 -8.78463702E-05 -2.01526549E-04
  3.67641683E-04 -3.15356222E-04  7.94888984E-05 -1.36981257E-04  1.13922895E-04
  2.73258904E-04 -3.85407500E-04  4.32306072E-04  6.35412333E-04 -9.12841382E-04
  5.11982536E-04  8.19051958E-04 -3.93535441E-04  3.85467648E-04  7.94904355E-05
 -2.60830056E-05  8.24061774E-06 -5.20766413E-05 -1.18253662E-04  6.65651351E-05
 -1.85404056E-04 -2.02852024E-04 -6.23875949E-05 -2.70287609E-04  3.19930653E-04
  5.25502316E-04 -1.70153950E-04 -6.65911953E-04 -1.11352584E-03 -1.72171961E-03
 -2.49876319E-04 -9.54714264E-04 -1.59211115E-03 -1.23489671E-03 -3.51982044E-05
 -7.01678271E-04 -1.26865680E-03 -1.62936344E-03 -4.11508722E-04 -1.35263820E-03
 -9.25111748E-04 -2.59720158E-05  1.14298242E-05  2.12492899E-05 -8.95148519E-06
  6.19136355E-06 -7.10076804E-05  1.64222472E-04  3.12792949E-04 -9.08022910E-05
 -1.06366616E-05 -3.96621170E-05 -1.07099816E-04  7.29746282E-05 -5.16930681E-04
  2.18688458E-03 -2.13556033E-03 -3.48768530E-03  1.16792686E-03  1.29226872E-03
  5.83957939E-04  4.75507928E-03  5.43048984E-03  1.22062388E-03 -1.79611962E-03
 -2.03210700E-03 -4.45649975E-04 -6.35894826E-03 -6.84548990E-03 -1.34253485E-03
 -1.28489496E-02 -1.36096030E-02 -2.44997043E-03 -5.31115184E-03 -5.44342333E-03
 -5.01045747E-04 -6.10645194E-04  3.88373226E-04  4.49027512E-04 -1.98078971E-04
  1.15022212E-03  1.09873160E-03  1.07607941E-03 -1.23864847E-03 -4.33834801E-04
 -6.13972396E-04 -1.00529455E-03 -2.15223960E-03 -8.92410491E-04 -8.22859491E-04
  9.15236319E-04 -1.08948642E-03 -3.51517470E-04 -1.59792361E-03  2.47495148E-03
  2.00788029E-03  1.54864042E-03 -1.82754882E-03  1.26641564E-04  1.48728939E-04
  9.42407813E-05 -7.68498559E-05 -1.69098501E-04  1.20777509E-03  3.42774679E-04
  5.44918427E-04 -1.78737524E-04 -7.90537805E-04  2.49674909E-03  4.06470882E-03
 -3.45553611E-03 -3.31773409E-03 -4.14341900E-03 -1.16901990E-02 -5.89265755E-03
 -5.62897472E-03 -5.96399359E-03 -8.41612268E-03 -2.43429154E-03 -7.40186846E-04
 -8.06302840E-04 -6.71317907E-03  4.35952429E-04  8.09612990E-04 -5.91674024E-04
  3.96792083E-04 -1.87871955E-04 -1.15485926E-04  1.38738268E-04 -3.81638486E-04
  9.35682370E-04 -1.10889420E-03 -1.00263038E-03  4.00110232E-04 -8.91420304E-04
  6.15758319E-06  1.28112725E-05 -7.04518964E-05 -2.32433948E-04  9.00639874E-04
  7.02261834E-04  1.84132557E-03 -7.79082394E-04 -9.16918815E-04 -4.37282490E-04
 -2.20275648E-03 -1.59844053E-03 -1.80707378E-04  8.30073893E-04  6.02089328E-04
  6.68855466E-05  2.61668546E-03  1.81429382E-03 -2.08200396E-05  5.53947732E-03
  4.02314479E-03  4.29403240E-04  3.90266183E-03  2.57482921E-03 -2.67119314E-04
  1.30014012E-06  4.95294893E-05 -2.86767094E-05 -2.92847838E-06 -3.27385441E-05
 -1.46958769E-04  1.19075496E-04 -1.93677168E-04  1.64146505E-05 -5.78637144E-05
 -1.50782859E-04 -4.37174033E-04  8.47201499E-04  1.36268872E-03 -1.49447576E-03
 -2.05598153E-03  1.17397040E-03  5.55517353E-05  1.10709139E-04  1.25417648E-04
 -6.09275977E-04 -3.76595701E-04  8.29447477E-05  2.26604164E-04  1.38825581E-04
 -2.82642927E-05  7.88970170E-04  4.96544888E-04 -1.44498123E-04  1.47307798E-03
  9.16305602E-04 -8.34544288E-06  6.54303408E-04  6.78103180E-05  1.29024749E-04
 -1.25473310E-04  2.49354602E-06 -1.96194764E-05 -7.37874800E-05  1.09701864E-04
 -1.32424267E-04  9.90471241E-05  1.34799471E-04 -2.00396926E-04  1.36590301E-04
 -5.09251993E-04 -7.76385515E-04  5.25466102E-04  2.59056900E-03  2.09521778E-03
  2.19493668E-03  7.50794243E-04  3.73420139E-03  3.04649074E-03  1.51006853E-03
  5.16173543E-04  2.89264479E-03  2.44792199E-03  1.41944558E-03  7.00227375E-04
  8.83488564E-04  9.59049639E-04  4.11594556E-05 -2.02030031E-05  3.10515023E-05
 -3.92804604E-06 -1.09574489E-05  9.70042032E-05 -2.43172394E-04  6.33773016E-06
  2.52119723E-05 -2.63462302E-05 -3.93682652E-04 -1.11291605E-03  2.12400623E-03
  3.90533416E-03 -5.34048479E-03 -1.55694601E-03  2.21063828E-03 -9.54200570E-04
 -1.40640046E-03  2.85076845E-04 -4.24859284E-03 -5.85995866E-03  9.95723874E-04
  1.58159989E-03  2.18188605E-03 -3.78511426E-04  4.93274969E-03  6.76624250E-03
 -1.01222624E-03  9.96569417E-03  1.37019840E-02 -2.48121990E-03  4.42813492E-03
  5.69464612E-03 -2.25247443E-03  6.32578678E-04 -2.18430536E-04 -2.94843273E-04
  3.86624817E-04 -9.88729030E-04  1.09511757E-03  8.64000145E-04  1.21227633E-03
 -3.37243747E-03  1.52940738E-03  4.85960585E-04 -3.04950380E-03 -4.89922109E-03
  2.70883670E-03  5.86834353E-04 -2.01841458E-03 -3.78223539E-03  1.94972226E-03
 -2.21746191E-04  4.60009888E-03 -1.67720206E-04 -1.00179940E-03 -2.46542533E-03
  1.36465000E-04  1.02498433E-04 -1.45823256E-04 -2.32283722E-04 -8.02123649E-05
  2.90113305E-04 -1.78337349E-04 -1.05663623E-03 -3.95929240E-04  3.01850050E-05
 -1.82915619E-03 -2.85871943E-03 -8.14526181E-04  5.89853203E-03 -3.40635708E-03
  7.84903312E-03 -1.12391889E-03  9.45942289E-03 -4.72007102E-03  4.77859396E-03
 -3.04222100E-03  4.78937821E-03 -1.58522011E-03 -7.79645354E-04  1.06307020E-03
  2.50531450E-03 -1.03026631E-04  9.43371755E-05 -9.52434955E-06  2.55481946E-04
  3.34509004E-05  1.49262191E-04 -5.18567632E-04 -4.05480024E-04 -1.63661961E-04
 -2.16255333E-04  3.46032901E-04  2.89721734E-05  8.78760528E-05 -1.60713299E-04
 -2.60194938E-04  2.54566757E-04  1.63805831E-04  1.27706680E-03  3.79565804E-04
  5.82547555E-04 -2.54877861E-04  7.91815312E-04  3.64382621E-03 -9.22751205E-05
 -2.96726931E-04 -1.37066581E-03  3.58507258E-05 -8.52150037E-04 -4.24592421E-03
  1.57582135E-04 -1.82058847E-03 -9.00236490E-03  1.92426088E-04 -6.13420023E-04
 -6.01661468E-03  4.62747997E-04  1.13142906E-04  2.30760221E-04 -1.90094595E-05
 -5.64003172E-05  3.56284455E-05  2.99297498E-04  5.70811531E-04 -1.18741023E-04
 -1.11811836E-04  4.35948146E-05 -9.08290752E-05 -2.66099664E-04  5.18920075E-04
  8.44711731E-04 -9.64773332E-04 -7.09909149E-04 -2.19855530E-03 -4.16354701E-04
 -4.33238758E-04  3.07052258E-04 -1.04414935E-03  9.70472031E-04  9.13618996E-04
  3.97748584E-04 -3.62829911E-04 -3.44096266E-04  1.24874228E-03 -1.15367612E-03
 -1.02027894E-03  2.86374080E-03 -2.25518628E-03 -2.26020497E-03  2.37067532E-03
 -1.87126411E-03 -1.63298931E-03  8.34987507E-05 -6.75040225E-05  2.10440161E-05
 -2.08674868E-04 -1.36004272E-04  5.52489461E-05 -1.68944844E-04  3.98715250E-06
 -5.00047573E-04 -2.12845062E-04 -3.53036430E-04 -3.90509655E-04  2.19621991E-05
  2.75911585E-03  3.00572726E-03  2.87534488E-04  8.33458184E-06  4.00023385E-03
  4.44554046E-03 -2.74231268E-04  1.25374852E-04  3.00575239E-03  3.35988178E-03
 -1.46737935E-03  4.91536280E-04 -9.80531880E-04 -3.03028021E-04  5.81565323E-05
 -1.82700702E-05  1.05084635E-04 -2.39052416E-05 -6.83527692E-06  2.03989646E-04
 -1.51642552E-04  6.06616818E-04 -1.18028380E-04 -6.86545808E-05  1.86512919E-04
  5.22647204E-04 -9.84283983E-04 -1.87099612E-03  2.57970393E-03  8.03608247E-04
 -3.63435519E-03  1.08774301E-03  5.48394294E-04  9.47736163E-04  2.99617326E-03
  1.29041270E-03  3.48395244E-03 -1.11755727E-03 -4.75695227E-04 -1.30252567E-03
 -3.38185003E-03 -1.61800180E-03 -3.83618176E-03 -7.12950303E-03 -3.19150809E-03
 -8.20337557E-03 -2.51969042E-03 -1.03565105E-03 -4.02988982E-03 -1.79425166E-04
  4.42800787E-04  4.32658642E-04  2.09081639E-04  5.90512327E-04 -2.86865776E-04
  9.23079988E-04  1.45679985E-03  1.91516833E-03 -2.02569922E-03 -4.00654403E-06
  1.51879408E-03 -4.39256815E-03 -2.73029301E-03  3.74334432E-04  2.11710834E-03
 -3.20065498E-03 -2.15392838E-03 -8.92411307E-05  5.25898833E-04  1.24130126E-02
 -1.38299165E-05 -1.20160096E-03 -5.14889631E-03  7.52512552E-05  5.96218358E-05
  5.51222362E-05 -6.80908351E-05 -1.25441302E-04  6.34549448E-06 -4.70689210E-04
 -4.85165466E-04  2.39349640E-05 -6.18568247E-05 -2.62731257E-03 -4.00807091E-03
  3.65421998E-03  4.36109174E-03 -3.72555316E-03  1.07543285E-02  5.70807679E-03
  7.12245409E-03 -4.93144011E-03  6.11399805E-03  5.24234734E-04  2.38626095E-03
 -4.21674717E-04 -5.65862200E-03  4.18469902E-03  4.49022775E-03 -4.77917402E-04
  2.25708737E-04 -1.04320736E-04  2.85877664E-04 -2.27120988E-05  1.68840469E-04
 -5.00561515E-04 -6.62919669E-04 -5.06265429E-04  2.00486428E-04  5.13479631E-04
  1.08116000E-04  3.16576789E-04 -6.10786891E-04 -1.05127278E-03  1.32791293E-03
  1.22816277E-03  2.34546728E-03  5.12421870E-04  1.69947592E-04 -2.85682768E-04
  1.87212268E-03  1.81844388E-03  5.85396654E-04 -7.03377111E-04 -6.83126640E-04
 -2.20057023E-04 -2.13070557E-03 -2.08302263E-03 -6.38883093E-04 -4.50140712E-03
 -4.44253503E-03 -1.57451560E-03 -2.57066850E-03 -2.81221016E-03 -7.75582154E-04
  8.96833678E-05  1.45080782E-04  4.98639670E-05 -3.19503434E-05  5.53625708E-06
  2.34148116E-04  3.33815321E-04  8.30143304E-05 -6.31819762E-05 -6.06107430E-05
 -1.19711713E-04 -3.50631264E-04  6.77388878E-04  1.07101959E-03 -1.06247711E-03
 -9.59838165E-04 -4.08285714E-03 -6.41630314E-04 -7.30049968E-04  2.40161405E-04
 -8.52997376E-04  6.03746646E-04  1.41967275E-03  3.23804773E-04 -2.24862113E-04
 -5.34285774E-04  1.01500268E-03 -6.88080968E-04 -1.61093721E-03  2.31129967E-03
 -1.30903361E-03 -3.51194470E-03  1.68874236E-03 -1.06226883E-03 -2.50701427E-03
  9.60383450E-05 -2.58655254E-05  3.31795784E-05 -5.52998067E-05 -1.29240846E-04
  8.69041806E-05 -2.80391052E-05  5.05024769E-05 -1.40584796E-04 -2.45658995E-04
 -7.99460857E-04 -9.57845793E-04  3.60288631E-03  3.77260470E-03  5.02334066E-03
  1.34055801E-03  5.14315231E-03  5.46059237E-03  7.41742784E-03  3.50116644E-04
  4.39107563E-03  4.27411526E-03  5.64878927E-03 -1.66234951E-03  1.79110598E-04
 -6.14368909E-04 -4.74503179E-04  1.16141096E-04  3.97298242E-05  1.24795134E-04
 -2.94842308E-05  1.03629847E-05  5.24979539E-04  2.75099376E-04  6.41818055E-04
 -1.63348346E-04  5.56923029E-05  2.97298970E-04  8.39596439E-04 -1.58482441E-03
 -2.91579595E-03  3.76160375E-03  1.69794177E-03 -6.17820946E-03  7.54423612E-04
  1.51165558E-03  1.51748587E-03  1.60586563E-03  3.46702879E-03  4.18778588E-03
 -5.95005453E-04 -1.28977281E-03 -1.56349846E-03 -1.87561073E-03 -3.99000710E-03
 -4.60168974E-03 -3.91062391E-03 -8.37712510E-03 -9.82047974E-03 -7.55451325E-04
 -3.20300955E-03 -5.05181791E-03 -2.51967081E-04  4.29622821E-04  5.95614089E-04
 -2.05965440E-04  6.68517199E-04 -4.29802996E-04  8.47839272E-04  1.17807853E-03
 -2.55048849E-04 -4.15529348E-04 -9.18077453E-03  7.87075211E-03 -3.66456396E-03
  1.28416043E-03 -1.44060249E-02  1.20056627E-02 -5.55051085E-03  1.49671682E-03
 -1.11857486E-02  9.76783089E-03 -4.21509931E-03 -5.20982088E-03 -8.54416678E-04
  1.99775340E-03  1.28848189E-03  2.29084271E-04  2.56803998E-04 -4.80110165E-04
 -8.54162299E-04 -2.75569323E-05  9.02135614E-04  8.34081935E-04 -9.13697917E-04
 -2.02159840E-03 -2.34022030E-04  1.67606489E-03  2.60701613E-03 -1.43797727E-02
  7.62940252E-03 -3.52737096E-03 -7.15981193E-03 -2.23697684E-02  1.15317486E-02
 -5.62883174E-03 -4.47625505E-03 -1.48195110E-02  1.07472713E-02 -4.47872196E-03
  1.21582363E-03 -2.81118214E-03 -9.60661652E-04 -1.52897754E-04 -2.27185392E-04
 -3.60659724E-04  3.06990311E-04  4.54381961E-04 -2.34859973E-04 -2.41591094E-04
 -1.20915293E-03  8.66327381E-04 -1.88749956E-04 -8.39563003E-04 -5.40021308E-05
 -1.58540226E-04  2.95686495E-04  4.82294590E-04 -4.58017140E-04 -4.88746448E-04
 -4.28562499E-04 -2.62593928E-05 -4.78551689E-04  6.98125557E-05 -3.17305637E-03
  1.15592277E-03 -9.62369798E-04  1.19597976E-03 -4.36868420E-04  3.62657402E-04
  3.88420380E-03 -1.53269316E-03  1.10003808E-03  8.08347590E-03 -3.06850533E-03
  2.51330122E-03  7.11643613E-03 -3.61505231E-03  1.99606295E-03  3.38992765E-04
  6.25486398E-04 -5.75219246E-04 -7.06688009E-05  1.94561425E-04  8.16821005E-04
  1.59952009E-03 -1.49743529E-03 -1.85332698E-04  5.27670153E-04 -4.11038833E-06
 -1.07514208E-05  2.33207750E-05  5.25891656E-05 -1.40662122E-04 -2.75291823E-04
  2.04587413E-03  4.13756351E-04  1.90373288E-04  5.05973857E-05 -3.94776589E-03
  3.16878245E-03 -1.72178757E-03  1.48995999E-03 -1.19817264E-03  6.50297390E-04
  4.74735205E-03 -3.79877310E-03  2.02062232E-03  1.00258196E-02 -8.14808884E-03
  4.40692356E-03  8.10805807E-03 -6.82495759E-03  3.47897502E-03 -1.45273346E-04
 -2.65460571E-04 -3.74695418E-05 -8.07768999E-04 -1.13230979E-04 -2.73732327E-04
 -6.44953316E-04 -1.54814578E-05 -1.90649452E-03 -3.06700711E-04  2.11873891E-04
  2.16920923E-04  5.68411455E-04 -2.75086593E-03 -5.55925272E-04 -7.30449757E-05
  7.98472439E-04 -3.93588186E-03 -8.73321812E-04  1.28092086E-04  1.33601707E-03
 -3.90488351E-03 -3.29928173E-04  8.99383008E-04  2.94890662E-03 -1.97514290E-03
  1.28889062E-03 -7.55325218E-05 -1.05291396E-04  2.46311076E-05 -5.94888023E-07
 -3.56574990E-05 -4.83896343E-04 -7.72113486E-04  2.12340467E-04  2.97783000E-05
 -2.28270216E-04 -2.29806585E-04 -6.50819995E-04  1.23615200E-03  2.25151133E-03
 -2.93248256E-03 -1.20507094E-03  3.11047493E-03  6.60925185E-04 -1.98758449E-03
 -1.89414429E-04  2.43998878E-03 -6.38949791E-03  1.05065578E-04 -9.18935748E-04
  2.38670120E-03 -4.31793615E-05 -2.38695235E-03  7.00175321E-03 -3.81987443E-05
 -5.50234979E-03  1.49212564E-02 -2.49728068E-04 -1.84168096E-03  5.51962318E-03
  1.32388177E-04  3.77548298E-04  2.05493273E-04 -2.20817246E-04  1.53461559E-03
 -2.14522694E-04  7.11014908E-04  5.90654179E-04 -3.46117905E-04  3.52879617E-03
 -8.49940679E-04 -7.20413934E-04 -1.11775259E-03  3.16155852E-03  7.79640756E-04
 -2.85859817E-05 -1.34805841E-03  5.23800881E-03  8.86970013E-04 -3.44884243E-03
 -2.24229515E-03  3.04297616E-03  1.56631371E-03  1.28940997E-02 -2.30450836E-03
 -3.16284757E-03 -2.09384468E-03 -1.28069433E-04  7.58237760E-06 -1.99899886E-04
 -2.02554616E-04  2.52379905E-04 -1.84650996E-03  3.63305792E-04 -9.15800903E-04
 -5.79479165E-04  1.36619687E-03 -5.28992328E-03 -8.29957153E-03  3.10118297E-03
  1.08341523E-02  3.61938863E-03  2.30654851E-02  5.51938130E-03  1.74807228E-02
  5.27353217E-03  1.51733830E-02 -8.00216199E-04  5.76639976E-03  3.34450352E-04
 -3.39818051E-04  3.60212537E-03  4.70889476E-03 -7.71544569E-04 -4.28455124E-04
  8.31848624E-05  2.38625943E-04 -8.51097615E-05  6.57085501E-04 -1.52009328E-03
  8.50658008E-04  1.08073925E-03 -6.99210079E-04  1.41297128E-03  1.72227979E-04
  5.03985280E-04 -9.21087732E-04 -1.44542266E-03  1.01450720E-03  1.37827742E-03
 -1.14099341E-03  6.10661633E-04  9.40136937E-04  5.40267769E-04 -1.34577318E-04
  1.43357271E-03  1.42317711E-04  5.00858642E-05 -5.41166449E-04 -5.37456109E-05
  1.38557440E-04 -1.62779290E-03  2.33025604E-04  2.97965558E-04 -3.73933964E-03
 -4.63351147E-04  2.25137295E-04 -2.84055699E-03  6.55947134E-04  1.37930760E-04
  2.37162696E-05 -1.66183689E-04 -1.31464337E-06  9.65692791E-05  6.38130187E-04
  1.30215121E-04 -1.78602731E-04 -4.82556105E-05  1.95602962E-04  2.33249991E-04
  6.75757842E-04 -1.32465454E-03 -2.20753594E-03  2.81811175E-03  3.26013425E-03
 -5.55861642E-03 -4.04185729E-04 -7.31592263E-04 -5.33803753E-04 -3.21775481E-04
  1.22722830E-03 -9.97206901E-05  1.23309139E-04 -4.62654151E-04  3.48809770E-05
  3.17803655E-04 -1.52361882E-03  2.09748750E-04  8.12732496E-04 -3.24779076E-03
  5.81082250E-06  1.42779024E-03 -1.73993853E-03  1.61649440E-04  1.48278252E-04
 -7.41603659E-05 -6.87157404E-06 -1.27568849E-04 -2.58075034E-04  1.34648586E-04
 -2.50135160E-04 -2.31614406E-04 -2.52645833E-04 -5.88252153E-04 -6.10149433E-05
  1.12191147E-04  1.98366177E-03  1.76790692E-03 -1.99734764E-03 -1.26337843E-03
  2.81821040E-03  2.53260208E-03 -2.82393045E-03 -8.69238907E-04  2.86844824E-03
  2.42540991E-03 -2.35229047E-03 -2.13348999E-03 -1.45843025E-04 -1.83473547E-03
 -1.25866514E-03 -4.39314386E-05  2.86195237E-05  6.44787468E-05 -2.28877367E-05
  8.95749719E-06 -1.45447842E-04  3.46188521E-04  7.25157611E-04 -2.07521750E-04
 -2.25046885E-05  8.50453248E-04  2.41604602E-03 -4.60711338E-03 -8.28977901E-03
  1.07069491E-02  4.47038828E-03 -8.21670209E-03  2.45260663E-03  2.63853884E-03
  1.12885012E-03  9.24338255E-03  8.81880804E-03  3.99978828E-04 -3.44677194E-03
 -3.27928506E-03 -1.35976164E-04 -1.04927522E-02 -1.01957394E-02 -5.17815968E-04
 -2.17596269E-02 -2.07030998E-02 -5.96434581E-04 -9.16525960E-03 -8.39674660E-03
  1.14576866E-03 -9.99198143E-04  6.45505818E-04  7.25956984E-04 -2.35284748E-04
  1.93882134E-03 -1.68316943E-03  1.07474995E-03  1.20856444E-03 -2.09682284E-04
  3.49827340E-03
Mulliken Charges                           R   N=           6
  2.50754020E-01 -5.11585227E-01  1.49964088E-01  1.31319681E-01 -2.04210158E-01
  1.83757596E-01
Optimization MaxStp                        I                2
Optimization Job offset                    I                0
Optimization Num results per geometry      I                2
Optimization Num geometry variables        I               18
Opt point       1 Results for each geome   R   N=           2
 -1.55674713E+03  0.00000000E+00
Opt point       1 Geometries               R   N=          18
  9.41701092E+01  6.74691270E+01  6.16094112E+01  9.57154667E+01  6.87408993E+01
  6.00783114E+01  9.38075662E+01  6.81982599E+01  6.47677892E+01  9.24059600E+01
  6.49588857E+01  6.04754073E+01  9.59353710E+01  6.81117598E+01  5.76538858E+01
  9.75781162E+01  7.12593822E+01  6.09165751E+01
Opt point       1 Gradient at each geome   R   N=          18
  9.96086083E-05  1.08502442E-04 -5.72624665E-05 -3.68813145E-05 -4.28670478E-05
  2.30599779E-05 -2.17536467E-06 -6.62287133E-06 -3.60283357E-06  5.69082800E-06
 -6.66739815E-07 -1.32188584E-05 -1.40948178E-05  7.97018777E-06  6.25070297E-05
 -5.21479393E-05 -6.63159711E-05 -1.14828490E-05
Optimization Number of geometries          I   N=           1
           1
ONIOM Charges                              I   N=          16
           0           0           0           0           0           0
           0           0           0           0           0           0
           0           0           0           0
ONIOM Multiplicities                       I   N=          16
           1           0           0           0           0           0
           0           0           0           0           0           0
           0           0           0           0
Atom Layers                                I   N=           6
           1           1           1           1           1           1
Atom Modifiers                             I   N=           6
           0           0           0           0           0           0
Force Field                                I                0
Int Atom Modified Types                    I   N=           6
           0           0           0           0           0           0
Link Atoms                                 I   N=           6
           0           0           0           0           0           0
Atom Modified MM Charges                   R   N=           6
  0.00000000E+00  0.00000000E+00  0.00000000E+00  0.00000000E+00  0.00000000E+00
  0.00000000E+00
Link Distances                             R   N=          24
  0.00000000E+00  0.00000000E+00  0.00000000E+00  0.00000000E+00  0.00000000E+00
  0.00000000E+00  0.00000000E+00  0.00000000E+00  0.00000000E+00  0.00000000E+00
  0.00000000E+00  0.00000000E+00  0.00000000E+00  0.00000000E+00  0.00000000E+00
  0.00000000E+00  0.00000000E+00  0.00000000E+00  0.00000000E+00  0.00000000E+00
  0.00000000E+00  0.00000000E+00  0.00000000E+00  0.00000000E+00
Cartesian Gradient                         R   N=          18
  9.96086083E-05  1.08502442E-04 -5.72624665E-05 -3.68813145E-05 -4.28670478E-05
  2.30599779E-05 -2.17536467E-06 -6.62287133E-06 -3.60283357E-06  5.69082800E-06
 -6.66739815E-07 -1.32188584E-05 -1.40948178E-05  7.97018777E-06  6.25070297E-05
 -5.21479393E-05 -6.63159711E-05 -1.14828490E-05
Cartesian Force Constants                  R   N=         171
  3.33337047E-01  2.33648449E-01  3.27858479E-01 -1.88221439E-01 -7.54429993E-02
  4.81122667E-01 -2.24820337E-01 -1.46316398E-01  1.62796336E-01  3.69755453E-01
 -1.42590841E-01 -1.72651335E-01  1.30041463E-01  2.46786114E-01  3.74619347E-01
  1.72933269E-01  1.42073503E-01 -2.23180155E-01 -1.97746975E-01 -5.14824725E-02
  5.99597592E-01 -3.02119554E-02 -4.28724554E-03  1.93140775E-02  1.13392342E-03
  4.61404742E-03  1.53994200E-02  2.73958573E-02  1.03605373E-04 -3.24889897E-02
 -3.26128420E-02 -6.33740575E-04  3.73922267E-03  6.76111465E-03  9.50657182E-03
  3.79445571E-02  3.12784704E-02 -1.84181872E-02 -1.71902181E-01  1.10834409E-03
 -1.01979360E-02 -2.93547108E-02 -2.98413355E-02  4.49198359E-02  2.28993721E-01
 -7.20697883E-02 -6.58334969E-02 -1.33042971E-02 -1.00275765E-02 -2.46564964E-02
 -1.13463854E-02  2.32055649E-03 -4.30715338E-03 -8.39437715E-03  8.28489471E-02
 -7.01449897E-02 -1.12843228E-01 -2.41430204E-02 -1.92952376E-02 -2.13113811E-02
 -1.53726735E-02 -5.74047920E-03 -1.04177443E-02 -1.89482811E-02  9.77098402E-02
  1.45448790E-01 -2.50280791E-02 -3.80593252E-02 -4.34499639E-02  3.24260091E-03
  1.94307910E-03  2.04382476E-03 -1.22993417E-02 -2.35832410E-02 -2.11325526E-02
  2.98068910E-02  5.37150843E-02  5.96935330E-02  3.29175420E-03  3.92774189E-03
  2.66544618E-02 -5.28473849E-02 -1.02212618E-02  2.87755077E-02  2.27498746E-03
 -3.73722224E-03  3.95210981E-03 -3.21055292E-03  1.49865603E-03  2.75834132E-03
  4.90169751E-02 -4.35399037E-03  7.19923475E-03  1.12684147E-02 -3.56116415E-03
 -6.42802156E-02 -6.73237266E-02 -3.75266930E-03  2.18032264E-03 -3.60653885E-05
  1.07310218E-03 -2.61781903E-04  5.67273223E-03  1.97336588E-02  7.32095044E-02
  4.08609935E-03 -1.55117140E-02 -4.72260631E-02  4.69205831E-02 -4.57939105E-02
 -3.11728690E-01  3.91035027E-03 -8.59257007E-05 -6.22892292E-03  1.60417510E-03
  4.30181395E-03  2.90487507E-03 -4.28370562E-02  8.34733668E-02  3.84979174E-01
 -9.52671992E-03 -2.11390504E-02 -7.23913919E-03 -8.31940778E-02 -7.39315624E-02
 -8.01483560E-03 -2.91336931E-03 -9.32061004E-04  1.89678836E-03  1.38414114E-04
 -4.02778973E-03  1.51958754E-03  1.47422106E-03 -9.13893712E-03 -1.36841516E-02
  9.40215319E-02 -1.66622336E-02 -1.70741614E-02 -9.11101581E-03 -7.69795736E-02
 -1.20115639E-01 -1.46557452E-02 -3.40225206E-04 -9.57368448E-04  2.68063382E-03
 -3.98579565E-03 -6.14654367E-04  3.11670614E-04 -1.12015726E-02 -1.80470643E-02
 -2.63836305E-02  1.09169401E-01  1.56808887E-01  4.95167919E-03  5.35872269E-03
  4.63569570E-03 -1.63208882E-02 -2.45102229E-02 -3.73778616E-02  3.51682944E-03
  4.60105815E-03 -3.75354232E-04  1.63399353E-03  4.47076820E-04 -5.97163018E-05
 -1.93033644E-02 -3.30547218E-02 -2.27003737E-02  2.55217505E-02  4.71580871E-02
  5.58776102E-02
Dipole Moment                              R   N=           3
  5.34883646E-02  1.25998325E-01  1.70306487E-01
Dipole Derivatives                         R   N=          54
  1.52268244E-01  3.13393059E-01  1.27290459E-01  2.71486976E-01  4.22854647E-01
  4.71388336E-01  1.29849268E-02  3.35747638E-01  8.00186220E-01  5.36519625E-01
  4.98573829E-01 -1.73429019E-01  4.95065485E-01  7.06264821E-01  1.52328005E-01
 -1.83047718E-01  1.40973576E-01  1.03829003E+00 -2.92400619E-02 -4.52153891E-02
  3.01337646E-02 -2.46844507E-02 -7.44546717E-02 -1.72497900E-01  8.61051716E-02
 -1.06083938E-01 -5.49120109E-01 -1.97669346E-01 -2.95992144E-01 -9.53697946E-02
 -3.06351024E-01 -4.06904945E-01 -1.78605714E-01 -1.23483829E-01 -2.11980090E-01
 -1.55992795E-01 -2.11336900E-01 -1.27758992E-01  1.24126318E-01 -7.02868944E-02
 -2.35497004E-01 -2.36339653E-01  2.80741323E-01 -5.05183926E-02 -1.11028053E+00
 -2.50541561E-01 -3.43000363E-01 -1.27517286E-02 -3.65230093E-01 -4.12262848E-01
 -3.62730743E-02 -7.32998740E-02 -1.08138794E-01 -2.30828187E-02
Polarizability                             R   N=           6
  6.11547913E+01  2.22991582E+01  6.79672782E+01 -5.89627722E+00  2.61877371E+00
  6.67341741E+01
QEq coupling tensors                       R   N=          36
  1.67208893E-01 -1.66276289E-01 -9.02647386E-04 -6.68598659E-02 -2.45641440E-01
 -1.66306246E-01  1.92851027E-01 -1.09936125E-01  3.33908927E-02 -7.48415857E-02
 -2.68234269E-01 -2.26241920E-01  1.90583122E+00  2.98810841E-01  1.74907423E+00
  6.48020427E-01 -1.25325230E+00 -3.65490545E+00  1.63171997E-01 -2.42714924E+00
 -1.61020615E+00 -1.18679472E+00 -1.55326694E+00  1.44703415E+00  1.44659565E+00
  2.49294368E-01  1.24784052E+00  3.48745809E-01 -1.06896182E+00 -2.69443617E+00
 -1.25739511E-01 -2.53611632E+00 -1.65320235E+00 -8.85569351E-01 -1.03569208E+00
  1.77894186E+00
