 Entering Gaussian System, Link 0=g09
 Initial command:
 /apps/z_install_tree/linux-rocky8-ivybridge/gcc-12.2.0/gaussian-09-D.01-wczn3gur5lpur3omlkzwa2l5ecyxp5ef/g09/l1.exe "/srv/scratch/z5112331/GMX/ligands/tetrafluoropropane/Gau-2772625.inp" -scrdir="/srv/scratch/z5112331/GMX/ligands/tetrafluoropropane/"
 Entering Link 1 = /apps/z_install_tree/linux-rocky8-ivybridge/gcc-12.2.0/gaussian-09-D.01-wczn3gur5lpur3omlkzwa2l5ecyxp5ef/g09/l1.exe PID=   2772626.
  
 Copyright (c) 1988,1990,1992,1993,1995,1998,2003,2009,2013,
            Gaussian, Inc.  All Rights Reserved.
  
 This is part of the Gaussian(R) 09 program.  It is based on
 the Gaussian(R) 03 system (copyright 2003, Gaussian, Inc.),
 the Gaussian(R) 98 system (copyright 1998, Gaussian, Inc.),
 the Gaussian(R) 94 system (copyright 1995, Gaussian, Inc.),
 the Gaussian 92(TM) system (copyright 1992, Gaussian, Inc.),
 the Gaussian 90(TM) system (copyright 1990, Gaussian, Inc.),
 the Gaussian 88(TM) system (copyright 1988, Gaussian, Inc.),
 the Gaussian 86(TM) system (copyright 1986, Carnegie Mellon
 University), and the Gaussian 82(TM) system (copyright 1983,
 Carnegie Mellon University). Gaussian is a federally registered
 trademark of Gaussian, Inc.
  
 This software contains proprietary and confidential information,
 including trade secrets, belonging to Gaussian, Inc.
  
 This software is provided under written license and may be
 used, copied, transmitted, or stored only in accord with that
 written license.
  
 The following legend is applicable only to US Government
 contracts under FAR:
  
                    RESTRICTED RIGHTS LEGEND
  
 Use, reproduction and disclosure by the US Government is
 subject to restrictions as set forth in subparagraphs (a)
 and (c) of the Commercial Computer Software - Restricted
 Rights clause in FAR 52.227-19.
  
 Gaussian, Inc.
 340 Quinnipiac St., Bldg. 40, Wallingford CT 06492
  
  
 ---------------------------------------------------------------
 Warning -- This program may not be used in any manner that
 competes with the business of Gaussian, Inc. or will provide
 assistance to any competitor of Gaussian, Inc.  The licensee
 of this program is prohibited from giving any competitor of
 Gaussian, Inc. access to this program.  By using this program,
 the user acknowledges that Gaussian, Inc. is engaged in the
 business of creating and licensing software in the field of
 computational chemistry and represents and warrants to the
 licensee that it is not a competitor of Gaussian, Inc. and that
 it will not use this program in any manner prohibited above.
 ---------------------------------------------------------------
  

 Cite this work as:
 Gaussian 09, Revision D.01,
 M. J. Frisch, G. W. Trucks, H. B. Schlegel, G. E. Scuseria, 
 M. A. Robb, J. R. Cheeseman, G. Scalmani, V. Barone, B. Mennucci, 
 G. A. Petersson, H. Nakatsuji, M. Caricato, X. Li, H. P. Hratchian, 
 A. F. Izmaylov, J. Bloino, G. Zheng, J. L. Sonnenberg, M. Hada, 
 M. Ehara, K. Toyota, R. Fukuda, J. Hasegawa, M. Ishida, T. Nakajima, 
 Y. Honda, O. Kitao, H. Nakai, T. Vreven, J. A. Montgomery, Jr., 
 J. E. Peralta, F. Ogliaro, M. Bearpark, J. J. Heyd, E. Brothers, 
 K. N. Kudin, V. N. Staroverov, T. Keith, R. Kobayashi, J. Normand, 
 K. Raghavachari, A. Rendell, J. C. Burant, S. S. Iyengar, J. Tomasi, 
 M. Cossi, N. Rega, J. M. Millam, M. Klene, J. E. Knox, J. B. Cross, 
 V. Bakken, C. Adamo, J. Jaramillo, R. Gomperts, R. E. Stratmann, 
 O. Yazyev, A. J. Austin, R. Cammi, C. Pomelli, J. W. Ochterski, 
 R. L. Martin, K. Morokuma, V. G. Zakrzewski, G. A. Voth, 
 P. Salvador, J. J. Dannenberg, S. Dapprich, A. D. Daniels, 
 O. Farkas, J. B. Foresman, J. V. Ortiz, J. Cioslowski, 
 and D. J. Fox, Gaussian, Inc., Wallingford CT, 2013.
 
 ******************************************
 Gaussian 09:  ES64L-G09RevD.01 24-Apr-2013
                13-Jun-2024 
 ******************************************
 %chk=tetrafluoropropane.chk
 %mem=8GB
 %nprocshared=20
 Will use up to   20 processors via shared memory.
 -------------------------------------------------------------------
 #p opt freq b3lyp/gen nosymm em=gd3 int=ultrafine scf=xqc scfcyc=96
 -------------------------------------------------------------------
 1/14=-1,18=20,19=15,26=4,38=1/1,3;
 2/9=110,12=2,15=1,17=6,18=5,40=1/2;
 3/5=7,11=2,16=1,25=1,30=1,71=1,74=-5,75=-5,124=31/1,2,3;
 4//1;
 5/5=2,7=96,8=3,13=1,38=5/2,8;
 6/7=2,8=2,9=2,10=2,28=1/1;
 7/30=1/1,2,3,16;
 1/14=-1,18=20,19=15,26=4/3(2);
 2/9=110,15=1/2;
 99//99;
 2/9=110,15=1/2;
 3/5=7,6=1,11=2,16=1,25=1,30=1,71=1,74=-5,75=-5,82=7,124=31/1,2,3;
 4/5=5,16=3,69=1/1;
 5/5=2,7=96,8=3,13=1,38=5/2,8;
 7/30=1/1,2,3,16;
 1/14=-1,18=20,19=15,26=4/3(-5);
 2/9=110,15=1/2;
 6/7=2,8=2,9=2,10=2,19=2,28=1/1;
 99/9=1/99;
 Leave Link    1 at Thu Jun 13 12:25:12 2024, MaxMem=  1073741824 cpu:         0.9
 (Enter /apps/z_install_tree/linux-rocky8-ivybridge/gcc-12.2.0/gaussian-09-D.01-wczn3gur5lpur3omlkzwa2l5ecyxp5ef/g09/l101.exe)
 ------------------
 tetrafluoropropane
 ------------------
 Symbolic Z-matrix:
 Charge =  0 Multiplicity = 1
 C                     50.156    35.315    31.965 
 C                     50.054    35.638    33.445 
 C                     51.497    35.707    31.286 
 F                     50.596    37.342    33.861 
 F                     48.422    35.372    33.954 
 F                     50.859    34.495    34.416 
 F                     51.583    35.195    29.497 
 H                     49.48     36.007    31.449 
 H                     49.984    34.251    31.757 
 H                     52.317    35.127    31.726 
 H                     51.67     36.787    31.211 
 
 Add virtual bond connecting atoms F6         and C2         Dist= 3.22D+00.
 Add virtual bond connecting atoms F5         and C2         Dist= 3.27D+00.
 Add virtual bond connecting atoms F4         and C2         Dist= 3.47D+00.
 Add virtual bond connecting atoms F7         and C3         Dist= 3.52D+00.
 NAtoms=     11 NQM=       11 NQMF=       0 NMMI=      0 NMMIF=      0
                NMic=       0 NMicF=      0.
                    Isotopes and Nuclear Properties:
 (Nuclear quadrupole moments (NQMom) in fm**2, nuclear magnetic moments (NMagM)
  in nuclear magnetons)

  Atom         1           2           3           4           5           6           7           8           9          10
 IAtWgt=          12          12          12          19          19          19          19           1           1           1
 AtmWgt=  12.0000000  12.0000000  12.0000000  18.9984033  18.9984033  18.9984033  18.9984033   1.0078250   1.0078250   1.0078250
 NucSpn=           0           0           0           1           1           1           1           1           1           1
 AtZEff=   0.0000000   0.0000000   0.0000000   0.0000000   0.0000000   0.0000000   0.0000000   0.0000000   0.0000000   0.0000000
 NQMom=    0.0000000   0.0000000   0.0000000   0.0000000   0.0000000   0.0000000   0.0000000   0.0000000   0.0000000   0.0000000
 NMagM=    0.0000000   0.0000000   0.0000000   2.6288670   2.6288670   2.6288670   2.6288670   2.7928460   2.7928460   2.7928460
 AtZNuc=   6.0000000   6.0000000   6.0000000   9.0000000   9.0000000   9.0000000   9.0000000   1.0000000   1.0000000   1.0000000

  Atom        11
 IAtWgt=           1
 AtmWgt=   1.0078250
 NucSpn=           1
 AtZEff=   0.0000000
 NQMom=    0.0000000
 NMagM=    2.7928460
 AtZNuc=   1.0000000
 Leave Link  101 at Thu Jun 13 12:25:12 2024, MaxMem=  1073741824 cpu:         3.4
 (Enter /apps/z_install_tree/linux-rocky8-ivybridge/gcc-12.2.0/gaussian-09-D.01-wczn3gur5lpur3omlkzwa2l5ecyxp5ef/g09/l103.exe)

 GradGradGradGradGradGradGradGradGradGradGradGradGradGradGradGradGradGrad
 Berny optimization.
 Initialization pass.
                           ----------------------------
                           !    Initial Parameters    !
                           ! (Angstroms and Degrees)  !
 --------------------------                            --------------------------
 ! Name  Definition              Value          Derivative Info.                !
 --------------------------------------------------------------------------------
 ! R1    R(1,2)                  1.5183         estimate D2E/DX2                !
 ! R2    R(1,3)                  1.5534         estimate D2E/DX2                !
 ! R3    R(1,8)                  1.0964         estimate D2E/DX2                !
 ! R4    R(1,9)                  1.0977         estimate D2E/DX2                !
 ! R5    R(2,4)                  1.8359         estimate D2E/DX2                !
 ! R6    R(2,5)                  1.7301         estimate D2E/DX2                !
 ! R7    R(2,6)                  1.7022         estimate D2E/DX2                !
 ! R8    R(3,7)                  1.8628         estimate D2E/DX2                !
 ! R9    R(3,10)                 1.0965         estimate D2E/DX2                !
 ! R10   R(3,11)                 1.0963         estimate D2E/DX2                !
 ! A1    A(2,1,3)              115.4933         estimate D2E/DX2                !
 ! A2    A(2,1,8)              106.4437         estimate D2E/DX2                !
 ! A3    A(2,1,9)              112.3582         estimate D2E/DX2                !
 ! A4    A(3,1,8)               99.6293         estimate D2E/DX2                !
 ! A5    A(3,1,9)              107.2803         estimate D2E/DX2                !
 ! A6    A(8,1,9)              115.2134         estimate D2E/DX2                !
 ! A7    A(1,2,4)              113.4851         estimate D2E/DX2                !
 ! A8    A(1,2,5)              108.5088         estimate D2E/DX2                !
 ! A9    A(1,2,6)              112.4234         estimate D2E/DX2                !
 ! A10   A(4,2,5)              110.7644         estimate D2E/DX2                !
 ! A11   A(4,2,6)              110.7557         estimate D2E/DX2                !
 ! A12   A(5,2,6)              100.0811         estimate D2E/DX2                !
 ! A13   A(1,3,7)              112.9723         estimate D2E/DX2                !
 ! A14   A(1,3,10)             109.6754         estimate D2E/DX2                !
 ! A15   A(1,3,11)             114.5016         estimate D2E/DX2                !
 ! A16   A(7,3,10)             101.8564         estimate D2E/DX2                !
 ! A17   A(7,3,11)             101.4068         estimate D2E/DX2                !
 ! A18   A(10,3,11)            115.4994         estimate D2E/DX2                !
 ! D1    D(3,1,2,4)             47.2869         estimate D2E/DX2                !
 ! D2    D(3,1,2,5)            170.866          estimate D2E/DX2                !
 ! D3    D(3,1,2,6)            -79.3893         estimate D2E/DX2                !
 ! D4    D(8,1,2,4)            -62.222          estimate D2E/DX2                !
 ! D5    D(8,1,2,5)             61.3571         estimate D2E/DX2                !
 ! D6    D(8,1,2,6)            171.1018         estimate D2E/DX2                !
 ! D7    D(9,1,2,4)            170.7891         estimate D2E/DX2                !
 ! D8    D(9,1,2,5)            -65.6318         estimate D2E/DX2                !
 ! D9    D(9,1,2,6)             44.1129         estimate D2E/DX2                !
 ! D10   D(2,1,3,7)            176.8123         estimate D2E/DX2                !
 ! D11   D(2,1,3,10)            63.9468         estimate D2E/DX2                !
 ! D12   D(2,1,3,11)           -67.7666         estimate D2E/DX2                !
 ! D13   D(8,1,3,7)            -69.6726         estimate D2E/DX2                !
 ! D14   D(8,1,3,10)           177.4619         estimate D2E/DX2                !
 ! D15   D(8,1,3,11)            45.7484         estimate D2E/DX2                !
 ! D16   D(9,1,3,7)             50.6775         estimate D2E/DX2                !
 ! D17   D(9,1,3,10)           -62.1879         estimate D2E/DX2                !
 ! D18   D(9,1,3,11)           166.0986         estimate D2E/DX2                !
 --------------------------------------------------------------------------------
 Trust Radius=3.00D-01 FncErr=1.00D-07 GrdErr=1.00D-06
 Number of steps in this run=     56 maximum allowed number of steps=    100.
 GradGradGradGradGradGradGradGradGradGradGradGradGradGradGradGradGradGrad

 Leave Link  103 at Thu Jun 13 12:25:13 2024, MaxMem=  1073741824 cpu:         0.2
 (Enter /apps/z_install_tree/linux-rocky8-ivybridge/gcc-12.2.0/gaussian-09-D.01-wczn3gur5lpur3omlkzwa2l5ecyxp5ef/g09/l202.exe)
                          Input orientation:                          
 ---------------------------------------------------------------------
 Center     Atomic      Atomic             Coordinates (Angstroms)
 Number     Number       Type             X           Y           Z
 ---------------------------------------------------------------------
      1          6           0       50.156000   35.315000   31.965000
      2          6           0       50.054000   35.638000   33.445000
      3          6           0       51.497000   35.707000   31.286000
      4          9           0       50.596000   37.342000   33.861000
      5          9           0       48.422000   35.372000   33.954000
      6          9           0       50.859000   34.495000   34.416000
      7          9           0       51.583000   35.195000   29.497000
      8          1           0       49.480000   36.007000   31.449000
      9          1           0       49.984000   34.251000   31.757000
     10          1           0       52.317000   35.127000   31.726000
     11          1           0       51.670000   36.787000   31.211000
 ---------------------------------------------------------------------
                    Distance matrix (angstroms):
                    1          2          3          4          5
     1  C    0.000000
     2  C    1.518266   0.000000
     3  C    1.553379   2.597747   0.000000
     4  F    2.810186   1.835875   3.180511   0.000000
     5  F    2.639342   1.730104   4.084859   2.935273   0.000000
     6  F    2.678434   1.702150   3.416561   2.912491   2.630882
     7  F    2.853376   4.256853   1.862810   4.962688   5.467001
     8  H    1.096401   2.109420   2.045693   2.974126   2.792421
     9  H    1.097699   2.185867   2.151963   3.788884   2.919468
    10  H    2.182289   2.887430   1.096540   3.525094   4.493889
    11  H    2.242208   2.987041   1.096337   2.912731   4.480600
                    6          7          8          9         10
     6  F    0.000000
     7  F    5.021029   0.000000
     8  H    3.604286   2.981989   0.000000
     9  H    2.809883   2.924985   1.852678   0.000000
    10  H    3.124306   2.347727   2.983236   2.492233   0.000000
    11  H    4.022811   2.340903   2.336909   3.093866   1.854571
                   11
    11  H    0.000000
 Symmetry turned off by external request.
 Stoichiometry    C3H4F4
 Framework group  C1[X(C3H4F4)]
 Deg. of freedom    27
 Full point group                 C1      NOp   1
 Rotational constants (GHZ):      3.1007459      1.0643260      1.0182837
 Leave Link  202 at Thu Jun 13 12:25:13 2024, MaxMem=  1073741824 cpu:         1.0
 (Enter /apps/z_install_tree/linux-rocky8-ivybridge/gcc-12.2.0/gaussian-09-D.01-wczn3gur5lpur3omlkzwa2l5ecyxp5ef/g09/l301.exe)
 General basis read from cards:  (5D, 7F)
 Centers:       4      5      6      7      1      2      3      8      9     10
 Centers:      11
 6-311+g(2d,2p)
 ****
 Ernie: Thresh=  0.10000D-02 Tol=  0.10000D-05 Strict=F.
   225 basis functions,   338 primitive gaussians,   239 cartesian basis functions
    29 alpha electrons       29 beta electrons
       nuclear repulsion energy       287.9905500924 Hartrees.
 IExCor=  402 DFT=T Ex+Corr=B3LYP ExCW=0 ScaHFX=  0.200000
 ScaDFX=  0.800000  0.720000  1.000000  0.810000 ScalE2=  1.000000  1.000000
 IRadAn=      5 IRanWt=     -1 IRanGd=            0 ICorTp=0 IEmpDi=131
 NAtoms=   11 NActive=   11 NUniq=   11 SFac= 1.00D+00 NAtFMM=   60 NAOKFM=F Big=F
 Integral buffers will be    131072 words long.
 Raffenetti 2 integral format.
 Two-electron integral symmetry is turned off.
 R6Disp:  Grimme-D3 Dispersion energy=       -0.0076848920 Hartrees.
 Nuclear repulsion after empirical dispersion term =      287.9828652005 Hartrees.
 Leave Link  301 at Thu Jun 13 12:25:13 2024, MaxMem=  1073741824 cpu:         0.5
 (Enter /apps/z_install_tree/linux-rocky8-ivybridge/gcc-12.2.0/gaussian-09-D.01-wczn3gur5lpur3omlkzwa2l5ecyxp5ef/g09/l302.exe)
 NPDir=0 NMtPBC=     1 NCelOv=     1 NCel=       1 NClECP=     1 NCelD=      1
         NCelK=      1 NCelE2=     1 NClLst=     1 CellRange=     0.0.
 One-electron integrals computed using PRISM.
 NBasis=   225 RedAO= T EigKep=  6.85D-05  NBF=   225
 NBsUse=   225 1.00D-06 EigRej= -1.00D+00 NBFU=   225
 Precomputing XC quadrature grid using
 IXCGrd= 4 IRadAn=           5 IRanWt=          -1 IRanGd=           0 AccXCQ= 0.00D+00.
 Generated NRdTot=       0 NPtTot=           0 NUsed=           0 NTot=          32
 NSgBfM=   239   239   239   239   239 MxSgAt=    11 MxSgA2=    11.
 Leave Link  302 at Thu Jun 13 12:25:13 2024, MaxMem=  1073741824 cpu:         2.7
 (Enter /apps/z_install_tree/linux-rocky8-ivybridge/gcc-12.2.0/gaussian-09-D.01-wczn3gur5lpur3omlkzwa2l5ecyxp5ef/g09/l303.exe)
 DipDrv:  MaxL=1.
 Leave Link  303 at Thu Jun 13 12:25:13 2024, MaxMem=  1073741824 cpu:         0.4
 (Enter /apps/z_install_tree/linux-rocky8-ivybridge/gcc-12.2.0/gaussian-09-D.01-wczn3gur5lpur3omlkzwa2l5ecyxp5ef/g09/l401.exe)
 ExpMin= 4.38D-02 ExpMax= 1.14D+04 ExpMxC= 1.72D+03 IAcc=3 IRadAn=         5 AccDes= 0.00D+00
 Harris functional with IExCor=  402 and IRadAn=       5 diagonalized for initial guess.
 HarFok:  IExCor=  402 AccDes= 0.00D+00 IRadAn=         5 IDoV= 1 UseB2=F ITyADJ=14
 ICtDFT=  3500011 ScaDFX=  1.000000  1.000000  1.000000  1.000000
 FoFCou: FMM=F IPFlag=           0 FMFlag=      100000 FMFlg1=           0
         NFxFlg=           0 DoJE=T BraDBF=F KetDBF=T FulRan=T
         wScrn=  0.000000 ICntrl=     500 IOpCl=  0 I1Cent=   200000004 NGrid=           0
         NMat0=    1 NMatS0=      1 NMatT0=    0 NMatD0=    1 NMtDS0=    0 NMtDT0=    0
 Symmetry not used in FoFCou.
 Harris En= -516.102146045062    
 JPrj=0 DoOrth=F DoCkMO=F.
 Leave Link  401 at Thu Jun 13 12:25:14 2024, MaxMem=  1073741824 cpu:         7.4
 (Enter /apps/z_install_tree/linux-rocky8-ivybridge/gcc-12.2.0/gaussian-09-D.01-wczn3gur5lpur3omlkzwa2l5ecyxp5ef/g09/l502.exe)
 Closed shell SCF:
 Using DIIS extrapolation, IDIIS=  1040.
 Two-electron integral symmetry not used.
 Keep R1 ints in memory in canonical form, NReq=330328726.
 IVT=      188821 IEndB=      188821 NGot=  1073741824 MDV=   750324979
 LenX=   750324979 LenY=   750267417
 Requested convergence on RMS density matrix=1.00D-08 within  96 cycles.
 Requested convergence on MAX density matrix=1.00D-06.
 Requested convergence on             energy=1.00D-06.
 No special actions if energy rises.
 FoFCou: FMM=F IPFlag=           0 FMFlag=           0 FMFlg1=           0
         NFxFlg=           0 DoJE=F BraDBF=F KetDBF=F FulRan=T
         wScrn=  0.000000 ICntrl=     600 IOpCl=  0 I1Cent=           0 NGrid=           0
         NMat0=    1 NMatS0=  25425 NMatT0=    0 NMatD0=    1 NMtDS0=    0 NMtDT0=    0
 Symmetry not used in FoFCou.

 Cycle   1  Pass 1  IDiag  1:
 E= -515.760279711684    
 DIIS: error= 3.29D-02 at cycle   1 NSaved=   1.
 NSaved= 1 IEnMin= 1 EnMin= -515.760279711684     IErMin= 1 ErrMin= 3.29D-02
 ErrMax= 3.29D-02  0.00D+00 EMaxC= 1.00D-01 BMatC= 3.22D-01 BMatP= 3.22D-01
 IDIUse=3 WtCom= 6.71D-01 WtEn= 3.29D-01
 Coeff-Com:  0.100D+01
 Coeff-En:   0.100D+01
 Coeff:      0.100D+01
 Gap=     0.181 Goal=   None    Shift=    0.000
 GapD=    0.181 DampG=1.000 DampE=0.500 DampFc=0.5000 IDamp=-1.
 Damping current iteration by 5.00D-01
 RMSDP=7.10D-03 MaxDP=4.46D-01              OVMax= 7.76D-01

 Cycle   2  Pass 1  IDiag  1:
 E= -514.386991657034     Delta-E=        1.373288054651 Rises=F Damp=T
 DIIS: error= 4.03D-02 at cycle   2 NSaved=   2.
 NSaved= 2 IEnMin= 1 EnMin= -515.760279711684     IErMin= 1 ErrMin= 3.29D-02
 ErrMax= 4.03D-02  0.00D+00 EMaxC= 1.00D-01 BMatC= 8.75D-01 BMatP= 3.22D-01
 IDIUse=2 WtCom= 0.00D+00 WtEn= 1.00D+00
 Coeff-En:   0.866D+00 0.134D+00
 Coeff:      0.866D+00 0.134D+00
 Gap=    -0.075 Goal=   None    Shift=    0.000
 RMSDP=3.27D-03 MaxDP=1.06D-01 DE= 1.37D+00 OVMax= 9.02D-01

 Cycle   3  Pass 1  IDiag  1:
 E= -514.924262459836     Delta-E=       -0.537270802802 Rises=F Damp=F
 DIIS: error= 8.13D-02 at cycle   3 NSaved=   3.
 NSaved= 3 IEnMin= 1 EnMin= -515.760279711684     IErMin= 1 ErrMin= 3.29D-02
 ErrMax= 8.13D-02  0.00D+00 EMaxC= 1.00D-01 BMatC= 1.52D+00 BMatP= 3.22D-01
 IDIUse=2 WtCom= 0.00D+00 WtEn= 1.00D+00
 EnCoef did   100 forward-backward iterations
 Coeff-En:   0.740D+00 0.742D-02 0.252D+00
 Coeff:      0.740D+00 0.742D-02 0.252D+00
 Gap=     0.200 Goal=   None    Shift=    0.000
 RMSDP=2.56D-03 MaxDP=1.11D-01 DE=-5.37D-01 OVMax= 2.27D-01

 Cycle   4  Pass 1  IDiag  1:
 E= -515.904789001320     Delta-E=       -0.980526541484 Rises=F Damp=F
 DIIS: error= 1.79D-02 at cycle   4 NSaved=   4.
 NSaved= 4 IEnMin= 4 EnMin= -515.904789001320     IErMin= 4 ErrMin= 1.79D-02
 ErrMax= 1.79D-02  0.00D+00 EMaxC= 1.00D-01 BMatC= 1.73D-01 BMatP= 3.22D-01
 IDIUse=3 WtCom= 8.21D-01 WtEn= 1.79D-01
 Coeff-Com:  0.467D+00-0.705D-01 0.140D+00 0.464D+00
 Coeff-En:   0.341D+00 0.000D+00 0.000D+00 0.659D+00
 Coeff:      0.444D+00-0.579D-01 0.115D+00 0.499D+00
 Gap=     0.164 Goal=   None    Shift=    0.000
 RMSDP=1.30D-03 MaxDP=6.05D-02 DE=-9.81D-01 OVMax= 1.45D-01

 Cycle   5  Pass 1  IDiag  1:
 E= -516.012056162767     Delta-E=       -0.107267161448 Rises=F Damp=F
 DIIS: error= 7.00D-03 at cycle   5 NSaved=   5.
 NSaved= 5 IEnMin= 5 EnMin= -516.012056162767     IErMin= 5 ErrMin= 7.00D-03
 ErrMax= 7.00D-03  0.00D+00 EMaxC= 1.00D-01 BMatC= 2.46D-02 BMatP= 1.73D-01
 IDIUse=3 WtCom= 9.30D-01 WtEn= 7.00D-02
 Coeff-Com:  0.191D+00-0.426D-01 0.585D-02 0.328D+00 0.518D+00
 Coeff-En:   0.000D+00 0.000D+00 0.000D+00 0.541D-01 0.946D+00
 Coeff:      0.178D+00-0.396D-01 0.544D-02 0.308D+00 0.548D+00
 Gap=     0.172 Goal=   None    Shift=    0.000
 RMSDP=4.95D-04 MaxDP=1.66D-02 DE=-1.07D-01 OVMax= 3.69D-02

 Cycle   6  Pass 1  IDiag  1:
 E= -516.026631359200     Delta-E=       -0.014575196433 Rises=F Damp=F
 DIIS: error= 3.12D-03 at cycle   6 NSaved=   6.
 NSaved= 6 IEnMin= 6 EnMin= -516.026631359200     IErMin= 6 ErrMin= 3.12D-03
 ErrMax= 3.12D-03  0.00D+00 EMaxC= 1.00D-01 BMatC= 6.12D-03 BMatP= 2.46D-02
 IDIUse=3 WtCom= 9.69D-01 WtEn= 3.12D-02
 Coeff-Com:  0.445D-01-0.133D-01-0.176D-01 0.698D-01 0.372D+00 0.544D+00
 Coeff-En:   0.000D+00 0.000D+00 0.000D+00 0.000D+00 0.222D+00 0.778D+00
 Coeff:      0.431D-01-0.129D-01-0.171D-01 0.676D-01 0.368D+00 0.552D+00
 Gap=     0.182 Goal=   None    Shift=    0.000
 RMSDP=2.11D-04 MaxDP=5.84D-03 DE=-1.46D-02 OVMax= 1.62D-02

 Cycle   7  Pass 1  IDiag  1:
 E= -516.030782568066     Delta-E=       -0.004151208866 Rises=F Damp=F
 DIIS: error= 9.51D-04 at cycle   7 NSaved=   7.
 NSaved= 7 IEnMin= 7 EnMin= -516.030782568066     IErMin= 7 ErrMin= 9.51D-04
 ErrMax= 9.51D-04  0.00D+00 EMaxC= 1.00D-01 BMatC= 6.28D-04 BMatP= 6.12D-03
 IDIUse=3 WtCom= 9.90D-01 WtEn= 9.51D-03
 Coeff-Com:  0.125D-01-0.442D-02-0.993D-02 0.433D-02 0.174D+00 0.371D+00
 Coeff-Com:  0.453D+00
 Coeff-En:   0.000D+00 0.000D+00 0.000D+00 0.000D+00 0.000D+00 0.175D-01
 Coeff-En:   0.983D+00
 Coeff:      0.124D-01-0.438D-02-0.983D-02 0.429D-02 0.173D+00 0.367D+00
 Coeff:      0.458D+00
 Gap=     0.181 Goal=   None    Shift=    0.000
 RMSDP=7.51D-05 MaxDP=2.52D-03 DE=-4.15D-03 OVMax= 8.23D-03

 Cycle   8  Pass 1  IDiag  1:
 E= -516.031174130976     Delta-E=       -0.000391562911 Rises=F Damp=F
 DIIS: error= 4.79D-04 at cycle   8 NSaved=   8.
 NSaved= 8 IEnMin= 8 EnMin= -516.031174130976     IErMin= 8 ErrMin= 4.79D-04
 ErrMax= 4.79D-04  0.00D+00 EMaxC= 1.00D-01 BMatC= 7.93D-05 BMatP= 6.28D-04
 IDIUse=3 WtCom= 9.95D-01 WtEn= 4.79D-03
 Coeff-Com:  0.449D-02 0.533D-03-0.217D-02-0.397D-02 0.341D-01 0.111D+00
 Coeff-Com:  0.290D+00 0.566D+00
 Coeff-En:   0.000D+00 0.000D+00 0.000D+00 0.000D+00 0.000D+00 0.000D+00
 Coeff-En:   0.139D+00 0.861D+00
 Coeff:      0.447D-02 0.531D-03-0.216D-02-0.396D-02 0.339D-01 0.111D+00
 Coeff:      0.289D+00 0.567D+00
 Gap=     0.181 Goal=   None    Shift=    0.000
 RMSDP=2.58D-05 MaxDP=1.06D-03 DE=-3.92D-04 OVMax= 2.08D-03

 Cycle   9  Pass 1  IDiag  1:
 E= -516.031235540768     Delta-E=       -0.000061409792 Rises=F Damp=F
 DIIS: error= 9.60D-05 at cycle   9 NSaved=   9.
 NSaved= 9 IEnMin= 9 EnMin= -516.031235540768     IErMin= 9 ErrMin= 9.60D-05
 ErrMax= 9.60D-05  0.00D+00 EMaxC= 1.00D-01 BMatC= 5.86D-06 BMatP= 7.93D-05
 IDIUse=1 WtCom= 1.00D+00 WtEn= 0.00D+00
 Coeff-Com:  0.115D-02 0.153D-03-0.919D-03 0.196D-02 0.466D-03 0.159D-01
 Coeff-Com:  0.910D-01 0.228D+00 0.663D+00
 Coeff:      0.115D-02 0.153D-03-0.919D-03 0.196D-02 0.466D-03 0.159D-01
 Coeff:      0.910D-01 0.228D+00 0.663D+00
 Gap=     0.180 Goal=   None    Shift=    0.000
 RMSDP=9.20D-06 MaxDP=3.66D-04 DE=-6.14D-05 OVMax= 6.43D-04

 Cycle  10  Pass 1  IDiag  1:
 E= -516.031240234794     Delta-E=       -0.000004694026 Rises=F Damp=F
 DIIS: error= 4.40D-05 at cycle  10 NSaved=  10.
 NSaved=10 IEnMin=10 EnMin= -516.031240234794     IErMin=10 ErrMin= 4.40D-05
 ErrMax= 4.40D-05  0.00D+00 EMaxC= 1.00D-01 BMatC= 5.93D-07 BMatP= 5.86D-06
 IDIUse=1 WtCom= 1.00D+00 WtEn= 0.00D+00
 Coeff-Com:  0.441D-03 0.393D-04-0.479D-03 0.136D-02-0.133D-02 0.501D-02
 Coeff-Com:  0.413D-01 0.112D+00 0.389D+00 0.453D+00
 Coeff:      0.441D-03 0.393D-04-0.479D-03 0.136D-02-0.133D-02 0.501D-02
 Coeff:      0.413D-01 0.112D+00 0.389D+00 0.453D+00
 Gap=     0.180 Goal=   None    Shift=    0.000
 RMSDP=2.62D-06 MaxDP=7.71D-05 DE=-4.69D-06 OVMax= 1.86D-04

 Cycle  11  Pass 1  IDiag  1:
 E= -516.031240549305     Delta-E=       -0.000000314510 Rises=F Damp=F
 DIIS: error= 2.37D-05 at cycle  11 NSaved=  11.
 NSaved=11 IEnMin=11 EnMin= -516.031240549305     IErMin=11 ErrMin= 2.37D-05
 ErrMax= 2.37D-05  0.00D+00 EMaxC= 1.00D-01 BMatC= 1.53D-07 BMatP= 5.93D-07
 IDIUse=1 WtCom= 1.00D+00 WtEn= 0.00D+00
 Coeff-Com:  0.164D-04 0.117D-04-0.965D-04 0.230D-03-0.699D-03 0.866D-03
 Coeff-Com:  0.714D-02 0.242D-01 0.930D-01 0.330D+00 0.546D+00
 Coeff:      0.164D-04 0.117D-04-0.965D-04 0.230D-03-0.699D-03 0.866D-03
 Coeff:      0.714D-02 0.242D-01 0.930D-01 0.330D+00 0.546D+00
 Gap=     0.180 Goal=   None    Shift=    0.000
 RMSDP=1.03D-06 MaxDP=3.16D-05 DE=-3.15D-07 OVMax= 8.05D-05

 Cycle  12  Pass 1  IDiag  1:
 E= -516.031240646809     Delta-E=       -0.000000097505 Rises=F Damp=F
 DIIS: error= 4.24D-06 at cycle  12 NSaved=  12.
 NSaved=12 IEnMin=12 EnMin= -516.031240646809     IErMin=12 ErrMin= 4.24D-06
 ErrMax= 4.24D-06  0.00D+00 EMaxC= 1.00D-01 BMatC= 9.01D-09 BMatP= 1.53D-07
 IDIUse=1 WtCom= 1.00D+00 WtEn= 0.00D+00
 Coeff-Com: -0.471D-04-0.818D-06 0.148D-04-0.904D-04-0.415D-04 0.414D-03
 Coeff-Com: -0.250D-03 0.237D-03 0.364D-02 0.111D+00 0.267D+00 0.617D+00
 Coeff:     -0.471D-04-0.818D-06 0.148D-04-0.904D-04-0.415D-04 0.414D-03
 Coeff:     -0.250D-03 0.237D-03 0.364D-02 0.111D+00 0.267D+00 0.617D+00
 Gap=     0.180 Goal=   None    Shift=    0.000
 RMSDP=2.81D-07 MaxDP=1.56D-05 DE=-9.75D-08 OVMax= 1.67D-05

 Cycle  13  Pass 1  IDiag  1:
 E= -516.031240654587     Delta-E=       -0.000000007777 Rises=F Damp=F
 DIIS: error= 6.73D-07 at cycle  13 NSaved=  13.
 NSaved=13 IEnMin=13 EnMin= -516.031240654587     IErMin=13 ErrMin= 6.73D-07
 ErrMax= 6.73D-07  0.00D+00 EMaxC= 1.00D-01 BMatC= 2.43D-10 BMatP= 9.01D-09
 IDIUse=1 WtCom= 1.00D+00 WtEn= 0.00D+00
 Coeff-Com: -0.101D-04-0.736D-06 0.677D-05-0.156D-04 0.513D-04 0.304D-04
 Coeff-Com: -0.163D-03-0.981D-03-0.283D-03 0.737D-02 0.274D-01 0.115D+00
 Coeff-Com:  0.852D+00
 Coeff:     -0.101D-04-0.736D-06 0.677D-05-0.156D-04 0.513D-04 0.304D-04
 Coeff:     -0.163D-03-0.981D-03-0.283D-03 0.737D-02 0.274D-01 0.115D+00
 Coeff:      0.852D+00
 Gap=     0.180 Goal=   None    Shift=    0.000
 RMSDP=8.65D-08 MaxDP=3.59D-06 DE=-7.78D-09 OVMax= 6.04D-06

 Cycle  14  Pass 1  IDiag  1:
 E= -516.031240654829     Delta-E=       -0.000000000243 Rises=F Damp=F
 DIIS: error= 1.50D-07 at cycle  14 NSaved=  14.
 NSaved=14 IEnMin=14 EnMin= -516.031240654829     IErMin=14 ErrMin= 1.50D-07
 ErrMax= 1.50D-07  0.00D+00 EMaxC= 1.00D-01 BMatC= 1.05D-11 BMatP= 2.43D-10
 IDIUse=1 WtCom= 1.00D+00 WtEn= 0.00D+00
 Coeff-Com: -0.590D-06-0.340D-07 0.876D-07 0.653D-05-0.245D-05-0.560D-04
 Coeff-Com: -0.124D-03-0.383D-03-0.623D-03-0.410D-02-0.956D-02-0.146D-01
 Coeff-Com:  0.139D+00 0.890D+00
 Coeff:     -0.590D-06-0.340D-07 0.876D-07 0.653D-05-0.245D-05-0.560D-04
 Coeff:     -0.124D-03-0.383D-03-0.623D-03-0.410D-02-0.956D-02-0.146D-01
 Coeff:      0.139D+00 0.890D+00
 Gap=     0.180 Goal=   None    Shift=    0.000
 RMSDP=2.37D-08 MaxDP=1.22D-06 DE=-2.43D-10 OVMax= 1.52D-06

 Cycle  15  Pass 1  IDiag  1:
 E= -516.031240654851     Delta-E=       -0.000000000021 Rises=F Damp=F
 DIIS: error= 2.81D-08 at cycle  15 NSaved=  15.
 NSaved=15 IEnMin=15 EnMin= -516.031240654851     IErMin=15 ErrMin= 2.81D-08
 ErrMax= 2.81D-08  0.00D+00 EMaxC= 1.00D-01 BMatC= 4.63D-13 BMatP= 1.05D-11
 IDIUse=1 WtCom= 1.00D+00 WtEn= 0.00D+00
 Coeff-Com:  0.138D-06 0.115D-07-0.205D-06 0.166D-05-0.373D-05-0.137D-04
 Coeff-Com: -0.302D-04-0.413D-04-0.189D-03-0.132D-02-0.308D-02-0.744D-02
 Coeff-Com:  0.215D-02 0.197D+00 0.813D+00
 Coeff:      0.138D-06 0.115D-07-0.205D-06 0.166D-05-0.373D-05-0.137D-04
 Coeff:     -0.302D-04-0.413D-04-0.189D-03-0.132D-02-0.308D-02-0.744D-02
 Coeff:      0.215D-02 0.197D+00 0.813D+00
 Gap=     0.180 Goal=   None    Shift=    0.000
 RMSDP=4.65D-09 MaxDP=2.95D-07 DE=-2.14D-11 OVMax= 2.99D-07

 SCF Done:  E(RB3LYP) =  -516.031240655     A.U. after   15 cycles
            NFock= 15  Conv=0.47D-08     -V/T= 2.0062
 KE= 5.128559166976D+02 PE=-1.798780793907D+03 EE= 4.819107713539D+02
 Leave Link  502 at Thu Jun 13 12:25:27 2024, MaxMem=  1073741824 cpu:       144.9
 (Enter /apps/z_install_tree/linux-rocky8-ivybridge/gcc-12.2.0/gaussian-09-D.01-wczn3gur5lpur3omlkzwa2l5ecyxp5ef/g09/l508.exe)
 QCSCF skips out because SCF is already converged.
 Leave Link  508 at Thu Jun 13 12:25:27 2024, MaxMem=  1073741824 cpu:         0.0
 (Enter /apps/z_install_tree/linux-rocky8-ivybridge/gcc-12.2.0/gaussian-09-D.01-wczn3gur5lpur3omlkzwa2l5ecyxp5ef/g09/l601.exe)
 Copying SCF densities to generalized density rwf, IOpCl= 0 IROHF=0.

 **********************************************************************

            Population analysis using the SCF density.

 **********************************************************************

 Alpha  occ. eigenvalues --  -24.73870 -24.73199 -24.72735 -24.66272 -10.52123
 Alpha  occ. eigenvalues --  -10.33489 -10.29742  -1.20388  -1.18312  -1.17317
 Alpha  occ. eigenvalues --   -1.11809  -0.89304  -0.75266  -0.65632  -0.57520
 Alpha  occ. eigenvalues --   -0.54149  -0.52967  -0.51409  -0.47020  -0.45694
 Alpha  occ. eigenvalues --   -0.45170  -0.44602  -0.44068  -0.43459  -0.43327
 Alpha  occ. eigenvalues --   -0.43066  -0.42651  -0.38096  -0.37907
 Alpha virt. eigenvalues --   -0.19946  -0.14635  -0.11422  -0.09897  -0.01021
 Alpha virt. eigenvalues --    0.01052   0.01513   0.04315   0.04831   0.05891
 Alpha virt. eigenvalues --    0.07026   0.07997   0.08085   0.10549   0.11410
 Alpha virt. eigenvalues --    0.12713   0.13049   0.15057   0.16306   0.17835
 Alpha virt. eigenvalues --    0.17999   0.19941   0.21473   0.24851   0.25602
 Alpha virt. eigenvalues --    0.26471   0.27000   0.28867   0.29423   0.30726
 Alpha virt. eigenvalues --    0.31424   0.32822   0.34684   0.34888   0.35641
 Alpha virt. eigenvalues --    0.36965   0.37679   0.38290   0.38763   0.41337
 Alpha virt. eigenvalues --    0.42974   0.44191   0.46560   0.48743   0.50682
 Alpha virt. eigenvalues --    0.52575   0.54620   0.54721   0.56381   0.59321
 Alpha virt. eigenvalues --    0.60084   0.63154   0.64633   0.71732   0.75073
 Alpha virt. eigenvalues --    0.81568   0.84698   0.85460   0.88346   0.90520
 Alpha virt. eigenvalues --    0.92607   0.96814   1.00088   1.03291   1.07217
 Alpha virt. eigenvalues --    1.09061   1.10536   1.13522   1.14602   1.16314
 Alpha virt. eigenvalues --    1.19462   1.25655   1.26471   1.26899   1.29103
 Alpha virt. eigenvalues --    1.31121   1.32128   1.33994   1.35574   1.36301
 Alpha virt. eigenvalues --    1.37581   1.39072   1.40278   1.41307   1.41935
 Alpha virt. eigenvalues --    1.42497   1.44404   1.44991   1.46000   1.47732
 Alpha virt. eigenvalues --    1.48043   1.51092   1.53505   1.83701   1.86791
 Alpha virt. eigenvalues --    1.91945   1.93148   1.96557   1.98388   1.99345
 Alpha virt. eigenvalues --    1.99592   2.03435   2.03659   2.03908   2.04383
 Alpha virt. eigenvalues --    2.07423   2.12877   2.14634   2.18783   2.20562
 Alpha virt. eigenvalues --    2.21708   2.22241   2.25812   2.27950   2.29669
 Alpha virt. eigenvalues --    2.31964   2.41065   2.60652   2.69569   2.76341
 Alpha virt. eigenvalues --    2.77763   2.84847   2.89319   3.11673   3.14535
 Alpha virt. eigenvalues --    3.16707   3.20336   3.21713   3.27326   3.27859
 Alpha virt. eigenvalues --    3.32400   3.37694   3.39668   3.42533   3.42784
 Alpha virt. eigenvalues --    3.45074   3.49497   3.53708   3.54879   3.57886
 Alpha virt. eigenvalues --    3.61026   3.65695   3.68229   3.81962   3.85269
 Alpha virt. eigenvalues --    3.89882   3.95928   3.99271   4.01632   4.05019
 Alpha virt. eigenvalues --    4.07171   4.13409   4.18991   4.55234   4.67282
 Alpha virt. eigenvalues --    4.92810   5.01624   6.25665   6.27843   6.29975
 Alpha virt. eigenvalues --    6.30829   6.33513   6.34668   6.36927   6.37436
 Alpha virt. eigenvalues --    6.38774   6.41021   6.41924   6.44170   8.98518
 Alpha virt. eigenvalues --    8.99626   9.00421   9.00791   9.00995   9.02589
 Alpha virt. eigenvalues --    9.03712   9.06997   9.07571   9.08362   9.10340
 Alpha virt. eigenvalues --    9.15624   9.17585   9.18730   9.20622   9.23542
 Alpha virt. eigenvalues --    9.29005   9.36348   9.39288   9.41285  23.28742
 Alpha virt. eigenvalues --   23.71037  23.78232  66.72347  66.72900  66.74766
 Alpha virt. eigenvalues --   66.78845
          Condensed to atoms (all electrons):
               1          2          3          4          5          6
     1  C    5.339468   0.088482  -0.101382  -0.022915  -0.075744   0.003516
     2  C    0.088482   4.893210   0.060101   0.216859   0.251900   0.239476
     3  C   -0.101382   0.060101   5.101241  -0.006302   0.016006  -0.038470
     4  F   -0.022915   0.216859  -0.006302   9.060618  -0.011589  -0.010875
     5  F   -0.075744   0.251900   0.016006  -0.011589   9.045932  -0.015406
     6  F    0.003516   0.239476  -0.038470  -0.010875  -0.015406   9.028725
     7  F   -0.054999   0.013447   0.215640   0.000004   0.000025  -0.000072
     8  H    0.395445  -0.026669  -0.020254  -0.005586  -0.000983   0.002391
     9  H    0.398995  -0.020907  -0.011220   0.001715  -0.000705  -0.006586
    10  H   -0.021226  -0.001932   0.394922  -0.001750  -0.000110   0.003328
    11  H   -0.006309  -0.010278   0.405047   0.002016  -0.000077  -0.000169
               7          8          9         10         11
     1  C   -0.054999   0.395445   0.398995  -0.021226  -0.006309
     2  C    0.013447  -0.026669  -0.020907  -0.001932  -0.010278
     3  C    0.215640  -0.020254  -0.011220   0.394922   0.405047
     4  F    0.000004  -0.005586   0.001715  -0.001750   0.002016
     5  F    0.000025  -0.000983  -0.000705  -0.000110  -0.000077
     6  F   -0.000072   0.002391  -0.006586   0.003328  -0.000169
     7  F    9.206396   0.000340   0.001015  -0.016790  -0.017182
     8  H    0.000340   0.513537  -0.017576   0.005256  -0.009089
     9  H    0.001015  -0.017576   0.500214  -0.006439   0.003760
    10  H   -0.016790   0.005256  -0.006439   0.509729  -0.025585
    11  H   -0.017182  -0.009089   0.003760  -0.025585   0.491909
 Mulliken charges:
               1
     1  C    0.056670
     2  C    0.296309
     3  C   -0.015328
     4  F   -0.222194
     5  F   -0.209248
     6  F   -0.205858
     7  F   -0.347825
     8  H    0.163187
     9  H    0.157734
    10  H    0.160597
    11  H    0.165957
 Sum of Mulliken charges =   0.00000
 Mulliken charges with hydrogens summed into heavy atoms:
               1
     1  C    0.377590
     2  C    0.296309
     3  C    0.311226
     4  F   -0.222194
     5  F   -0.209248
     6  F   -0.205858
     7  F   -0.347825
 Electronic spatial extent (au):  <R**2>=        1011150.9281
 Charge=              0.0000 electrons
 Dipole moment (field-independent basis, Debye):
    X=              0.2024    Y=             -0.0041    Z=             -0.7100  Tot=              0.7383
 Quadrupole moment (field-independent basis, Debye-Ang):
   XX=            -20.7546   YY=            -40.9712   ZZ=           -102.9177
   XY=              7.9374   XZ=            -23.7796   YZ=            -28.1460
 Traceless Quadrupole moment (field-independent basis, Debye-Ang):
   XX=             34.1265   YY=             13.9099   ZZ=            -48.0365
   XY=              7.9374   XZ=            -23.7796   YZ=            -28.1460
 Octapole moment (field-independent basis, Debye-Ang**2):
  XXX=          -4682.4257  YYY=          -4361.5853  ZZZ=          -7758.3677  XYY=          -1744.6186
  XXY=           -652.0541  XXZ=          -1933.9816  XZZ=          -4638.4828  YZZ=          -3837.8658
  YYZ=          -2435.3113  XYZ=           -963.9457
 Hexadecapole moment (field-independent basis, Debye-Ang**3):
 XXXX=        -524287.8512 YYYY=        -310471.5317 ZZZZ=        -454645.0298 XXXY=        -159680.0844
 XXXZ=        -202048.4832 YYYX=        -207450.0826 YYYZ=        -185189.1592 ZZZX=        -368470.5360
 ZZZY=        -284249.3062 XXYY=        -123841.0719 XXZZ=        -249980.8361 YYZZ=        -186533.9576
 XXYZ=         -73325.3555 YYXZ=        -105653.1046 ZZXY=        -173119.0099
 N-N= 2.879828652005D+02 E-N=-1.798780794326D+03  KE= 5.128559166976D+02
 No NMR shielding tensors so no spin-rotation constants.
 Leave Link  601 at Thu Jun 13 12:25:27 2024, MaxMem=  1073741824 cpu:         3.1
 (Enter /apps/z_install_tree/linux-rocky8-ivybridge/gcc-12.2.0/gaussian-09-D.01-wczn3gur5lpur3omlkzwa2l5ecyxp5ef/g09/l701.exe)
 Compute integral first derivatives.
 ... and contract with generalized density number  0.
 R6Disp: Adding Grimme-D3 dispersion energy 1st derivatives to the gradient.
 Leave Link  701 at Thu Jun 13 12:25:28 2024, MaxMem=  1073741824 cpu:         2.0
 (Enter /apps/z_install_tree/linux-rocky8-ivybridge/gcc-12.2.0/gaussian-09-D.01-wczn3gur5lpur3omlkzwa2l5ecyxp5ef/g09/l702.exe)
 L702 exits ... SP integral derivatives will be done elsewhere.
 Leave Link  702 at Thu Jun 13 12:25:28 2024, MaxMem=  1073741824 cpu:         0.1
 (Enter /apps/z_install_tree/linux-rocky8-ivybridge/gcc-12.2.0/gaussian-09-D.01-wczn3gur5lpur3omlkzwa2l5ecyxp5ef/g09/l703.exe)
 Compute integral first derivatives, UseDBF=F ICtDFT=           0.
 Integral derivatives from FoFJK, PRISM(SPDF).
 Calling FoFJK, ICntrl=      2127 FMM=F ISym2X=0 I1Cent= 0 IOpClX= 0 NMat=1 NMatS=1 NMatT=0.
 FoFJK:  IHMeth= 1 ICntrl=    2127 DoSepK=F KAlg= 0 I1Cent=   0 FoldK=F
 IRaf=         0 NMat=   1 IRICut=       1 DoRegI=T DoRafI=F ISym2E= 0.
 FoFCou: FMM=F IPFlag=           0 FMFlag=      100000 FMFlg1=         800
         NFxFlg=           0 DoJE=F BraDBF=F KetDBF=F FulRan=T
         wScrn=  0.000000 ICntrl=    2127 IOpCl=  0 I1Cent=           0 NGrid=           0
         NMat0=    1 NMatS0=      1 NMatT0=    0 NMatD0=    1 NMtDS0=    0 NMtDT0=    0
 Symmetry not used in FoFCou.
 Leave Link  703 at Thu Jun 13 12:25:29 2024, MaxMem=  1073741824 cpu:        27.2
 (Enter /apps/z_install_tree/linux-rocky8-ivybridge/gcc-12.2.0/gaussian-09-D.01-wczn3gur5lpur3omlkzwa2l5ecyxp5ef/g09/l716.exe)
 Dipole        = 7.96279769D-02-1.62888059D-03-2.79350633D-01
 -------------------------------------------------------------------
 Center     Atomic                   Forces (Hartrees/Bohr)
 Number     Number              X              Y              Z
 -------------------------------------------------------------------
      1        6           0.014050063    0.025904954   -0.021477313
      2        6          -0.020568680   -0.023920119    0.077750304
      3        6           0.017696051   -0.017693733   -0.023533997
      4        9          -0.031199787   -0.098932593   -0.022344452
      5        9           0.103718880    0.024464246   -0.029870938
      6        9          -0.047145266    0.081061650   -0.060919922
      7        9          -0.012561473    0.020733757    0.084854015
      8        1          -0.014553571   -0.011895816    0.008113852
      9        1          -0.008109522    0.006571500    0.009477881
     10        1          -0.000533877    0.006033384   -0.015716165
     11        1          -0.000792817   -0.012327230   -0.006333265
 -------------------------------------------------------------------
 Cartesian Forces:  Max     0.103718880 RMS     0.040618702
 Leave Link  716 at Thu Jun 13 12:25:29 2024, MaxMem=  1073741824 cpu:         0.4
 (Enter /apps/z_install_tree/linux-rocky8-ivybridge/gcc-12.2.0/gaussian-09-D.01-wczn3gur5lpur3omlkzwa2l5ecyxp5ef/g09/l103.exe)

 GradGradGradGradGradGradGradGradGradGradGradGradGradGradGradGradGradGrad
 Berny optimization.
 FormGI is forming the generalized inverse of G from B-inverse, IUseBI=4.
 Internal  Forces:  Max     0.111481301 RMS     0.032713537
 Search for a local minimum.
 Step number   1 out of a maximum of   56
 All quantities printed in internal units (Hartrees-Bohrs-Radians)
 RMS Force = .32714D-01 SwitMx=.10000D-02 MixMth= 1
 Mixed Optimization -- RFO/linear search
 Second derivative matrix not updated -- first step.
 ITU=  0
     Eigenvalues ---    0.00230   0.00524   0.03445   0.04981   0.05083
     Eigenvalues ---    0.05558   0.07642   0.08548   0.09132   0.12007
     Eigenvalues ---    0.12384   0.12793   0.16000   0.16000   0.16636
     Eigenvalues ---    0.17903   0.22333   0.22385   0.25000   0.25000
     Eigenvalues ---    0.25000   0.27366   0.30534   0.33938   0.34068
     Eigenvalues ---    0.34083   0.34091
 RFO step:  Lambda=-1.57748367D-01 EMin= 2.30000000D-03
 Linear search not attempted -- first point.
 Maximum step size (   0.300) exceeded in Quadratic search.
    -- Step size scaled by   0.425
 Iteration  1 RMS(Cart)=  0.05441599 RMS(Int)=  0.00038705
 Iteration  2 RMS(Cart)=  0.00045707 RMS(Int)=  0.00016391
 Iteration  3 RMS(Cart)=  0.00000023 RMS(Int)=  0.00016391
 ITry= 1 IFail=0 DXMaxC= 1.81D-01 DCOld= 1.00D+10 DXMaxT= 3.00D-01 DXLimC= 3.00D+00 Rises=F
 Variable       Old X    -DE/DX   Delta X   Delta X   Delta X     New X
                                 (Linear)    (Quad)   (Total)
    R1        2.86911  -0.03850   0.00000  -0.03532  -0.03532   2.83379
    R2        2.93546  -0.01470   0.00000  -0.01448  -0.01448   2.92098
    R3        2.07190  -0.00235   0.00000  -0.00201  -0.00201   2.06989
    R4        2.07435  -0.00690   0.00000  -0.00589  -0.00589   2.06846
    R5        3.46930  -0.10610   0.00000  -0.15779  -0.15779   3.31151
    R6        3.26942  -0.11039   0.00000  -0.14470  -0.14470   3.12473
    R7        3.21660  -0.11148   0.00000  -0.14063  -0.14063   3.07597
    R8        3.52020  -0.08777   0.00000  -0.13422  -0.13422   3.38598
    R9        2.07216  -0.00990   0.00000  -0.00844  -0.00844   2.06372
   R10        2.07178  -0.01184   0.00000  -0.01008  -0.01008   2.06169
    A1        2.01574  -0.02456   0.00000  -0.02649  -0.02641   1.98933
    A2        1.85779  -0.00117   0.00000  -0.00365  -0.00335   1.85445
    A3        1.96102  -0.00101   0.00000  -0.00761  -0.00753   1.95349
    A4        1.73886   0.01942   0.00000   0.03073   0.03064   1.76950
    A5        1.87240   0.01434   0.00000   0.01818   0.01790   1.89029
    A6        2.01085  -0.00651   0.00000  -0.00889  -0.00936   2.00150
    A7        1.98069  -0.00289   0.00000  -0.00526  -0.00524   1.97545
    A8        1.89384   0.01029   0.00000   0.01216   0.01211   1.90594
    A9        1.96216   0.00786   0.00000   0.00882   0.00876   1.97092
   A10        1.93320  -0.00756   0.00000  -0.00939  -0.00937   1.92383
   A11        1.93305  -0.00772   0.00000  -0.01041  -0.01040   1.92265
   A12        1.74675   0.00064   0.00000   0.00562   0.00547   1.75221
   A13        1.97174  -0.02921   0.00000  -0.03463  -0.03449   1.93725
   A14        1.91420   0.01962   0.00000   0.02721   0.02709   1.94129
   A15        1.99843   0.00685   0.00000   0.00884   0.00858   2.00701
   A16        1.77773   0.00008   0.00000  -0.00421  -0.00390   1.77383
   A17        1.76988   0.00561   0.00000   0.00128   0.00127   1.77115
   A18        2.01585  -0.00791   0.00000  -0.00582  -0.00621   2.00963
    D1        0.82531   0.00337   0.00000   0.00721   0.00717   0.83248
    D2        2.98217  -0.00073   0.00000   0.00051   0.00042   2.98259
    D3       -1.38560   0.00974   0.00000   0.01845   0.01845  -1.36716
    D4       -1.08598  -0.00753   0.00000  -0.01492  -0.01493  -1.10091
    D5        1.07088  -0.01163   0.00000  -0.02162  -0.02168   1.04920
    D6        2.98629  -0.00117   0.00000  -0.00368  -0.00365   2.98264
    D7        2.98083   0.00233   0.00000   0.00430   0.00436   2.98519
    D8       -1.14549  -0.00177   0.00000  -0.00241  -0.00239  -1.14789
    D9        0.76991   0.00869   0.00000   0.01553   0.01563   0.78555
   D10        3.08596  -0.00105   0.00000  -0.00252  -0.00257   3.08338
   D11        1.11608   0.00342   0.00000   0.00565   0.00586   1.12195
   D12       -1.18275  -0.00971   0.00000  -0.01925  -0.01930  -1.20205
   D13       -1.21602  -0.00054   0.00000   0.00104   0.00073  -1.21529
   D14        3.09729   0.00394   0.00000   0.00921   0.00916   3.10645
   D15        0.79846  -0.00920   0.00000  -0.01569  -0.01600   0.78246
   D16        0.88449   0.00657   0.00000   0.01216   0.01226   0.89675
   D17       -1.08538   0.01105   0.00000   0.02033   0.02069  -1.06469
   D18        2.89897  -0.00209   0.00000  -0.00457  -0.00447   2.89450
         Item               Value     Threshold  Converged?
 Maximum Force            0.111481     0.000450     NO 
 RMS     Force            0.032714     0.000300     NO 
 Maximum Displacement     0.180818     0.001800     NO 
 RMS     Displacement     0.054369     0.001200     NO 
 Predicted change in Energy=-6.009248D-02
 Lowest energy point so far.  Saving SCF results.
 GradGradGradGradGradGradGradGradGradGradGradGradGradGradGradGradGradGrad

 Leave Link  103 at Thu Jun 13 12:25:29 2024, MaxMem=  1073741824 cpu:         1.8
 (Enter /apps/z_install_tree/linux-rocky8-ivybridge/gcc-12.2.0/gaussian-09-D.01-wczn3gur5lpur3omlkzwa2l5ecyxp5ef/g09/l202.exe)
                          Input orientation:                          
 ---------------------------------------------------------------------
 Center     Atomic      Atomic             Coordinates (Angstroms)
 Number     Number       Type             X           Y           Z
 ---------------------------------------------------------------------
      1          6           0       50.149357   35.314718   31.958823
      2          6           0       50.059347   35.630670   33.421970
      3          6           0       51.496990   35.709225   31.312686
      4          9           0       50.583958   37.256997   33.810138
      5          9           0       48.505412   35.393466   33.934996
      6          9           0       50.844170   34.550759   34.353289
      7          9           0       51.554707   35.210468   29.592685
      8          1           0       49.459056   35.999372   31.454339
      9          1           0       49.969228   34.253923   31.757890
     10          1           0       52.322393   35.133452   31.736745
     11          1           0       51.673382   36.782951   31.233438
 ---------------------------------------------------------------------
                    Distance matrix (angstroms):
                    1          2          3          4          5
     1  C    0.000000
     2  C    1.499575   0.000000
     3  C    1.545718   2.553834   0.000000
     4  F    2.718214   1.752378   3.076766   0.000000
     5  F    2.571772   1.653534   3.990708   2.794403   0.000000
     6  F    2.607655   1.627731   3.318656   2.772444   2.520895
     7  F    2.753995   4.132324   1.791785   4.787227   5.309177
     8  H    1.095340   2.089943   2.063353   2.897725   2.725843
     9  H    1.094581   2.161647   2.156425   3.688911   2.860263
    10  H    2.191863   2.865064   1.092076   3.439558   4.412398
    11  H    2.237084   2.953393   1.091001   2.837419   4.389204
                    6          7          8          9         10
     6  F    0.000000
     7  F    4.858336   0.000000
     8  H    3.524334   2.912023   0.000000
     9  H    2.754946   2.849007   1.843641   0.000000
    10  H    3.061205   2.278655   3.004708   2.512251   0.000000
    11  H    3.924760   2.275710   2.359244   3.094378   1.842656
                   11
    11  H    0.000000
 Symmetry turned off by external request.
 Stoichiometry    C3H4F4
 Framework group  C1[X(C3H4F4)]
 Deg. of freedom    27
 Full point group                 C1      NOp   1
 Rotational constants (GHZ):      3.3824022      1.1298053      1.0851582
 Leave Link  202 at Thu Jun 13 12:25:30 2024, MaxMem=  1073741824 cpu:         1.0
 (Enter /apps/z_install_tree/linux-rocky8-ivybridge/gcc-12.2.0/gaussian-09-D.01-wczn3gur5lpur3omlkzwa2l5ecyxp5ef/g09/l301.exe)
 Basis read from rwf:  (5D, 7F)
 No pseudopotential information found on rwf file.
   225 basis functions,   338 primitive gaussians,   239 cartesian basis functions
    29 alpha electrons       29 beta electrons
       nuclear repulsion energy       297.1018039171 Hartrees.
 IExCor=  402 DFT=T Ex+Corr=B3LYP ExCW=0 ScaHFX=  0.200000
 ScaDFX=  0.800000  0.720000  1.000000  0.810000 ScalE2=  1.000000  1.000000
 IRadAn=      5 IRanWt=     -1 IRanGd=            0 ICorTp=0 IEmpDi=131
 NAtoms=   11 NActive=   11 NUniq=   11 SFac= 1.00D+00 NAtFMM=   60 NAOKFM=F Big=F
 Integral buffers will be    131072 words long.
 Raffenetti 2 integral format.
 Two-electron integral symmetry is turned off.
 R6Disp:  Grimme-D3 Dispersion energy=       -0.0076661097 Hartrees.
 Nuclear repulsion after empirical dispersion term =      297.0941378074 Hartrees.
 No density basis found on file   724.
 Leave Link  301 at Thu Jun 13 12:25:30 2024, MaxMem=  1073741824 cpu:         0.7
 (Enter /apps/z_install_tree/linux-rocky8-ivybridge/gcc-12.2.0/gaussian-09-D.01-wczn3gur5lpur3omlkzwa2l5ecyxp5ef/g09/l302.exe)
 NPDir=0 NMtPBC=     1 NCelOv=     1 NCel=       1 NClECP=     1 NCelD=      1
         NCelK=      1 NCelE2=     1 NClLst=     1 CellRange=     0.0.
 One-electron integrals computed using PRISM.
 NBasis=   225 RedAO= T EigKep=  6.52D-05  NBF=   225
 NBsUse=   225 1.00D-06 EigRej= -1.00D+00 NBFU=   225
 Precomputing XC quadrature grid using
 IXCGrd= 4 IRadAn=           5 IRanWt=          -1 IRanGd=           0 AccXCQ= 0.00D+00.
 Generated NRdTot=       0 NPtTot=           0 NUsed=           0 NTot=          32
 NSgBfM=   239   239   239   239   239 MxSgAt=    11 MxSgA2=    11.
 Leave Link  302 at Thu Jun 13 12:25:30 2024, MaxMem=  1073741824 cpu:         2.7
 (Enter /apps/z_install_tree/linux-rocky8-ivybridge/gcc-12.2.0/gaussian-09-D.01-wczn3gur5lpur3omlkzwa2l5ecyxp5ef/g09/l303.exe)
 DipDrv:  MaxL=1.
 Leave Link  303 at Thu Jun 13 12:25:30 2024, MaxMem=  1073741824 cpu:         2.2
 (Enter /apps/z_install_tree/linux-rocky8-ivybridge/gcc-12.2.0/gaussian-09-D.01-wczn3gur5lpur3omlkzwa2l5ecyxp5ef/g09/l401.exe)
 Initial guess from the checkpoint file:  "tetrafluoropropane.chk"
 B after Tr=    -0.017229   -0.101987    0.140446
         Rot=    1.000000    0.000481   -0.000449   -0.000230 Ang=   0.08 deg.
 Guess basis will be translated and rotated to current coordinates.
 JPrj=2 DoOrth=T DoCkMO=T.
 Generating alternative initial guess.
 ExpMin= 4.38D-02 ExpMax= 1.14D+04 ExpMxC= 1.72D+03 IAcc=2 IRadAn=         4 AccDes= 0.00D+00
 Harris functional with IExCor=  402 and IRadAn=       4 diagonalized for initial guess.
 HarFok:  IExCor=  402 AccDes= 0.00D+00 IRadAn=         4 IDoV= 1 UseB2=F ITyADJ=14
 ICtDFT=  3500011 ScaDFX=  1.000000  1.000000  1.000000  1.000000
 FoFCou: FMM=F IPFlag=           0 FMFlag=      100000 FMFlg1=           0
         NFxFlg=           0 DoJE=T BraDBF=F KetDBF=T FulRan=T
         wScrn=  0.000000 ICntrl=     500 IOpCl=  0 I1Cent=   200000004 NGrid=           0
         NMat0=    1 NMatS0=      1 NMatT0=    0 NMatD0=    1 NMtDS0=    0 NMtDT0=    0
 Symmetry not used in FoFCou.
 Harris En= -516.151421501852    
 Leave Link  401 at Thu Jun 13 12:25:31 2024, MaxMem=  1073741824 cpu:         7.9
 (Enter /apps/z_install_tree/linux-rocky8-ivybridge/gcc-12.2.0/gaussian-09-D.01-wczn3gur5lpur3omlkzwa2l5ecyxp5ef/g09/l502.exe)
 Closed shell SCF:
 Using DIIS extrapolation, IDIIS=  1040.
 Two-electron integral symmetry not used.
 Keep R1 ints in memory in canonical form, NReq=330328726.
 IVT=      188821 IEndB=      188821 NGot=  1073741824 MDV=   750324979
 LenX=   750324979 LenY=   750267417
 Requested convergence on RMS density matrix=1.00D-08 within  96 cycles.
 Requested convergence on MAX density matrix=1.00D-06.
 Requested convergence on             energy=1.00D-06.
 No special actions if energy rises.
 FoFCou: FMM=F IPFlag=           0 FMFlag=           0 FMFlg1=           0
         NFxFlg=           0 DoJE=F BraDBF=F KetDBF=F FulRan=T
         wScrn=  0.000000 ICntrl=     600 IOpCl=  0 I1Cent=           0 NGrid=           0
         NMat0=    1 NMatS0=  25425 NMatT0=    0 NMatD0=    1 NMtDS0=    0 NMtDT0=    0
 Symmetry not used in FoFCou.

 Cycle   1  Pass 1  IDiag  1:
 E= -516.093801053231    
 DIIS: error= 2.37D-03 at cycle   1 NSaved=   1.
 NSaved= 1 IEnMin= 1 EnMin= -516.093801053231     IErMin= 1 ErrMin= 2.37D-03
 ErrMax= 2.37D-03  0.00D+00 EMaxC= 1.00D-01 BMatC= 2.79D-03 BMatP= 2.79D-03
 IDIUse=3 WtCom= 9.76D-01 WtEn= 2.37D-02
 Coeff-Com:  0.100D+01
 Coeff-En:   0.100D+01
 Coeff:      0.100D+01
 Gap=     0.585 Goal=   None    Shift=    0.000
 GapD=    0.585 DampG=2.000 DampE=1.000 DampFc=2.0000 IDamp=-1.
 RMSDP=4.89D-04 MaxDP=1.65D-02              OVMax= 2.28D-02

 Cycle   2  Pass 1  IDiag  1:
 E= -516.096883282933     Delta-E=       -0.003082229703 Rises=F Damp=F
 DIIS: error= 1.97D-03 at cycle   2 NSaved=   2.
 NSaved= 2 IEnMin= 2 EnMin= -516.096883282933     IErMin= 2 ErrMin= 1.97D-03
 ErrMax= 1.97D-03  0.00D+00 EMaxC= 1.00D-01 BMatC= 8.45D-04 BMatP= 2.79D-03
 IDIUse=3 WtCom= 9.80D-01 WtEn= 1.97D-02
 Coeff-Com:  0.255D+00 0.745D+00
 Coeff-En:   0.000D+00 0.100D+01
 Coeff:      0.250D+00 0.750D+00
 Gap=     0.216 Goal=   None    Shift=    0.000
 RMSDP=1.43D-04 MaxDP=4.25D-03 DE=-3.08D-03 OVMax= 1.01D-02

 Cycle   3  Pass 1  IDiag  1:
 E= -516.096088244845     Delta-E=        0.000795038088 Rises=F Damp=F
 DIIS: error= 2.60D-03 at cycle   3 NSaved=   3.
 NSaved= 3 IEnMin= 2 EnMin= -516.096883282933     IErMin= 2 ErrMin= 1.97D-03
 ErrMax= 2.60D-03  0.00D+00 EMaxC= 1.00D-01 BMatC= 1.96D-03 BMatP= 8.45D-04
 IDIUse=3 WtCom= 1.64D-01 WtEn= 8.36D-01
 Coeff-Com:  0.408D-02 0.604D+00 0.392D+00
 Coeff-En:   0.000D+00 0.661D+00 0.339D+00
 Coeff:      0.669D-03 0.652D+00 0.348D+00
 Gap=     0.220 Goal=   None    Shift=    0.000
 RMSDP=8.81D-05 MaxDP=4.21D-03 DE= 7.95D-04 OVMax= 6.72D-03

 Cycle   4  Pass 1  IDiag  1:
 E= -516.097407463118     Delta-E=       -0.001319218272 Rises=F Damp=F
 DIIS: error= 4.95D-04 at cycle   4 NSaved=   4.
 NSaved= 4 IEnMin= 4 EnMin= -516.097407463118     IErMin= 4 ErrMin= 4.95D-04
 ErrMax= 4.95D-04  0.00D+00 EMaxC= 1.00D-01 BMatC= 4.07D-05 BMatP= 8.45D-04
 IDIUse=3 WtCom= 9.95D-01 WtEn= 4.95D-03
 Coeff-Com: -0.150D-01 0.268D+00 0.956D-01 0.652D+00
 Coeff-En:   0.000D+00 0.000D+00 0.000D+00 0.100D+01
 Coeff:     -0.149D-01 0.266D+00 0.951D-01 0.654D+00
 Gap=     0.220 Goal=   None    Shift=    0.000
 RMSDP=1.46D-05 MaxDP=6.60D-04 DE=-1.32D-03 OVMax= 7.51D-04

 Cycle   5  Pass 1  IDiag  1:
 E= -516.097428385331     Delta-E=       -0.000020922213 Rises=F Damp=F
 DIIS: error= 7.05D-05 at cycle   5 NSaved=   5.
 NSaved= 5 IEnMin= 5 EnMin= -516.097428385331     IErMin= 5 ErrMin= 7.05D-05
 ErrMax= 7.05D-05  0.00D+00 EMaxC= 1.00D-01 BMatC= 2.59D-06 BMatP= 4.07D-05
 IDIUse=1 WtCom= 1.00D+00 WtEn= 0.00D+00
 Coeff-Com: -0.736D-02 0.969D-01 0.159D-01 0.355D+00 0.539D+00
 Coeff:     -0.736D-02 0.969D-01 0.159D-01 0.355D+00 0.539D+00
 Gap=     0.220 Goal=   None    Shift=    0.000
 RMSDP=5.52D-06 MaxDP=1.96D-04 DE=-2.09D-05 OVMax= 5.05D-04

 Cycle   6  Pass 1  IDiag  1:
 E= -516.097429567160     Delta-E=       -0.000001181828 Rises=F Damp=F
 DIIS: error= 4.45D-05 at cycle   6 NSaved=   6.
 NSaved= 6 IEnMin= 6 EnMin= -516.097429567160     IErMin= 6 ErrMin= 4.45D-05
 ErrMax= 4.45D-05  0.00D+00 EMaxC= 1.00D-01 BMatC= 1.10D-06 BMatP= 2.59D-06
 IDIUse=1 WtCom= 1.00D+00 WtEn= 0.00D+00
 Coeff-Com: -0.181D-02 0.158D-01-0.955D-02 0.121D+00 0.409D+00 0.466D+00
 Coeff:     -0.181D-02 0.158D-01-0.955D-02 0.121D+00 0.409D+00 0.466D+00
 Gap=     0.220 Goal=   None    Shift=    0.000
 RMSDP=2.65D-06 MaxDP=1.03D-04 DE=-1.18D-06 OVMax= 1.94D-04

 Cycle   7  Pass 1  IDiag  1:
 E= -516.097430316811     Delta-E=       -0.000000749652 Rises=F Damp=F
 DIIS: error= 7.30D-06 at cycle   7 NSaved=   7.
 NSaved= 7 IEnMin= 7 EnMin= -516.097430316811     IErMin= 7 ErrMin= 7.30D-06
 ErrMax= 7.30D-06  0.00D+00 EMaxC= 1.00D-01 BMatC= 2.30D-08 BMatP= 1.10D-06
 IDIUse=1 WtCom= 1.00D+00 WtEn= 0.00D+00
 Coeff-Com: -0.123D-03-0.223D-02-0.428D-02 0.127D-01 0.121D+00 0.195D+00
 Coeff-Com:  0.678D+00
 Coeff:     -0.123D-03-0.223D-02-0.428D-02 0.127D-01 0.121D+00 0.195D+00
 Coeff:      0.678D+00
 Gap=     0.220 Goal=   None    Shift=    0.000
 RMSDP=6.69D-07 MaxDP=2.01D-05 DE=-7.50D-07 OVMax= 4.45D-05

 Cycle   8  Pass 1  IDiag  1:
 E= -516.097430331989     Delta-E=       -0.000000015178 Rises=F Damp=F
 DIIS: error= 3.99D-06 at cycle   8 NSaved=   8.
 NSaved= 8 IEnMin= 8 EnMin= -516.097430331989     IErMin= 8 ErrMin= 3.99D-06
 ErrMax= 3.99D-06  0.00D+00 EMaxC= 1.00D-01 BMatC= 6.99D-09 BMatP= 2.30D-08
 IDIUse=1 WtCom= 1.00D+00 WtEn= 0.00D+00
 Coeff-Com:  0.524D-04-0.299D-02-0.184D-02-0.280D-02 0.428D-01 0.840D-01
 Coeff-Com:  0.432D+00 0.449D+00
 Coeff:      0.524D-04-0.299D-02-0.184D-02-0.280D-02 0.428D-01 0.840D-01
 Coeff:      0.432D+00 0.449D+00
 Gap=     0.220 Goal=   None    Shift=    0.000
 RMSDP=2.52D-07 MaxDP=8.87D-06 DE=-1.52D-08 OVMax= 1.99D-05

 Cycle   9  Pass 1  IDiag  1:
 E= -516.097430336327     Delta-E=       -0.000000004338 Rises=F Damp=F
 DIIS: error= 1.33D-06 at cycle   9 NSaved=   9.
 NSaved= 9 IEnMin= 9 EnMin= -516.097430336327     IErMin= 9 ErrMin= 1.33D-06
 ErrMax= 1.33D-06  0.00D+00 EMaxC= 1.00D-01 BMatC= 8.40D-10 BMatP= 6.99D-09
 IDIUse=1 WtCom= 1.00D+00 WtEn= 0.00D+00
 Coeff-Com:  0.658D-04-0.137D-02-0.220D-03-0.444D-02 0.268D-02 0.126D-01
 Coeff-Com:  0.131D+00 0.284D+00 0.576D+00
 Coeff:      0.658D-04-0.137D-02-0.220D-03-0.444D-02 0.268D-02 0.126D-01
 Coeff:      0.131D+00 0.284D+00 0.576D+00
 Gap=     0.220 Goal=   None    Shift=    0.000
 RMSDP=9.78D-08 MaxDP=3.95D-06 DE=-4.34D-09 OVMax= 7.23D-06

 Cycle  10  Pass 1  IDiag  1:
 E= -516.097430336929     Delta-E=       -0.000000000602 Rises=F Damp=F
 DIIS: error= 3.95D-07 at cycle  10 NSaved=  10.
 NSaved=10 IEnMin=10 EnMin= -516.097430336929     IErMin=10 ErrMin= 3.95D-07
 ErrMax= 3.95D-07  0.00D+00 EMaxC= 1.00D-01 BMatC= 5.61D-11 BMatP= 8.40D-10
 IDIUse=1 WtCom= 1.00D+00 WtEn= 0.00D+00
 Coeff-Com:  0.215D-04-0.266D-03 0.139D-03-0.179D-02-0.510D-02-0.594D-02
 Coeff-Com:  0.588D-02 0.753D-01 0.274D+00 0.658D+00
 Coeff:      0.215D-04-0.266D-03 0.139D-03-0.179D-02-0.510D-02-0.594D-02
 Coeff:      0.588D-02 0.753D-01 0.274D+00 0.658D+00
 Gap=     0.220 Goal=   None    Shift=    0.000
 RMSDP=2.95D-08 MaxDP=1.82D-06 DE=-6.02D-10 OVMax= 2.44D-06

 Cycle  11  Pass 1  IDiag  1:
 E= -516.097430336990     Delta-E=       -0.000000000060 Rises=F Damp=F
 DIIS: error= 1.00D-07 at cycle  11 NSaved=  11.
 NSaved=11 IEnMin=11 EnMin= -516.097430336990     IErMin=11 ErrMin= 1.00D-07
 ErrMax= 1.00D-07  0.00D+00 EMaxC= 1.00D-01 BMatC= 4.32D-12 BMatP= 5.61D-11
 IDIUse=1 WtCom= 1.00D+00 WtEn= 0.00D+00
 Coeff-Com:  0.310D-05 0.351D-04 0.589D-04-0.155D-03-0.211D-02-0.310D-02
 Coeff-Com: -0.971D-02 0.317D-02 0.442D-01 0.259D+00 0.708D+00
 Coeff:      0.310D-05 0.351D-04 0.589D-04-0.155D-03-0.211D-02-0.310D-02
 Coeff:     -0.971D-02 0.317D-02 0.442D-01 0.259D+00 0.708D+00
 Gap=     0.220 Goal=   None    Shift=    0.000
 RMSDP=1.10D-08 MaxDP=5.68D-07 DE=-6.05D-11 OVMax= 7.79D-07

 Cycle  12  Pass 1  IDiag  1:
 E= -516.097430336990     Delta-E=       -0.000000000001 Rises=F Damp=F
 DIIS: error= 6.15D-08 at cycle  12 NSaved=  12.
 NSaved=12 IEnMin=12 EnMin= -516.097430336990     IErMin=12 ErrMin= 6.15D-08
 ErrMax= 6.15D-08  0.00D+00 EMaxC= 1.00D-01 BMatC= 1.92D-12 BMatP= 4.32D-12
 IDIUse=1 WtCom= 1.00D+00 WtEn= 0.00D+00
 Coeff-Com:  0.292D-06 0.416D-04 0.241D-04 0.457D-04-0.984D-03-0.156D-02
 Coeff-Com: -0.671D-02-0.438D-02 0.673D-02 0.121D+00 0.481D+00 0.404D+00
 Coeff:      0.292D-06 0.416D-04 0.241D-04 0.457D-04-0.984D-03-0.156D-02
 Coeff:     -0.671D-02-0.438D-02 0.673D-02 0.121D+00 0.481D+00 0.404D+00
 Gap=     0.220 Goal=   None    Shift=    0.000
 RMSDP=3.63D-09 MaxDP=1.24D-07 DE=-6.82D-13 OVMax= 2.57D-07

 SCF Done:  E(RB3LYP) =  -516.097430337     A.U. after   12 cycles
            NFock= 12  Conv=0.36D-08     -V/T= 2.0059
 KE= 5.130500673083D+02 PE=-1.817194530227D+03 EE= 4.909528947741D+02
 Leave Link  502 at Thu Jun 13 12:25:41 2024, MaxMem=  1073741824 cpu:       107.9
 (Enter /apps/z_install_tree/linux-rocky8-ivybridge/gcc-12.2.0/gaussian-09-D.01-wczn3gur5lpur3omlkzwa2l5ecyxp5ef/g09/l508.exe)
 QCSCF skips out because SCF is already converged.
 Leave Link  508 at Thu Jun 13 12:25:41 2024, MaxMem=  1073741824 cpu:         0.0
 (Enter /apps/z_install_tree/linux-rocky8-ivybridge/gcc-12.2.0/gaussian-09-D.01-wczn3gur5lpur3omlkzwa2l5ecyxp5ef/g09/l701.exe)
 Compute integral first derivatives.
 ... and contract with generalized density number  0.
 R6Disp: Adding Grimme-D3 dispersion energy 1st derivatives to the gradient.
 Leave Link  701 at Thu Jun 13 12:25:41 2024, MaxMem=  1073741824 cpu:         2.7
 (Enter /apps/z_install_tree/linux-rocky8-ivybridge/gcc-12.2.0/gaussian-09-D.01-wczn3gur5lpur3omlkzwa2l5ecyxp5ef/g09/l702.exe)
 L702 exits ... SP integral derivatives will be done elsewhere.
 Leave Link  702 at Thu Jun 13 12:25:41 2024, MaxMem=  1073741824 cpu:         0.2
 (Enter /apps/z_install_tree/linux-rocky8-ivybridge/gcc-12.2.0/gaussian-09-D.01-wczn3gur5lpur3omlkzwa2l5ecyxp5ef/g09/l703.exe)
 Compute integral first derivatives, UseDBF=F ICtDFT=           0.
 Integral derivatives from FoFJK, PRISM(SPDF).
 Calling FoFJK, ICntrl=      2127 FMM=F ISym2X=0 I1Cent= 0 IOpClX= 0 NMat=1 NMatS=1 NMatT=0.
 FoFJK:  IHMeth= 1 ICntrl=    2127 DoSepK=F KAlg= 0 I1Cent=   0 FoldK=F
 IRaf=         0 NMat=   1 IRICut=       1 DoRegI=T DoRafI=F ISym2E= 0.
 FoFCou: FMM=F IPFlag=           0 FMFlag=      100000 FMFlg1=         800
         NFxFlg=           0 DoJE=F BraDBF=F KetDBF=F FulRan=T
         wScrn=  0.000000 ICntrl=    2127 IOpCl=  0 I1Cent=           0 NGrid=           0
         NMat0=    1 NMatS0=      1 NMatT0=    0 NMatD0=    1 NMtDS0=    0 NMtDT0=    0
 Symmetry not used in FoFCou.
 Leave Link  703 at Thu Jun 13 12:25:43 2024, MaxMem=  1073741824 cpu:        29.8
 (Enter /apps/z_install_tree/linux-rocky8-ivybridge/gcc-12.2.0/gaussian-09-D.01-wczn3gur5lpur3omlkzwa2l5ecyxp5ef/g09/l716.exe)
 Dipole        = 6.29398403D-02-1.08240135D-02-2.25206409D-01
 -------------------------------------------------------------------
 Center     Atomic                   Forces (Hartrees/Bohr)
 Number     Number              X              Y              Z
 -------------------------------------------------------------------
      1        6           0.015095609    0.025304505   -0.021738712
      2        6          -0.021355719   -0.017792665    0.089160446
      3        6           0.013199092   -0.021357760   -0.036983122
      4        9          -0.032464164   -0.101027945   -0.021407204
      5        9           0.101448663    0.024441575   -0.031143732
      6        9          -0.045541249    0.079215708   -0.059550220
      7        9          -0.010777000    0.020856778    0.083047872
      8        1          -0.011597981   -0.011182857    0.005741303
      9        1          -0.006659077    0.005328721    0.007345235
     10        1          -0.000436305    0.004782660   -0.010797478
     11        1          -0.000911869   -0.008568720   -0.003674388
 -------------------------------------------------------------------
 Cartesian Forces:  Max     0.101448663 RMS     0.041057682
 Leave Link  716 at Thu Jun 13 12:25:43 2024, MaxMem=  1073741824 cpu:         0.4
 (Enter /apps/z_install_tree/linux-rocky8-ivybridge/gcc-12.2.0/gaussian-09-D.01-wczn3gur5lpur3omlkzwa2l5ecyxp5ef/g09/l103.exe)

 GradGradGradGradGradGradGradGradGradGradGradGradGradGradGradGradGradGrad
 Berny optimization.
 Using GEDIIS/GDIIS optimizer.
 FormGI is forming the generalized inverse of G from B-inverse, IUseBI=4.
 Internal  Forces:  Max     0.108585178 RMS     0.031675011
 Search for a local minimum.
 Step number   2 out of a maximum of   56
 All quantities printed in internal units (Hartrees-Bohrs-Radians)
 RMS Force = .31675D-01 SwitMx=.10000D-02 MixMth= 1
 Mixed Optimization -- RFO/linear search
 Update second derivatives using D2CorX and points    1    2
 DE= -6.62D-02 DEPred=-6.01D-02 R= 1.10D+00
 TightC=F SS=  1.41D+00  RLast= 3.04D-01 DXNew= 5.0454D-01 9.1317D-01
 Trust test= 1.10D+00 RLast= 3.04D-01 DXMaxT set to 5.05D-01
 ITU=  1  0
 Use linear search instead of GDIIS.
 Linear search step of   0.600 exceeds DXMaxT=   0.505 but not scaled.
 Quartic linear search produced a step of  2.00000.
 Iteration  1 RMS(Cart)=  0.08528173 RMS(Int)=  0.02701147
 Iteration  2 RMS(Cart)=  0.02645792 RMS(Int)=  0.00096078
 Iteration  3 RMS(Cart)=  0.00002501 RMS(Int)=  0.00096062
 Iteration  4 RMS(Cart)=  0.00000002 RMS(Int)=  0.00096062
 ITry= 1 IFail=0 DXMaxC= 3.62D-01 DCOld= 1.00D+10 DXMaxT= 5.05D-01 DXLimC= 3.00D+00 Rises=F
 Variable       Old X    -DE/DX   Delta X   Delta X   Delta X     New X
                                 (Linear)    (Quad)   (Total)
    R1        2.83379  -0.02570  -0.07064   0.00000  -0.07064   2.76314
    R2        2.92098  -0.01337  -0.02895   0.00000  -0.02895   2.89203
    R3        2.06989  -0.00232  -0.00401   0.00000  -0.00401   2.06588
    R4        2.06846  -0.00542  -0.01178   0.00000  -0.01178   2.05667
    R5        3.31151  -0.10822  -0.31557   0.00000  -0.31557   2.99594
    R6        3.12473  -0.10851  -0.28939   0.00000  -0.28939   2.83533
    R7        3.07597  -0.10859  -0.28126   0.00000  -0.28126   2.79471
    R8        3.38598  -0.08587  -0.26843   0.00000  -0.26843   3.11755
    R9        2.06372  -0.00704  -0.01687   0.00000  -0.01687   2.04685
   R10        2.06169  -0.00831  -0.02017   0.00000  -0.02017   2.04153
    A1        1.98933  -0.01789  -0.05282   0.00000  -0.05218   1.93715
    A2        1.85445  -0.00003  -0.00670   0.00000  -0.00490   1.84954
    A3        1.95349  -0.00124  -0.01505   0.00000  -0.01452   1.93898
    A4        1.76950   0.01510   0.06127   0.00000   0.06061   1.83010
    A5        1.89029   0.01027   0.03579   0.00000   0.03399   1.92428
    A6        2.00150  -0.00598  -0.01871   0.00000  -0.02135   1.98015
    A7        1.97545  -0.00141  -0.01048   0.00000  -0.01036   1.96508
    A8        1.90594   0.01017   0.02421   0.00000   0.02384   1.92978
    A9        1.97092   0.00738   0.01753   0.00000   0.01715   1.98807
   A10        1.92383  -0.00867  -0.01874   0.00000  -0.01860   1.90523
   A11        1.92265  -0.00874  -0.02080   0.00000  -0.02072   1.90193
   A12        1.75221   0.00145   0.01094   0.00000   0.01006   1.76228
   A13        1.93725  -0.02471  -0.06897   0.00000  -0.06802   1.86923
   A14        1.94129   0.01453   0.05418   0.00000   0.05338   1.99466
   A15        2.00701   0.00396   0.01715   0.00000   0.01553   2.02253
   A16        1.77383   0.00214  -0.00779   0.00000  -0.00584   1.76799
   A17        1.77115   0.00622   0.00253   0.00000   0.00248   1.77363
   A18        2.00963  -0.00582  -0.01242   0.00000  -0.01465   1.99498
    D1        0.83248   0.00292   0.01434   0.00000   0.01409   0.84657
    D2        2.98259  -0.00173   0.00084   0.00000   0.00029   2.98288
    D3       -1.36716   0.00990   0.03689   0.00000   0.03687  -1.33028
    D4       -1.10091  -0.00652  -0.02985   0.00000  -0.02989  -1.13080
    D5        1.04920  -0.01117  -0.04336   0.00000  -0.04369   1.00551
    D6        2.98264   0.00046  -0.00730   0.00000  -0.00711   2.97553
    D7        2.98519   0.00184   0.00872   0.00000   0.00907   2.99426
    D8       -1.14789  -0.00281  -0.00479   0.00000  -0.00473  -1.15261
    D9        0.78555   0.00882   0.03127   0.00000   0.03185   0.81740
   D10        3.08338  -0.00126  -0.00514   0.00000  -0.00548   3.07791
   D11        1.12195   0.00206   0.01172   0.00000   0.01294   1.13489
   D12       -1.20205  -0.00781  -0.03860   0.00000  -0.03883  -1.24088
   D13       -1.21529  -0.00006   0.00145   0.00000  -0.00037  -1.21566
   D14        3.10645   0.00327   0.01832   0.00000   0.01805   3.12450
   D15        0.78246  -0.00660  -0.03200   0.00000  -0.03372   0.74873
   D16        0.89675   0.00525   0.02452   0.00000   0.02503   0.92178
   D17       -1.06469   0.00857   0.04139   0.00000   0.04345  -1.02124
   D18        2.89450  -0.00130  -0.00893   0.00000  -0.00833   2.88617
         Item               Value     Threshold  Converged?
 Maximum Force            0.108585     0.000450     NO 
 RMS     Force            0.031675     0.000300     NO 
 Maximum Displacement     0.361584     0.001800     NO 
 RMS     Displacement     0.108361     0.001200     NO 
 Predicted change in Energy=-1.258640D-01
 Lowest energy point so far.  Saving SCF results.
 GradGradGradGradGradGradGradGradGradGradGradGradGradGradGradGradGradGrad

 Leave Link  103 at Thu Jun 13 12:25:43 2024, MaxMem=  1073741824 cpu:         1.5
 (Enter /apps/z_install_tree/linux-rocky8-ivybridge/gcc-12.2.0/gaussian-09-D.01-wczn3gur5lpur3omlkzwa2l5ecyxp5ef/g09/l202.exe)
                          Input orientation:                          
 ---------------------------------------------------------------------
 Center     Atomic      Atomic             Coordinates (Angstroms)
 Number     Number       Type             X           Y           Z
 ---------------------------------------------------------------------
      1          6           0       50.136696   35.315430   31.948179
      2          6           0       50.071608   35.617976   33.377248
      3          6           0       51.494878   35.712276   31.365111
      4          9           0       50.559605   37.088955   33.711199
      5          9           0       48.674325   35.433896   33.891925
      6          9           0       50.812852   34.660979   34.226861
      7          9           0       51.500289   35.241349   29.784027
      8          1           0       49.418546   35.984034   31.466148
      9          1           0       49.940039   34.261390   31.761574
     10          1           0       52.330806   35.146473   31.757921
     11          1           0       51.678356   36.773242   31.276805
 ---------------------------------------------------------------------
                    Distance matrix (angstroms):
                    1          2          3          4          5
     1  C    0.000000
     2  C    1.462192   0.000000
     3  C    1.530397   2.466431   0.000000
     4  F    2.536234   1.585385   2.876475   0.000000
     5  F    2.435305   1.500392   3.797078   2.515186   0.000000
     6  F    2.465337   1.478894   3.124100   2.495017   2.298452
     7  F    2.558990   3.885127   1.649736   4.440857   4.989787
     8  H    1.093218   2.052508   2.096477   2.750112   2.596326
     9  H    1.088345   2.113773   2.163279   3.489989   2.741386
    10  H    2.208815   2.819309   1.083147   3.275009   4.243399
    11  H    2.225461   2.885851   1.080329   2.697694   4.202011
                    6          7          8          9         10
     6  F    0.000000
     7  F    4.533010   0.000000
     8  H    3.363941   2.777547   0.000000
     9  H    2.645584   2.702849   1.823933   0.000000
    10  H    2.938631   2.143599   3.044322   2.549343   0.000000
    11  H    3.730091   2.146344   2.401133   3.092918   1.817565
                   11
    11  H    0.000000
 Symmetry turned off by external request.
 Stoichiometry    C3H4F4
 Framework group  C1[X(C3H4F4)]
 Deg. of freedom    27
 Full point group                 C1      NOp   1
 Rotational constants (GHZ):      4.0628844      1.2807593      1.2388921
 Leave Link  202 at Thu Jun 13 12:25:43 2024, MaxMem=  1073741824 cpu:         0.4
 (Enter /apps/z_install_tree/linux-rocky8-ivybridge/gcc-12.2.0/gaussian-09-D.01-wczn3gur5lpur3omlkzwa2l5ecyxp5ef/g09/l301.exe)
 Basis read from rwf:  (5D, 7F)
 No pseudopotential information found on rwf file.
   225 basis functions,   338 primitive gaussians,   239 cartesian basis functions
    29 alpha electrons       29 beta electrons
       nuclear repulsion energy       317.5447297105 Hartrees.
 IExCor=  402 DFT=T Ex+Corr=B3LYP ExCW=0 ScaHFX=  0.200000
 ScaDFX=  0.800000  0.720000  1.000000  0.810000 ScalE2=  1.000000  1.000000
 IRadAn=      5 IRanWt=     -1 IRanGd=            0 ICorTp=0 IEmpDi=131
 NAtoms=   11 NActive=   11 NUniq=   11 SFac= 1.00D+00 NAtFMM=   60 NAOKFM=F Big=F
 Integral buffers will be    131072 words long.
 Raffenetti 2 integral format.
 Two-electron integral symmetry is turned off.
 R6Disp:  Grimme-D3 Dispersion energy=       -0.0076316216 Hartrees.
 Nuclear repulsion after empirical dispersion term =      317.5370980889 Hartrees.
 No density basis found on file   724.
 Leave Link  301 at Thu Jun 13 12:25:43 2024, MaxMem=  1073741824 cpu:         0.7
 (Enter /apps/z_install_tree/linux-rocky8-ivybridge/gcc-12.2.0/gaussian-09-D.01-wczn3gur5lpur3omlkzwa2l5ecyxp5ef/g09/l302.exe)
 NPDir=0 NMtPBC=     1 NCelOv=     1 NCel=       1 NClECP=     1 NCelD=      1
         NCelK=      1 NCelE2=     1 NClLst=     1 CellRange=     0.0.
 One-electron integrals computed using PRISM.
 NBasis=   225 RedAO= T EigKep=  5.91D-05  NBF=   225
 NBsUse=   225 1.00D-06 EigRej= -1.00D+00 NBFU=   225
 Precomputing XC quadrature grid using
 IXCGrd= 4 IRadAn=           5 IRanWt=          -1 IRanGd=           0 AccXCQ= 0.00D+00.
 Generated NRdTot=       0 NPtTot=           0 NUsed=           0 NTot=          32
 NSgBfM=   239   239   239   239   239 MxSgAt=    11 MxSgA2=    11.
 Leave Link  302 at Thu Jun 13 12:25:44 2024, MaxMem=  1073741824 cpu:         3.2
 (Enter /apps/z_install_tree/linux-rocky8-ivybridge/gcc-12.2.0/gaussian-09-D.01-wczn3gur5lpur3omlkzwa2l5ecyxp5ef/g09/l303.exe)
 DipDrv:  MaxL=1.
 Leave Link  303 at Thu Jun 13 12:25:44 2024, MaxMem=  1073741824 cpu:         1.7
 (Enter /apps/z_install_tree/linux-rocky8-ivybridge/gcc-12.2.0/gaussian-09-D.01-wczn3gur5lpur3omlkzwa2l5ecyxp5ef/g09/l401.exe)
 Initial guess from the checkpoint file:  "tetrafluoropropane.chk"
 B after Tr=     0.000617   -0.214707    0.239001
         Rot=    0.999999    0.000909   -0.000719   -0.000550 Ang=   0.15 deg.
 Guess basis will be translated and rotated to current coordinates.
 JPrj=2 DoOrth=T DoCkMO=T.
 Generating alternative initial guess.
 ExpMin= 4.38D-02 ExpMax= 1.14D+04 ExpMxC= 1.72D+03 IAcc=2 IRadAn=         4 AccDes= 0.00D+00
 Harris functional with IExCor=  402 and IRadAn=       4 diagonalized for initial guess.
 HarFok:  IExCor=  402 AccDes= 0.00D+00 IRadAn=         4 IDoV= 1 UseB2=F ITyADJ=14
 ICtDFT=  3500011 ScaDFX=  1.000000  1.000000  1.000000  1.000000
 FoFCou: FMM=F IPFlag=           0 FMFlag=      100000 FMFlg1=           0
         NFxFlg=           0 DoJE=T BraDBF=F KetDBF=T FulRan=T
         wScrn=  0.000000 ICntrl=     500 IOpCl=  0 I1Cent=   200000004 NGrid=           0
         NMat0=    1 NMatS0=      1 NMatT0=    0 NMatD0=    1 NMtDS0=    0 NMtDT0=    0
 Symmetry not used in FoFCou.
 Harris En= -516.231204323854    
 Leave Link  401 at Thu Jun 13 12:25:44 2024, MaxMem=  1073741824 cpu:        10.8
 (Enter /apps/z_install_tree/linux-rocky8-ivybridge/gcc-12.2.0/gaussian-09-D.01-wczn3gur5lpur3omlkzwa2l5ecyxp5ef/g09/l502.exe)
 Closed shell SCF:
 Using DIIS extrapolation, IDIIS=  1040.
 Two-electron integral symmetry not used.
 Keep R1 ints in memory in canonical form, NReq=330328726.
 IVT=      188821 IEndB=      188821 NGot=  1073741824 MDV=   750324979
 LenX=   750324979 LenY=   750267417
 Requested convergence on RMS density matrix=1.00D-08 within  96 cycles.
 Requested convergence on MAX density matrix=1.00D-06.
 Requested convergence on             energy=1.00D-06.
 No special actions if energy rises.
 FoFCou: FMM=F IPFlag=           0 FMFlag=           0 FMFlg1=           0
         NFxFlg=           0 DoJE=F BraDBF=F KetDBF=F FulRan=T
         wScrn=  0.000000 ICntrl=     600 IOpCl=  0 I1Cent=           0 NGrid=           0
         NMat0=    1 NMatS0=  25425 NMatT0=    0 NMatD0=    1 NMtDS0=    0 NMtDT0=    0
 Symmetry not used in FoFCou.

 Cycle   1  Pass 1  IDiag  1:
 E= -516.195459234346    
 DIIS: error= 5.94D-03 at cycle   1 NSaved=   1.
 NSaved= 1 IEnMin= 1 EnMin= -516.195459234346     IErMin= 1 ErrMin= 5.94D-03
 ErrMax= 5.94D-03  0.00D+00 EMaxC= 1.00D-01 BMatC= 1.76D-02 BMatP= 1.76D-02
 IDIUse=3 WtCom= 9.41D-01 WtEn= 5.94D-02
 Coeff-Com:  0.100D+01
 Coeff-En:   0.100D+01
 Coeff:      0.100D+01
 Gap=     0.612 Goal=   None    Shift=    0.000
 GapD=    0.612 DampG=2.000 DampE=1.000 DampFc=2.0000 IDamp=-1.
 RMSDP=1.12D-03 MaxDP=4.32D-02              OVMax= 4.20D-02

 Cycle   2  Pass 1  IDiag  1:
 E= -516.214291579949     Delta-E=       -0.018832345603 Rises=F Damp=F
 DIIS: error= 3.04D-03 at cycle   2 NSaved=   2.
 NSaved= 2 IEnMin= 2 EnMin= -516.214291579949     IErMin= 2 ErrMin= 3.04D-03
 ErrMax= 3.04D-03  0.00D+00 EMaxC= 1.00D-01 BMatC= 1.61D-03 BMatP= 1.76D-02
 IDIUse=3 WtCom= 9.70D-01 WtEn= 3.04D-02
 Coeff-Com:  0.106D+00 0.894D+00
 Coeff-En:   0.000D+00 0.100D+01
 Coeff:      0.103D+00 0.897D+00
 Gap=     0.311 Goal=   None    Shift=    0.000
 RMSDP=1.94D-04 MaxDP=7.38D-03 DE=-1.88D-02 OVMax= 1.25D-02

 Cycle   3  Pass 1  IDiag  1:
 E= -516.213577515412     Delta-E=        0.000714064538 Rises=F Damp=F
 DIIS: error= 3.51D-03 at cycle   3 NSaved=   3.
 NSaved= 3 IEnMin= 2 EnMin= -516.214291579949     IErMin= 2 ErrMin= 3.04D-03
 ErrMax= 3.51D-03  0.00D+00 EMaxC= 1.00D-01 BMatC= 2.87D-03 BMatP= 1.61D-03
 IDIUse=3 WtCom= 1.44D-01 WtEn= 8.56D-01
 Coeff-Com:  0.813D-03 0.576D+00 0.424D+00
 Coeff-En:   0.000D+00 0.620D+00 0.380D+00
 Coeff:      0.117D-03 0.613D+00 0.387D+00
 Gap=     0.318 Goal=   None    Shift=    0.000
 RMSDP=1.18D-04 MaxDP=3.89D-03 DE= 7.14D-04 OVMax= 7.71D-03

 Cycle   4  Pass 1  IDiag  1:
 E= -516.215231335298     Delta-E=       -0.001653819887 Rises=F Damp=F
 DIIS: error= 4.35D-04 at cycle   4 NSaved=   4.
 NSaved= 4 IEnMin= 4 EnMin= -516.215231335298     IErMin= 4 ErrMin= 4.35D-04
 ErrMax= 4.35D-04  0.00D+00 EMaxC= 1.00D-01 BMatC= 7.26D-05 BMatP= 1.61D-03
 IDIUse=3 WtCom= 9.96D-01 WtEn= 4.35D-03
 Coeff-Com: -0.135D-01 0.244D+00 0.187D+00 0.582D+00
 Coeff-En:   0.000D+00 0.000D+00 0.000D+00 0.100D+01
 Coeff:     -0.134D-01 0.243D+00 0.186D+00 0.584D+00
 Gap=     0.315 Goal=   None    Shift=    0.000
 RMSDP=2.87D-05 MaxDP=1.59D-03 DE=-1.65D-03 OVMax= 1.50D-03

 Cycle   5  Pass 1  IDiag  1:
 E= -516.215280681232     Delta-E=       -0.000049345934 Rises=F Damp=F
 DIIS: error= 1.10D-04 at cycle   5 NSaved=   5.
 NSaved= 5 IEnMin= 5 EnMin= -516.215280681232     IErMin= 5 ErrMin= 1.10D-04
 ErrMax= 1.10D-04  0.00D+00 EMaxC= 1.00D-01 BMatC= 4.84D-06 BMatP= 7.26D-05
 IDIUse=3 WtCom= 9.99D-01 WtEn= 1.10D-03
 Coeff-Com: -0.397D-02 0.437D-01 0.286D-01 0.235D+00 0.697D+00
 Coeff-En:   0.000D+00 0.000D+00 0.000D+00 0.000D+00 0.100D+01
 Coeff:     -0.396D-02 0.437D-01 0.286D-01 0.234D+00 0.697D+00
 Gap=     0.316 Goal=   None    Shift=    0.000
 RMSDP=8.13D-06 MaxDP=3.12D-04 DE=-4.93D-05 OVMax= 4.03D-04

 Cycle   6  Pass 1  IDiag  1:
 E= -516.215283970889     Delta-E=       -0.000003289657 Rises=F Damp=F
 DIIS: error= 5.53D-05 at cycle   6 NSaved=   6.
 NSaved= 6 IEnMin= 6 EnMin= -516.215283970889     IErMin= 6 ErrMin= 5.53D-05
 ErrMax= 5.53D-05  0.00D+00 EMaxC= 1.00D-01 BMatC= 8.38D-07 BMatP= 4.84D-06
 IDIUse=1 WtCom= 1.00D+00 WtEn= 0.00D+00
 Coeff-Com: -0.900D-03 0.772D-02 0.223D-02 0.820D-01 0.388D+00 0.521D+00
 Coeff:     -0.900D-03 0.772D-02 0.223D-02 0.820D-01 0.388D+00 0.521D+00
 Gap=     0.316 Goal=   None    Shift=    0.000
 RMSDP=2.82D-06 MaxDP=1.24D-04 DE=-3.29D-06 OVMax= 1.67D-04

 Cycle   7  Pass 1  IDiag  1:
 E= -516.215284421799     Delta-E=       -0.000000450910 Rises=F Damp=F
 DIIS: error= 2.04D-05 at cycle   7 NSaved=   7.
 NSaved= 7 IEnMin= 7 EnMin= -516.215284421799     IErMin= 7 ErrMin= 2.04D-05
 ErrMax= 2.04D-05  0.00D+00 EMaxC= 1.00D-01 BMatC= 1.16D-07 BMatP= 8.38D-07
 IDIUse=1 WtCom= 1.00D+00 WtEn= 0.00D+00
 Coeff-Com: -0.816D-04-0.236D-02-0.279D-02 0.106D-01 0.123D+00 0.313D+00
 Coeff-Com:  0.559D+00
 Coeff:     -0.816D-04-0.236D-02-0.279D-02 0.106D-01 0.123D+00 0.313D+00
 Coeff:      0.559D+00
 Gap=     0.316 Goal=   None    Shift=    0.000
 RMSDP=9.30D-07 MaxDP=6.33D-05 DE=-4.51D-07 OVMax= 7.31D-05

 Cycle   8  Pass 1  IDiag  1:
 E= -516.215284509107     Delta-E=       -0.000000087309 Rises=F Damp=F
 DIIS: error= 2.73D-06 at cycle   8 NSaved=   8.
 NSaved= 8 IEnMin= 8 EnMin= -516.215284509107     IErMin= 8 ErrMin= 2.73D-06
 ErrMax= 2.73D-06  0.00D+00 EMaxC= 1.00D-01 BMatC= 2.79D-09 BMatP= 1.16D-07
 IDIUse=1 WtCom= 1.00D+00 WtEn= 0.00D+00
 Coeff-Com:  0.337D-04-0.142D-02-0.121D-02-0.149D-02 0.263D-01 0.954D-01
 Coeff-Com:  0.218D+00 0.664D+00
 Coeff:      0.337D-04-0.142D-02-0.121D-02-0.149D-02 0.263D-01 0.954D-01
 Coeff:      0.218D+00 0.664D+00
 Gap=     0.316 Goal=   None    Shift=    0.000
 RMSDP=2.58D-07 MaxDP=1.23D-05 DE=-8.73D-08 OVMax= 1.30D-05

 Cycle   9  Pass 1  IDiag  1:
 E= -516.215284511260     Delta-E=       -0.000000002153 Rises=F Damp=F
 DIIS: error= 1.06D-06 at cycle   9 NSaved=   9.
 NSaved= 9 IEnMin= 9 EnMin= -516.215284511260     IErMin= 9 ErrMin= 1.06D-06
 ErrMax= 1.06D-06  0.00D+00 EMaxC= 1.00D-01 BMatC= 5.43D-10 BMatP= 2.79D-09
 IDIUse=1 WtCom= 1.00D+00 WtEn= 0.00D+00
 Coeff-Com:  0.208D-04-0.486D-03-0.339D-03-0.186D-02 0.767D-03 0.177D-01
 Coeff-Com:  0.568D-01 0.350D+00 0.577D+00
 Coeff:      0.208D-04-0.486D-03-0.339D-03-0.186D-02 0.767D-03 0.177D-01
 Coeff:      0.568D-01 0.350D+00 0.577D+00
 Gap=     0.316 Goal=   None    Shift=    0.000
 RMSDP=8.36D-08 MaxDP=2.42D-06 DE=-2.15D-09 OVMax= 5.43D-06

 Cycle  10  Pass 1  IDiag  1:
 E= -516.215284511619     Delta-E=       -0.000000000359 Rises=F Damp=F
 DIIS: error= 5.96D-07 at cycle  10 NSaved=  10.
 NSaved=10 IEnMin=10 EnMin= -516.215284511619     IErMin=10 ErrMin= 5.96D-07
 ErrMax= 5.96D-07  0.00D+00 EMaxC= 1.00D-01 BMatC= 1.25D-10 BMatP= 5.43D-10
 IDIUse=1 WtCom= 1.00D+00 WtEn= 0.00D+00
 Coeff-Com:  0.977D-05-0.131D-03-0.640D-04-0.985D-03-0.289D-02-0.902D-03
 Coeff-Com:  0.876D-02 0.136D+00 0.371D+00 0.490D+00
 Coeff:      0.977D-05-0.131D-03-0.640D-04-0.985D-03-0.289D-02-0.902D-03
 Coeff:      0.876D-02 0.136D+00 0.371D+00 0.490D+00
 Gap=     0.316 Goal=   None    Shift=    0.000
 RMSDP=3.20D-08 MaxDP=9.90D-07 DE=-3.59D-10 OVMax= 2.21D-06

 Cycle  11  Pass 1  IDiag  1:
 E= -516.215284511696     Delta-E=       -0.000000000077 Rises=F Damp=F
 DIIS: error= 1.25D-07 at cycle  11 NSaved=  11.
 NSaved=11 IEnMin=11 EnMin= -516.215284511696     IErMin=11 ErrMin= 1.25D-07
 ErrMax= 1.25D-07  0.00D+00 EMaxC= 1.00D-01 BMatC= 6.93D-12 BMatP= 1.25D-10
 IDIUse=1 WtCom= 1.00D+00 WtEn= 0.00D+00
 Coeff-Com:  0.140D-05 0.216D-04 0.324D-04-0.149D-03-0.161D-02-0.368D-02
 Coeff-Com: -0.511D-02 0.748D-02 0.907D-01 0.229D+00 0.684D+00
 Coeff:      0.140D-05 0.216D-04 0.324D-04-0.149D-03-0.161D-02-0.368D-02
 Coeff:     -0.511D-02 0.748D-02 0.907D-01 0.229D+00 0.684D+00
 Gap=     0.316 Goal=   None    Shift=    0.000
 RMSDP=1.16D-08 MaxDP=5.20D-07 DE=-7.69D-11 OVMax= 7.40D-07

 Cycle  12  Pass 1  IDiag  1:
 E= -516.215284511701     Delta-E=       -0.000000000005 Rises=F Damp=F
 DIIS: error= 2.18D-08 at cycle  12 NSaved=  12.
 NSaved=12 IEnMin=12 EnMin= -516.215284511701     IErMin=12 ErrMin= 2.18D-08
 ErrMax= 2.18D-08  0.00D+00 EMaxC= 1.00D-01 BMatC= 1.63D-13 BMatP= 6.93D-12
 IDIUse=1 WtCom= 1.00D+00 WtEn= 0.00D+00
 Coeff-Com: -0.601D-07 0.952D-05 0.758D-05 0.255D-04-0.212D-03-0.766D-03
 Coeff-Com: -0.161D-02-0.549D-02 0.190D-02 0.327D-01 0.170D+00 0.803D+00
 Coeff:     -0.601D-07 0.952D-05 0.758D-05 0.255D-04-0.212D-03-0.766D-03
 Coeff:     -0.161D-02-0.549D-02 0.190D-02 0.327D-01 0.170D+00 0.803D+00
 Gap=     0.316 Goal=   None    Shift=    0.000
 RMSDP=2.16D-09 MaxDP=8.35D-08 DE=-5.23D-12 OVMax= 1.54D-07

 SCF Done:  E(RB3LYP) =  -516.215284512     A.U. after   12 cycles
            NFock= 12  Conv=0.22D-08     -V/T= 2.0050
 KE= 5.136701454840D+02 PE=-1.858602435391D+03 EE= 5.111799073062D+02
 Leave Link  502 at Thu Jun 13 12:25:55 2024, MaxMem=  1073741824 cpu:       113.6
 (Enter /apps/z_install_tree/linux-rocky8-ivybridge/gcc-12.2.0/gaussian-09-D.01-wczn3gur5lpur3omlkzwa2l5ecyxp5ef/g09/l508.exe)
 QCSCF skips out because SCF is already converged.
 Leave Link  508 at Thu Jun 13 12:25:55 2024, MaxMem=  1073741824 cpu:         0.0
 (Enter /apps/z_install_tree/linux-rocky8-ivybridge/gcc-12.2.0/gaussian-09-D.01-wczn3gur5lpur3omlkzwa2l5ecyxp5ef/g09/l701.exe)
 Compute integral first derivatives.
 ... and contract with generalized density number  0.
 R6Disp: Adding Grimme-D3 dispersion energy 1st derivatives to the gradient.
 Leave Link  701 at Thu Jun 13 12:25:55 2024, MaxMem=  1073741824 cpu:         2.8
 (Enter /apps/z_install_tree/linux-rocky8-ivybridge/gcc-12.2.0/gaussian-09-D.01-wczn3gur5lpur3omlkzwa2l5ecyxp5ef/g09/l702.exe)
 L702 exits ... SP integral derivatives will be done elsewhere.
 Leave Link  702 at Thu Jun 13 12:25:55 2024, MaxMem=  1073741824 cpu:         0.2
 (Enter /apps/z_install_tree/linux-rocky8-ivybridge/gcc-12.2.0/gaussian-09-D.01-wczn3gur5lpur3omlkzwa2l5ecyxp5ef/g09/l703.exe)
 Compute integral first derivatives, UseDBF=F ICtDFT=           0.
 Integral derivatives from FoFJK, PRISM(SPDF).
 Calling FoFJK, ICntrl=      2127 FMM=F ISym2X=0 I1Cent= 0 IOpClX= 0 NMat=1 NMatS=1 NMatT=0.
 FoFJK:  IHMeth= 1 ICntrl=    2127 DoSepK=F KAlg= 0 I1Cent=   0 FoldK=F
 IRaf=         0 NMat=   1 IRICut=       1 DoRegI=T DoRafI=F ISym2E= 0.
 FoFCou: FMM=F IPFlag=           0 FMFlag=      100000 FMFlg1=         800
         NFxFlg=           0 DoJE=F BraDBF=F KetDBF=F FulRan=T
         wScrn=  0.000000 ICntrl=    2127 IOpCl=  0 I1Cent=           0 NGrid=           0
         NMat0=    1 NMatS0=      1 NMatT0=    0 NMatD0=    1 NMtDS0=    0 NMtDT0=    0
 Symmetry not used in FoFCou.
 Leave Link  703 at Thu Jun 13 12:25:57 2024, MaxMem=  1073741824 cpu:        30.1
 (Enter /apps/z_install_tree/linux-rocky8-ivybridge/gcc-12.2.0/gaussian-09-D.01-wczn3gur5lpur3omlkzwa2l5ecyxp5ef/g09/l716.exe)
 Dipole        = 4.04303887D-02-2.09025706D-02-1.37143191D-01
 -------------------------------------------------------------------
 Center     Atomic                   Forces (Hartrees/Bohr)
 Number     Number              X              Y              Z
 -------------------------------------------------------------------
      1        6           0.016416845    0.022334358   -0.025388405
      2        6          -0.020663026   -0.001034389    0.099334435
      3        6           0.003865763   -0.027211659   -0.059697333
      4        9          -0.029956881   -0.089415718   -0.016672180
      5        9           0.074969183    0.022073469   -0.027672521
      6        9          -0.028940584    0.059549923   -0.045108658
      7        9          -0.005747745    0.018651988    0.069081301
      8        1          -0.005852347   -0.009079888    0.000965765
      9        1          -0.003609649    0.002362630    0.002960573
     10        1           0.000515101    0.001920303    0.000000521
     11        1          -0.000996660   -0.000151018    0.002196502
 -------------------------------------------------------------------
 Cartesian Forces:  Max     0.099334435 RMS     0.036430876
 Leave Link  716 at Thu Jun 13 12:25:57 2024, MaxMem=  1073741824 cpu:         0.3
 (Enter /apps/z_install_tree/linux-rocky8-ivybridge/gcc-12.2.0/gaussian-09-D.01-wczn3gur5lpur3omlkzwa2l5ecyxp5ef/g09/l103.exe)

 GradGradGradGradGradGradGradGradGradGradGradGradGradGradGradGradGradGrad
 Berny optimization.
 Using GEDIIS/GDIIS optimizer.
 FormGI is forming the generalized inverse of G from B-inverse, IUseBI=4.
 Internal  Forces:  Max     0.095696441 RMS     0.024821120
 Search for a local minimum.
 Step number   3 out of a maximum of   56
 All quantities printed in internal units (Hartrees-Bohrs-Radians)
 RMS Force = .24821D-01 SwitMx=.10000D-02 MixMth= 1
 Mixed Optimization -- RFO/linear search
 Update second derivatives using D2CorX and points    2    3
 ITU=  0  1  0
 Use linear search instead of GDIIS.
 Linear search step of   0.661 exceeds DXMaxT=   0.505 but not scaled.
 Quartic linear search produced a step of  1.10238.
 Iteration  1 RMS(Cart)=  0.08819993 RMS(Int)=  0.03576153
 Iteration  2 RMS(Cart)=  0.03496058 RMS(Int)=  0.00141905
 Iteration  3 RMS(Cart)=  0.00004844 RMS(Int)=  0.00141863
 Iteration  4 RMS(Cart)=  0.00000005 RMS(Int)=  0.00141863
 ITry= 1 IFail=0 DXMaxC= 3.97D-01 DCOld= 1.00D+10 DXMaxT= 5.05D-01 DXLimC= 3.00D+00 Rises=F
 Variable       Old X    -DE/DX   Delta X   Delta X   Delta X     New X
                                 (Linear)    (Quad)   (Total)
    R1        2.76314   0.00804  -0.07788   0.00000  -0.07788   2.68527
    R2        2.89203  -0.00827  -0.03192   0.00000  -0.03192   2.86011
    R3        2.06588  -0.00213  -0.00442   0.00000  -0.00442   2.06146
    R4        2.05667  -0.00214  -0.01299   0.00000  -0.01299   2.04368
    R5        2.99594  -0.09570  -0.34788   0.00000  -0.34788   2.64806
    R6        2.83533  -0.08202  -0.31902   0.00000  -0.31902   2.51631
    R7        2.79471  -0.07895  -0.31006   0.00000  -0.31006   2.48465
    R8        3.11755  -0.07155  -0.29592   0.00000  -0.29592   2.82163
    R9        2.04685  -0.00061  -0.01860   0.00000  -0.01860   2.02825
   R10        2.04153  -0.00050  -0.02223   0.00000  -0.02223   2.01929
    A1        1.93715  -0.00204  -0.05752   0.00000  -0.05636   1.88078
    A2        1.84954   0.00070  -0.00540   0.00000  -0.00271   1.84683
    A3        1.93898  -0.00274  -0.01600   0.00000  -0.01513   1.92385
    A4        1.83010   0.00623   0.06681   0.00000   0.06569   1.89579
    A5        1.92428   0.00175   0.03747   0.00000   0.03461   1.95889
    A6        1.98015  -0.00356  -0.02354   0.00000  -0.02723   1.95292
    A7        1.96508   0.00079  -0.01142   0.00000  -0.01121   1.95387
    A8        1.92978   0.00722   0.02628   0.00000   0.02568   1.95546
    A9        1.98807   0.00277   0.01891   0.00000   0.01829   2.00637
   A10        1.90523  -0.00904  -0.02051   0.00000  -0.02027   1.88496
   A11        1.90193  -0.00819  -0.02285   0.00000  -0.02271   1.87922
   A12        1.76228   0.00630   0.01109   0.00000   0.00975   1.77203
   A13        1.86923  -0.01255  -0.07499   0.00000  -0.07339   1.79584
   A14        1.99466   0.00400   0.05884   0.00000   0.05750   2.05216
   A15        2.02253  -0.00153   0.01711   0.00000   0.01462   2.03716
   A16        1.76799   0.00466  -0.00644   0.00000  -0.00335   1.76464
   A17        1.77363   0.00606   0.00273   0.00000   0.00266   1.77629
   A18        1.99498  -0.00090  -0.01615   0.00000  -0.01931   1.97567
    D1        0.84657   0.00216   0.01553   0.00000   0.01515   0.86172
    D2        2.98288  -0.00370   0.00032   0.00000  -0.00050   2.98239
    D3       -1.33028   0.01041   0.04065   0.00000   0.04062  -1.28967
    D4       -1.13080  -0.00455  -0.03295   0.00000  -0.03299  -1.16379
    D5        1.00551  -0.01040  -0.04816   0.00000  -0.04864   0.95687
    D6        2.97553   0.00370  -0.00784   0.00000  -0.00752   2.96800
    D7        2.99426   0.00102   0.01000   0.00000   0.01050   3.00476
    D8       -1.15261  -0.00484  -0.00521   0.00000  -0.00514  -1.15776
    D9        0.81740   0.00927   0.03511   0.00000   0.03597   0.85337
   D10        3.07791  -0.00160  -0.00604   0.00000  -0.00659   3.07132
   D11        1.13489  -0.00168   0.01427   0.00000   0.01603   1.15092
   D12       -1.24088  -0.00314  -0.04281   0.00000  -0.04305  -1.28393
   D13       -1.21566   0.00162  -0.00041   0.00000  -0.00304  -1.21871
   D14        3.12450   0.00155   0.01990   0.00000   0.01958  -3.13911
   D15        0.74873   0.00009  -0.03718   0.00000  -0.03950   0.70923
   D16        0.92178   0.00209   0.02759   0.00000   0.02815   0.94992
   D17       -1.02124   0.00202   0.04789   0.00000   0.05077  -0.97048
   D18        2.88617   0.00056  -0.00918   0.00000  -0.00831   2.87786
         Item               Value     Threshold  Converged?
 Maximum Force            0.095696     0.000450     NO 
 RMS     Force            0.024821     0.000300     NO 
 Maximum Displacement     0.397293     0.001800     NO 
 RMS     Displacement     0.118693     0.001200     NO 
 Predicted change in Energy=-9.030644D-02
 Lowest energy point so far.  Saving SCF results.
 GradGradGradGradGradGradGradGradGradGradGradGradGradGradGradGradGradGrad

 Leave Link  103 at Thu Jun 13 12:25:58 2024, MaxMem=  1073741824 cpu:         9.5
 (Enter /apps/z_install_tree/linux-rocky8-ivybridge/gcc-12.2.0/gaussian-09-D.01-wczn3gur5lpur3omlkzwa2l5ecyxp5ef/g09/l202.exe)
                          Input orientation:                          
 ---------------------------------------------------------------------
 Center     Atomic      Atomic             Coordinates (Angstroms)
 Number     Number       Type             X           Y           Z
 ---------------------------------------------------------------------
      1          6           0       50.123652   35.318101   31.939425
      2          6           0       50.087671   35.607081   33.330248
      3          6           0       51.489458   35.713572   31.420889
      4          9           0       50.532392   36.906832   33.606823
      5          9           0       48.863271   35.474646   33.836598
      6          9           0       50.775671   34.780433   34.086592
      7          9           0       51.443988   35.275218   29.994265
      8          1           0       49.375894   35.967070   31.481481
      9          1           0       49.908381   34.272040   31.769155
     10          1           0       52.336523   35.160912   31.780097
     11          1           0       51.681100   36.760095   31.321427
 ---------------------------------------------------------------------
                    Distance matrix (angstroms):
                    1          2          3          4          5
     1  C    0.000000
     2  C    1.420983   0.000000
     3  C    1.513507   2.371075   0.000000
     4  F    2.339092   1.401294   2.667987   0.000000
     5  F    2.283053   1.331572   3.576254   2.211317   0.000000
     6  F    2.307497   1.314819   2.913111   2.193385   2.049806
     7  F    2.351334   3.616422   1.493143   4.067400   4.632860
     8  H    1.090878   2.013493   2.129574   2.595712   2.460048
     9  H    1.081470   2.061914   2.167743   3.272391   2.610141
    10  H    2.224161   2.767557   1.073305   3.104844   4.048593
    11  H    2.210636   2.811373   1.068564   2.562049   3.989815
                    6          7          8          9         10
     6  F    0.000000
     7  F    4.175955   0.000000
     8  H    3.186548   2.639599   0.000000
     9  H    2.526098   2.552389   1.799840   0.000000
    10  H    2.810862   1.999720   3.082919   2.585747   0.000000
    11  H    3.519233   2.005602   2.443048   3.087622   1.788112
                   11
    11  H    0.000000
 Symmetry turned off by external request.
 Stoichiometry    C3H4F4
 Framework group  C1[X(C3H4F4)]
 Deg. of freedom    27
 Full point group                 C1      NOp   1
 Rotational constants (GHZ):      5.0518303      1.4856525      1.4454972
 Leave Link  202 at Thu Jun 13 12:25:58 2024, MaxMem=  1073741824 cpu:         0.5
 (Enter /apps/z_install_tree/linux-rocky8-ivybridge/gcc-12.2.0/gaussian-09-D.01-wczn3gur5lpur3omlkzwa2l5ecyxp5ef/g09/l301.exe)
 Basis read from rwf:  (5D, 7F)
 No pseudopotential information found on rwf file.
   225 basis functions,   338 primitive gaussians,   239 cartesian basis functions
    29 alpha electrons       29 beta electrons
       nuclear repulsion energy       344.3350192125 Hartrees.
 IExCor=  402 DFT=T Ex+Corr=B3LYP ExCW=0 ScaHFX=  0.200000
 ScaDFX=  0.800000  0.720000  1.000000  0.810000 ScalE2=  1.000000  1.000000
 IRadAn=      5 IRanWt=     -1 IRanGd=            0 ICorTp=0 IEmpDi=131
 NAtoms=   11 NActive=   11 NUniq=   11 SFac= 1.00D+00 NAtFMM=   60 NAOKFM=F Big=F
 Integral buffers will be    131072 words long.
 Raffenetti 2 integral format.
 Two-electron integral symmetry is turned off.
 R6Disp:  Grimme-D3 Dispersion energy=       -0.0073171850 Hartrees.
 Nuclear repulsion after empirical dispersion term =      344.3277020275 Hartrees.
 No density basis found on file   724.
 Leave Link  301 at Thu Jun 13 12:25:58 2024, MaxMem=  1073741824 cpu:         0.5
 (Enter /apps/z_install_tree/linux-rocky8-ivybridge/gcc-12.2.0/gaussian-09-D.01-wczn3gur5lpur3omlkzwa2l5ecyxp5ef/g09/l302.exe)
 NPDir=0 NMtPBC=     1 NCelOv=     1 NCel=       1 NClECP=     1 NCelD=      1
         NCelK=      1 NCelE2=     1 NClLst=     1 CellRange=     0.0.
 One-electron integrals computed using PRISM.
 NBasis=   225 RedAO= T EigKep=  5.30D-05  NBF=   225
 NBsUse=   225 1.00D-06 EigRej= -1.00D+00 NBFU=   225
 Precomputing XC quadrature grid using
 IXCGrd= 4 IRadAn=           5 IRanWt=          -1 IRanGd=           0 AccXCQ= 0.00D+00.
 Generated NRdTot=       0 NPtTot=           0 NUsed=           0 NTot=          32
 NSgBfM=   239   239   239   239   239 MxSgAt=    11 MxSgA2=    11.
 Leave Link  302 at Thu Jun 13 12:25:58 2024, MaxMem=  1073741824 cpu:         2.8
 (Enter /apps/z_install_tree/linux-rocky8-ivybridge/gcc-12.2.0/gaussian-09-D.01-wczn3gur5lpur3omlkzwa2l5ecyxp5ef/g09/l303.exe)
 DipDrv:  MaxL=1.
 Leave Link  303 at Thu Jun 13 12:25:58 2024, MaxMem=  1073741824 cpu:         1.8
 (Enter /apps/z_install_tree/linux-rocky8-ivybridge/gcc-12.2.0/gaussian-09-D.01-wczn3gur5lpur3omlkzwa2l5ecyxp5ef/g09/l401.exe)
 Initial guess from the checkpoint file:  "tetrafluoropropane.chk"
 B after Tr=     0.059086   -0.252286    0.190512
         Rot=    0.999999    0.000914   -0.000476   -0.000744 Ang=   0.15 deg.
 Guess basis will be translated and rotated to current coordinates.
 JPrj=2 DoOrth=T DoCkMO=T.
 Generating alternative initial guess.
 ExpMin= 4.38D-02 ExpMax= 1.14D+04 ExpMxC= 1.72D+03 IAcc=2 IRadAn=         4 AccDes= 0.00D+00
 Harris functional with IExCor=  402 and IRadAn=       4 diagonalized for initial guess.
 HarFok:  IExCor=  402 AccDes= 0.00D+00 IRadAn=         4 IDoV= 1 UseB2=F ITyADJ=14
 ICtDFT=  3500011 ScaDFX=  1.000000  1.000000  1.000000  1.000000
 FoFCou: FMM=F IPFlag=           0 FMFlag=      100000 FMFlg1=           0
         NFxFlg=           0 DoJE=T BraDBF=F KetDBF=T FulRan=T
         wScrn=  0.000000 ICntrl=     500 IOpCl=  0 I1Cent=   200000004 NGrid=           0
         NMat0=    1 NMatS0=      1 NMatT0=    0 NMatD0=    1 NMtDS0=    0 NMtDT0=    0
 Symmetry not used in FoFCou.
 Harris En= -516.256579045279    
 Leave Link  401 at Thu Jun 13 12:25:59 2024, MaxMem=  1073741824 cpu:         7.3
 (Enter /apps/z_install_tree/linux-rocky8-ivybridge/gcc-12.2.0/gaussian-09-D.01-wczn3gur5lpur3omlkzwa2l5ecyxp5ef/g09/l502.exe)
 Closed shell SCF:
 Using DIIS extrapolation, IDIIS=  1040.
 Two-electron integral symmetry not used.
 Keep R1 ints in memory in canonical form, NReq=330328726.
 IVT=      188821 IEndB=      188821 NGot=  1073741824 MDV=   750324979
 LenX=   750324979 LenY=   750267417
 Requested convergence on RMS density matrix=1.00D-08 within  96 cycles.
 Requested convergence on MAX density matrix=1.00D-06.
 Requested convergence on             energy=1.00D-06.
 No special actions if energy rises.
 FoFCou: FMM=F IPFlag=           0 FMFlag=           0 FMFlg1=           0
         NFxFlg=           0 DoJE=F BraDBF=F KetDBF=F FulRan=T
         wScrn=  0.000000 ICntrl=     600 IOpCl=  0 I1Cent=           0 NGrid=           0
         NMat0=    1 NMatS0=  25425 NMatT0=    0 NMatD0=    1 NMtDS0=    0 NMtDT0=    0
 Symmetry not used in FoFCou.

 Cycle   1  Pass 1  IDiag  1:
 E= -516.236941150691    
 DIIS: error= 8.30D-03 at cycle   1 NSaved=   1.
 NSaved= 1 IEnMin= 1 EnMin= -516.236941150691     IErMin= 1 ErrMin= 8.30D-03
 ErrMax= 8.30D-03  0.00D+00 EMaxC= 1.00D-01 BMatC= 4.15D-02 BMatP= 4.15D-02
 IDIUse=3 WtCom= 9.17D-01 WtEn= 8.30D-02
 Coeff-Com:  0.100D+01
 Coeff-En:   0.100D+01
 Coeff:      0.100D+01
 Gap=     0.641 Goal=   None    Shift=    0.000
 GapD=    0.641 DampG=2.000 DampE=1.000 DampFc=2.0000 IDamp=-1.
 RMSDP=1.52D-03 MaxDP=6.65D-02              OVMax= 4.22D-02

 Cycle   2  Pass 1  IDiag  1:
 E= -516.272592697639     Delta-E=       -0.035651546949 Rises=F Damp=F
 DIIS: error= 3.54D-03 at cycle   2 NSaved=   2.
 NSaved= 2 IEnMin= 2 EnMin= -516.272592697639     IErMin= 2 ErrMin= 3.54D-03
 ErrMax= 3.54D-03  0.00D+00 EMaxC= 1.00D-01 BMatC= 2.66D-03 BMatP= 4.15D-02
 IDIUse=3 WtCom= 9.65D-01 WtEn= 3.54D-02
 Coeff-Com:  0.107D+00 0.893D+00
 Coeff-En:   0.000D+00 0.100D+01
 Coeff:      0.103D+00 0.897D+00
 Gap=     0.367 Goal=   None    Shift=    0.000
 RMSDP=2.43D-04 MaxDP=1.88D-02 DE=-3.57D-02 OVMax= 1.15D-02

 Cycle   3  Pass 1  IDiag  1:
 E= -516.273363845919     Delta-E=       -0.000771148280 Rises=F Damp=F
 DIIS: error= 2.15D-03 at cycle   3 NSaved=   3.
 NSaved= 3 IEnMin= 3 EnMin= -516.273363845919     IErMin= 3 ErrMin= 2.15D-03
 ErrMax= 2.15D-03  0.00D+00 EMaxC= 1.00D-01 BMatC= 1.50D-03 BMatP= 2.66D-03
 IDIUse=3 WtCom= 9.79D-01 WtEn= 2.15D-02
 Coeff-Com: -0.103D-01 0.422D+00 0.588D+00
 Coeff-En:   0.000D+00 0.344D+00 0.656D+00
 Coeff:     -0.100D-01 0.421D+00 0.589D+00
 Gap=     0.371 Goal=   None    Shift=    0.000
 RMSDP=1.12D-04 MaxDP=6.99D-03 DE=-7.71D-04 OVMax= 5.32D-03

 Cycle   4  Pass 1  IDiag  1:
 E= -516.274306921416     Delta-E=       -0.000943075497 Rises=F Damp=F
 DIIS: error= 5.97D-04 at cycle   4 NSaved=   4.
 NSaved= 4 IEnMin= 4 EnMin= -516.274306921416     IErMin= 4 ErrMin= 5.97D-04
 ErrMax= 5.97D-04  0.00D+00 EMaxC= 1.00D-01 BMatC= 1.11D-04 BMatP= 1.50D-03
 IDIUse=3 WtCom= 9.94D-01 WtEn= 5.97D-03
 Coeff-Com: -0.966D-02 0.183D+00 0.315D+00 0.512D+00
 Coeff-En:   0.000D+00 0.000D+00 0.000D+00 0.100D+01
 Coeff:     -0.960D-02 0.182D+00 0.313D+00 0.515D+00
 Gap=     0.369 Goal=   None    Shift=    0.000
 RMSDP=2.94D-05 MaxDP=1.33D-03 DE=-9.43D-04 OVMax= 2.50D-03

 Cycle   5  Pass 1  IDiag  1:
 E= -516.274364838022     Delta-E=       -0.000057916605 Rises=F Damp=F
 DIIS: error= 1.88D-04 at cycle   5 NSaved=   5.
 NSaved= 5 IEnMin= 5 EnMin= -516.274364838022     IErMin= 5 ErrMin= 1.88D-04
 ErrMax= 1.88D-04  0.00D+00 EMaxC= 1.00D-01 BMatC= 1.21D-05 BMatP= 1.11D-04
 IDIUse=3 WtCom= 9.98D-01 WtEn= 1.88D-03
 Coeff-Com: -0.258D-02 0.349D-01 0.799D-01 0.281D+00 0.607D+00
 Coeff-En:   0.000D+00 0.000D+00 0.000D+00 0.792D-01 0.921D+00
 Coeff:     -0.257D-02 0.348D-01 0.797D-01 0.281D+00 0.607D+00
 Gap=     0.369 Goal=   None    Shift=    0.000
 RMSDP=1.11D-05 MaxDP=4.16D-04 DE=-5.79D-05 OVMax= 7.53D-04

 Cycle   6  Pass 1  IDiag  1:
 E= -516.274372677127     Delta-E=       -0.000007839105 Rises=F Damp=F
 DIIS: error= 2.77D-05 at cycle   6 NSaved=   6.
 NSaved= 6 IEnMin= 6 EnMin= -516.274372677127     IErMin= 6 ErrMin= 2.77D-05
 ErrMax= 2.77D-05  0.00D+00 EMaxC= 1.00D-01 BMatC= 4.03D-07 BMatP= 1.21D-05
 IDIUse=1 WtCom= 1.00D+00 WtEn= 0.00D+00
 Coeff-Com: -0.546D-03 0.211D-02 0.110D-01 0.758D-01 0.248D+00 0.664D+00
 Coeff:     -0.546D-03 0.211D-02 0.110D-01 0.758D-01 0.248D+00 0.664D+00
 Gap=     0.369 Goal=   None    Shift=    0.000
 RMSDP=2.55D-06 MaxDP=1.24D-04 DE=-7.84D-06 OVMax= 1.09D-04

 Cycle   7  Pass 1  IDiag  1:
 E= -516.274372953253     Delta-E=       -0.000000276126 Rises=F Damp=F
 DIIS: error= 2.09D-05 at cycle   7 NSaved=   7.
 NSaved= 7 IEnMin= 7 EnMin= -516.274372953253     IErMin= 7 ErrMin= 2.09D-05
 ErrMax= 2.09D-05  0.00D+00 EMaxC= 1.00D-01 BMatC= 6.05D-08 BMatP= 4.03D-07
 IDIUse=1 WtCom= 1.00D+00 WtEn= 0.00D+00
 Coeff-Com: -0.649D-04-0.121D-02 0.253D-04 0.217D-01 0.968D-01 0.359D+00
 Coeff-Com:  0.524D+00
 Coeff:     -0.649D-04-0.121D-02 0.253D-04 0.217D-01 0.968D-01 0.359D+00
 Coeff:      0.524D+00
 Gap=     0.369 Goal=   None    Shift=    0.000
 RMSDP=5.91D-07 MaxDP=2.41D-05 DE=-2.76D-07 OVMax= 3.48D-05

 Cycle   8  Pass 1  IDiag  1:
 E= -516.274372985283     Delta-E=       -0.000000032030 Rises=F Damp=F
 DIIS: error= 2.23D-06 at cycle   8 NSaved=   8.
 NSaved= 8 IEnMin= 8 EnMin= -516.274372985283     IErMin= 8 ErrMin= 2.23D-06
 ErrMax= 2.23D-06  0.00D+00 EMaxC= 1.00D-01 BMatC= 1.98D-09 BMatP= 6.05D-08
 IDIUse=1 WtCom= 1.00D+00 WtEn= 0.00D+00
 Coeff-Com:  0.126D-05-0.613D-03-0.941D-03 0.216D-02 0.169D-01 0.825D-01
 Coeff-Com:  0.208D+00 0.692D+00
 Coeff:      0.126D-05-0.613D-03-0.941D-03 0.216D-02 0.169D-01 0.825D-01
 Coeff:      0.208D+00 0.692D+00
 Gap=     0.369 Goal=   None    Shift=    0.000
 RMSDP=2.12D-07 MaxDP=1.07D-05 DE=-3.20D-08 OVMax= 7.53D-06

 Cycle   9  Pass 1  IDiag  1:
 E= -516.274372986524     Delta-E=       -0.000000001242 Rises=F Damp=F
 DIIS: error= 9.53D-07 at cycle   9 NSaved=   9.
 NSaved= 9 IEnMin= 9 EnMin= -516.274372986524     IErMin= 9 ErrMin= 9.53D-07
 ErrMax= 9.53D-07  0.00D+00 EMaxC= 1.00D-01 BMatC= 1.61D-10 BMatP= 1.98D-09
 IDIUse=1 WtCom= 1.00D+00 WtEn= 0.00D+00
 Coeff-Com:  0.569D-05-0.187D-03-0.422D-03-0.355D-03 0.154D-02 0.146D-01
 Coeff-Com:  0.599D-01 0.308D+00 0.617D+00
 Coeff:      0.569D-05-0.187D-03-0.422D-03-0.355D-03 0.154D-02 0.146D-01
 Coeff:      0.599D-01 0.308D+00 0.617D+00
 Gap=     0.369 Goal=   None    Shift=    0.000
 RMSDP=4.75D-08 MaxDP=2.86D-06 DE=-1.24D-09 OVMax= 2.66D-06

 Cycle  10  Pass 1  IDiag  1:
 E= -516.274372986665     Delta-E=       -0.000000000141 Rises=F Damp=F
 DIIS: error= 1.80D-07 at cycle  10 NSaved=  10.
 NSaved=10 IEnMin=10 EnMin= -516.274372986665     IErMin=10 ErrMin= 1.80D-07
 ErrMax= 1.80D-07  0.00D+00 EMaxC= 1.00D-01 BMatC= 8.29D-12 BMatP= 1.61D-10
 IDIUse=1 WtCom= 1.00D+00 WtEn= 0.00D+00
 Coeff-Com:  0.173D-05-0.710D-05-0.613D-04-0.390D-03-0.117D-02-0.298D-02
 Coeff-Com:  0.375D-02 0.537D-01 0.223D+00 0.724D+00
 Coeff:      0.173D-05-0.710D-05-0.613D-04-0.390D-03-0.117D-02-0.298D-02
 Coeff:      0.375D-02 0.537D-01 0.223D+00 0.724D+00
 Gap=     0.369 Goal=   None    Shift=    0.000
 RMSDP=1.30D-08 MaxDP=4.55D-07 DE=-1.41D-10 OVMax= 6.15D-07

 Cycle  11  Pass 1  IDiag  1:
 E= -516.274372986667     Delta-E=       -0.000000000001 Rises=F Damp=F
 DIIS: error= 4.87D-08 at cycle  11 NSaved=  11.
 NSaved=11 IEnMin=11 EnMin= -516.274372986667     IErMin=11 ErrMin= 4.87D-08
 ErrMax= 4.87D-08  0.00D+00 EMaxC= 1.00D-01 BMatC= 5.24D-13 BMatP= 8.29D-12
 IDIUse=1 WtCom= 1.00D+00 WtEn= 0.00D+00
 Coeff-Com:  0.565D-06 0.269D-05-0.849D-05-0.130D-03-0.488D-03-0.160D-02
 Coeff-Com: -0.576D-03 0.988D-02 0.632D-01 0.285D+00 0.644D+00
 Coeff:      0.565D-06 0.269D-05-0.849D-05-0.130D-03-0.488D-03-0.160D-02
 Coeff:     -0.576D-03 0.988D-02 0.632D-01 0.285D+00 0.644D+00
 Gap=     0.369 Goal=   None    Shift=    0.000
 RMSDP=2.56D-09 MaxDP=1.05D-07 DE=-1.36D-12 OVMax= 1.46D-07

 SCF Done:  E(RB3LYP) =  -516.274372987     A.U. after   11 cycles
            NFock= 11  Conv=0.26D-08     -V/T= 2.0026
 KE= 5.149459502230D+02 PE=-1.913073291917D+03 EE= 5.375252666799D+02
 Leave Link  502 at Thu Jun 13 12:26:08 2024, MaxMem=  1073741824 cpu:       104.9
 (Enter /apps/z_install_tree/linux-rocky8-ivybridge/gcc-12.2.0/gaussian-09-D.01-wczn3gur5lpur3omlkzwa2l5ecyxp5ef/g09/l508.exe)
 QCSCF skips out because SCF is already converged.
 Leave Link  508 at Thu Jun 13 12:26:08 2024, MaxMem=  1073741824 cpu:         0.0
 (Enter /apps/z_install_tree/linux-rocky8-ivybridge/gcc-12.2.0/gaussian-09-D.01-wczn3gur5lpur3omlkzwa2l5ecyxp5ef/g09/l701.exe)
 Compute integral first derivatives.
 ... and contract with generalized density number  0.
 R6Disp: Adding Grimme-D3 dispersion energy 1st derivatives to the gradient.
 Leave Link  701 at Thu Jun 13 12:26:09 2024, MaxMem=  1073741824 cpu:         3.3
 (Enter /apps/z_install_tree/linux-rocky8-ivybridge/gcc-12.2.0/gaussian-09-D.01-wczn3gur5lpur3omlkzwa2l5ecyxp5ef/g09/l702.exe)
 L702 exits ... SP integral derivatives will be done elsewhere.
 Leave Link  702 at Thu Jun 13 12:26:09 2024, MaxMem=  1073741824 cpu:         0.2
 (Enter /apps/z_install_tree/linux-rocky8-ivybridge/gcc-12.2.0/gaussian-09-D.01-wczn3gur5lpur3omlkzwa2l5ecyxp5ef/g09/l703.exe)
 Compute integral first derivatives, UseDBF=F ICtDFT=           0.
 Integral derivatives from FoFJK, PRISM(SPDF).
 Calling FoFJK, ICntrl=      2127 FMM=F ISym2X=0 I1Cent= 0 IOpClX= 0 NMat=1 NMatS=1 NMatT=0.
 FoFJK:  IHMeth= 1 ICntrl=    2127 DoSepK=F KAlg= 0 I1Cent=   0 FoldK=F
 IRaf=         0 NMat=   1 IRICut=       1 DoRegI=T DoRafI=F ISym2E= 0.
 FoFCou: FMM=F IPFlag=           0 FMFlag=      100000 FMFlg1=         800
         NFxFlg=           0 DoJE=F BraDBF=F KetDBF=F FulRan=T
         wScrn=  0.000000 ICntrl=    2127 IOpCl=  0 I1Cent=           0 NGrid=           0
         NMat0=    1 NMatS0=      1 NMatT0=    0 NMatD0=    1 NMtDS0=    0 NMtDT0=    0
 Symmetry not used in FoFCou.
 Leave Link  703 at Thu Jun 13 12:26:10 2024, MaxMem=  1073741824 cpu:        32.0
 (Enter /apps/z_install_tree/linux-rocky8-ivybridge/gcc-12.2.0/gaussian-09-D.01-wczn3gur5lpur3omlkzwa2l5ecyxp5ef/g09/l716.exe)
 Dipole        = 2.92336855D-02-2.25741848D-02-7.14292194D-02
 -------------------------------------------------------------------
 Center     Atomic                   Forces (Hartrees/Bohr)
 Number     Number              X              Y              Z
 -------------------------------------------------------------------
      1        6           0.015209468    0.015259484   -0.036545558
      2        6          -0.015150546    0.023071680    0.056721774
      3        6          -0.005708485   -0.027749993   -0.067245745
      4        9          -0.007746051   -0.019326468   -0.003724237
      5        9          -0.029155924    0.013935012    0.000591890
      6        9           0.037848606   -0.015099884    0.010192968
      7        9           0.002215159    0.008249437    0.023049013
      8        1           0.000007160   -0.005720267   -0.004501551
      9        1          -0.000200885   -0.001926820   -0.002092211
     10        1           0.003242367   -0.001687420    0.013820086
     11        1          -0.000560868    0.010995239    0.009733570
 -------------------------------------------------------------------
 Cartesian Forces:  Max     0.067245745 RMS     0.021634459
 Leave Link  716 at Thu Jun 13 12:26:10 2024, MaxMem=  1073741824 cpu:         0.3
 (Enter /apps/z_install_tree/linux-rocky8-ivybridge/gcc-12.2.0/gaussian-09-D.01-wczn3gur5lpur3omlkzwa2l5ecyxp5ef/g09/l103.exe)

 GradGradGradGradGradGradGradGradGradGradGradGradGradGradGradGradGradGrad
 Berny optimization.
 Using GEDIIS/GDIIS optimizer.
 FormGI is forming the generalized inverse of G from B-inverse, IUseBI=4.
 Internal  Forces:  Max     0.063313020 RMS     0.014304089
 Search for a local minimum.
 Step number   4 out of a maximum of   56
 All quantities printed in internal units (Hartrees-Bohrs-Radians)
 RMS Force = .14304D-01 SwitMx=.10000D-02 MixMth= 1
 Mixed Optimization -- RFO/linear search
 Update second derivatives using D2CorX and points    3    4
 ITU=  0  0  1  0
 Use linear search instead of GDIIS.
     Eigenvalues ---    0.00230   0.00524   0.04097   0.04205   0.05174
     Eigenvalues ---    0.06204   0.07497   0.07704   0.08178   0.11483
     Eigenvalues ---    0.11727   0.13098   0.15977   0.16000   0.17197
     Eigenvalues ---    0.21821   0.22029   0.24039   0.24997   0.25000
     Eigenvalues ---    0.27197   0.27728   0.33910   0.33981   0.34078
     Eigenvalues ---    0.34078   0.37396
 RFO step:  Lambda=-3.81614914D-02 EMin= 2.30004522D-03
 Quartic linear search produced a step of -0.06766.
 Iteration  1 RMS(Cart)=  0.06528023 RMS(Int)=  0.00272809
 Iteration  2 RMS(Cart)=  0.00230030 RMS(Int)=  0.00113623
 Iteration  3 RMS(Cart)=  0.00000789 RMS(Int)=  0.00113621
 Iteration  4 RMS(Cart)=  0.00000001 RMS(Int)=  0.00113621
 ITry= 1 IFail=0 DXMaxC= 1.67D-01 DCOld= 1.00D+10 DXMaxT= 5.05D-01 DXLimC= 3.00D+00 Rises=F
 Variable       Old X    -DE/DX   Delta X   Delta X   Delta X     New X
                                 (Linear)    (Quad)   (Total)
    R1        2.68527   0.06331   0.00527   0.15982   0.16509   2.85036
    R2        2.86011   0.00368   0.00216   0.00456   0.00672   2.86683
    R3        2.06146  -0.00152   0.00030  -0.00463  -0.00433   2.05713
    R4        2.04368   0.00223   0.00088   0.00337   0.00425   2.04793
    R5        2.64806  -0.02112   0.02354  -0.21435  -0.19081   2.45725
    R6        2.51631   0.02565   0.02159   0.03636   0.05794   2.57425
    R7        2.48465   0.03516   0.02098   0.07451   0.09549   2.58014
    R8        2.82163  -0.02451   0.02002  -0.22189  -0.20187   2.61976
    R9        2.02825   0.00805   0.00126   0.01697   0.01823   2.04648
   R10        2.01929   0.00976   0.00150   0.02065   0.02216   2.04145
    A1        1.88078   0.02044   0.00381   0.07143   0.07453   1.95531
    A2        1.84683  -0.00152   0.00018   0.01946   0.01792   1.86475
    A3        1.92385  -0.00665   0.00102  -0.03216  -0.03019   1.89367
    A4        1.89579  -0.00410  -0.00444   0.01104   0.00428   1.90007
    A5        1.95889  -0.00821  -0.00234  -0.03616  -0.03787   1.92102
    A6        1.95292   0.00124   0.00184  -0.02626  -0.02445   1.92847
    A7        1.95387  -0.00031   0.00076  -0.03044  -0.03100   1.92288
    A8        1.95546  -0.00438  -0.00174   0.00847   0.00616   1.96163
    A9        2.00637  -0.01256  -0.00124  -0.02523  -0.02782   1.97855
   A10        1.88496  -0.00340   0.00137  -0.03699  -0.03608   1.84887
   A11        1.87922   0.00019   0.00154  -0.03208  -0.03252   1.84669
   A12        1.77203   0.02260  -0.00066   0.12649   0.12526   1.89729
   A13        1.79584   0.00833   0.00497   0.03243   0.03820   1.83404
   A14        2.05216  -0.00825  -0.00389  -0.03750  -0.04386   2.00830
   A15        2.03716  -0.00695  -0.00099  -0.03997  -0.04342   1.99374
   A16        1.76464   0.00358   0.00023   0.04537   0.04634   1.81098
   A17        1.77629   0.00277  -0.00018   0.04217   0.04282   1.81911
   A18        1.97567   0.00534   0.00131  -0.00285  -0.00557   1.97011
    D1        0.86172   0.00166  -0.00102   0.03051   0.03046   0.89218
    D2        2.98239  -0.00612   0.00003  -0.03335  -0.03276   2.94963
    D3       -1.28967   0.01155  -0.00275   0.11884   0.11628  -1.17338
    D4       -1.16379  -0.00251   0.00223  -0.02553  -0.02343  -1.18722
    D5        0.95687  -0.01029   0.00329  -0.08939  -0.08665   0.87023
    D6        2.96800   0.00738   0.00051   0.06279   0.06239   3.03040
    D7        3.00476   0.00060  -0.00071   0.01211   0.01175   3.01651
    D8       -1.15776  -0.00718   0.00035  -0.05175  -0.05147  -1.20922
    D9        0.85337   0.01049  -0.00243   0.10043   0.09757   0.95094
   D10        3.07132  -0.00184   0.00045  -0.02233  -0.02228   3.04904
   D11        1.15092  -0.00791  -0.00108  -0.08163  -0.08205   1.06886
   D12       -1.28393   0.00367   0.00291   0.03120   0.03258  -1.25135
   D13       -1.21871   0.00481   0.00021   0.04263   0.04305  -1.17566
   D14       -3.13911  -0.00126  -0.00132  -0.01667  -0.01673   3.12735
   D15        0.70923   0.01031   0.00267   0.09615   0.09791   0.80714
   D16        0.94992  -0.00221  -0.00190  -0.00780  -0.00945   0.94047
   D17       -0.97048  -0.00828  -0.00344  -0.06710  -0.06922  -1.03970
   D18        2.87786   0.00330   0.00056   0.04573   0.04541   2.92327
         Item               Value     Threshold  Converged?
 Maximum Force            0.063313     0.000450     NO 
 RMS     Force            0.014304     0.000300     NO 
 Maximum Displacement     0.166950     0.001800     NO 
 RMS     Displacement     0.064981     0.001200     NO 
 Predicted change in Energy=-2.314927D-02
 Lowest energy point so far.  Saving SCF results.
 GradGradGradGradGradGradGradGradGradGradGradGradGradGradGradGradGradGrad

 Leave Link  103 at Thu Jun 13 12:26:11 2024, MaxMem=  1073741824 cpu:         2.0
 (Enter /apps/z_install_tree/linux-rocky8-ivybridge/gcc-12.2.0/gaussian-09-D.01-wczn3gur5lpur3omlkzwa2l5ecyxp5ef/g09/l202.exe)
                          Input orientation:                          
 ---------------------------------------------------------------------
 Center     Atomic      Atomic             Coordinates (Angstroms)
 Number     Number       Type             X           Y           Z
 ---------------------------------------------------------------------
      1          6           0       50.141280   35.342894   31.914875
      2          6           0       50.063654   35.612142   33.396964
      3          6           0       51.501194   35.696178   31.342772
      4          9           0       50.461985   36.822920   33.654230
      5          9           0       48.790320   35.528164   33.873673
      6          9           0       50.864017   34.791732   34.138943
      7          9           0       51.454615   35.282967   30.020287
      8          1           0       49.386729   35.968119   31.440774
      9          1           0       49.927067   34.294358   31.744195
     10          1           0       52.332213   35.139267   31.757554
     11          1           0       51.694925   36.757258   31.282734
 ---------------------------------------------------------------------
                    Distance matrix (angstroms):
                    1          2          3          4          5
     1  C    0.000000
     2  C    1.508346   0.000000
     3  C    1.517063   2.508643   0.000000
     4  F    2.306227   1.300323   2.773507   0.000000
     5  F    2.386694   1.362234   3.712482   2.125797   0.000000
     6  F    2.402625   1.365352   3.007090   2.126570   2.216511
     7  F    2.306058   3.666753   1.386319   4.069682   4.691180
     8  H    1.088588   2.100387   2.134132   2.605042   2.543277
     9  H    1.083718   2.118219   2.145721   3.213720   2.710931
    10  H    2.205992   2.838598   1.082953   3.151162   4.144177
    11  H    2.194047   2.905564   1.080290   2.673657   4.081711
                    6          7          8          9         10
     6  F    0.000000
     7  F    4.189683   0.000000
     8  H    3.293384   2.600648   0.000000
     9  H    2.619174   2.506514   1.784798   0.000000
    10  H    2.819112   1.951646   3.076235   2.549270   0.000000
    11  H    3.565337   1.955775   2.444480   3.066618   1.802633
                   11
    11  H    0.000000
 Symmetry turned off by external request.
 Stoichiometry    C3H4F4
 Framework group  C1[X(C3H4F4)]
 Deg. of freedom    27
 Full point group                 C1      NOp   1
 Rotational constants (GHZ):      5.0930924      1.4388274      1.4103701
 Leave Link  202 at Thu Jun 13 12:26:11 2024, MaxMem=  1073741824 cpu:         0.8
 (Enter /apps/z_install_tree/linux-rocky8-ivybridge/gcc-12.2.0/gaussian-09-D.01-wczn3gur5lpur3omlkzwa2l5ecyxp5ef/g09/l301.exe)
 Basis read from rwf:  (5D, 7F)
 No pseudopotential information found on rwf file.
   225 basis functions,   338 primitive gaussians,   239 cartesian basis functions
    29 alpha electrons       29 beta electrons
       nuclear repulsion energy       342.3747268225 Hartrees.
 IExCor=  402 DFT=T Ex+Corr=B3LYP ExCW=0 ScaHFX=  0.200000
 ScaDFX=  0.800000  0.720000  1.000000  0.810000 ScalE2=  1.000000  1.000000
 IRadAn=      5 IRanWt=     -1 IRanGd=            0 ICorTp=0 IEmpDi=131
 NAtoms=   11 NActive=   11 NUniq=   11 SFac= 1.00D+00 NAtFMM=   60 NAOKFM=F Big=F
 Integral buffers will be    131072 words long.
 Raffenetti 2 integral format.
 Two-electron integral symmetry is turned off.
 R6Disp:  Grimme-D3 Dispersion energy=       -0.0070914074 Hartrees.
 Nuclear repulsion after empirical dispersion term =      342.3676354151 Hartrees.
 No density basis found on file   724.
 Leave Link  301 at Thu Jun 13 12:26:11 2024, MaxMem=  1073741824 cpu:         1.1
 (Enter /apps/z_install_tree/linux-rocky8-ivybridge/gcc-12.2.0/gaussian-09-D.01-wczn3gur5lpur3omlkzwa2l5ecyxp5ef/g09/l302.exe)
 NPDir=0 NMtPBC=     1 NCelOv=     1 NCel=       1 NClECP=     1 NCelD=      1
         NCelK=      1 NCelE2=     1 NClLst=     1 CellRange=     0.0.
 One-electron integrals computed using PRISM.
 NBasis=   225 RedAO= T EigKep=  6.57D-05  NBF=   225
 NBsUse=   225 1.00D-06 EigRej= -1.00D+00 NBFU=   225
 Precomputing XC quadrature grid using
 IXCGrd= 4 IRadAn=           5 IRanWt=          -1 IRanGd=           0 AccXCQ= 0.00D+00.
 Generated NRdTot=       0 NPtTot=           0 NUsed=           0 NTot=          32
 NSgBfM=   239   239   239   239   239 MxSgAt=    11 MxSgA2=    11.
 Leave Link  302 at Thu Jun 13 12:26:11 2024, MaxMem=  1073741824 cpu:         3.7
 (Enter /apps/z_install_tree/linux-rocky8-ivybridge/gcc-12.2.0/gaussian-09-D.01-wczn3gur5lpur3omlkzwa2l5ecyxp5ef/g09/l303.exe)
 DipDrv:  MaxL=1.
 Leave Link  303 at Thu Jun 13 12:26:11 2024, MaxMem=  1073741824 cpu:         1.7
 (Enter /apps/z_install_tree/linux-rocky8-ivybridge/gcc-12.2.0/gaussian-09-D.01-wczn3gur5lpur3omlkzwa2l5ecyxp5ef/g09/l401.exe)
 Initial guess from the checkpoint file:  "tetrafluoropropane.chk"
 B after Tr=     0.502902   -0.785510    0.104861
         Rot=    0.999993    0.000518    0.000009   -0.003788 Ang=   0.44 deg.
 Guess basis will be translated and rotated to current coordinates.
 JPrj=2 DoOrth=T DoCkMO=T.
 Generating alternative initial guess.
 ExpMin= 4.38D-02 ExpMax= 1.14D+04 ExpMxC= 1.72D+03 IAcc=2 IRadAn=         4 AccDes= 0.00D+00
 Harris functional with IExCor=  402 and IRadAn=       4 diagonalized for initial guess.
 HarFok:  IExCor=  402 AccDes= 0.00D+00 IRadAn=         4 IDoV= 1 UseB2=F ITyADJ=14
 ICtDFT=  3500011 ScaDFX=  1.000000  1.000000  1.000000  1.000000
 FoFCou: FMM=F IPFlag=           0 FMFlag=      100000 FMFlg1=           0
         NFxFlg=           0 DoJE=T BraDBF=F KetDBF=T FulRan=T
         wScrn=  0.000000 ICntrl=     500 IOpCl=  0 I1Cent=   200000004 NGrid=           0
         NMat0=    1 NMatS0=      1 NMatT0=    0 NMatD0=    1 NMtDS0=    0 NMtDT0=    0
 Symmetry not used in FoFCou.
 Harris En= -516.267475265614    
 Leave Link  401 at Thu Jun 13 12:26:12 2024, MaxMem=  1073741824 cpu:         7.2
 (Enter /apps/z_install_tree/linux-rocky8-ivybridge/gcc-12.2.0/gaussian-09-D.01-wczn3gur5lpur3omlkzwa2l5ecyxp5ef/g09/l502.exe)
 Closed shell SCF:
 Using DIIS extrapolation, IDIIS=  1040.
 Two-electron integral symmetry not used.
 Keep R1 ints in memory in canonical form, NReq=330328726.
 IVT=      188821 IEndB=      188821 NGot=  1073741824 MDV=   750324979
 LenX=   750324979 LenY=   750267417
 Requested convergence on RMS density matrix=1.00D-08 within  96 cycles.
 Requested convergence on MAX density matrix=1.00D-06.
 Requested convergence on             energy=1.00D-06.
 No special actions if energy rises.
 FoFCou: FMM=F IPFlag=           0 FMFlag=           0 FMFlg1=           0
         NFxFlg=           0 DoJE=F BraDBF=F KetDBF=F FulRan=T
         wScrn=  0.000000 ICntrl=     600 IOpCl=  0 I1Cent=           0 NGrid=           0
         NMat0=    1 NMatS0=  25425 NMatT0=    0 NMatD0=    1 NMtDS0=    0 NMtDT0=    0
 Symmetry not used in FoFCou.

 Cycle   1  Pass 1  IDiag  1:
 E= -516.268722061971    
 DIIS: error= 4.35D-03 at cycle   1 NSaved=   1.
 NSaved= 1 IEnMin= 1 EnMin= -516.268722061971     IErMin= 1 ErrMin= 4.35D-03
 ErrMax= 4.35D-03  0.00D+00 EMaxC= 1.00D-01 BMatC= 1.87D-02 BMatP= 1.87D-02
 IDIUse=3 WtCom= 9.57D-01 WtEn= 4.35D-02
 Coeff-Com:  0.100D+01
 Coeff-En:   0.100D+01
 Coeff:      0.100D+01
 Gap=     0.644 Goal=   None    Shift=    0.000
 GapD=    0.644 DampG=2.000 DampE=1.000 DampFc=2.0000 IDamp=-1.
 RMSDP=1.11D-03 MaxDP=5.47D-02              OVMax= 3.09D-02

 Cycle   2  Pass 1  IDiag  1:
 E= -516.286578660930     Delta-E=       -0.017856598959 Rises=F Damp=F
 DIIS: error= 1.46D-03 at cycle   2 NSaved=   2.
 NSaved= 2 IEnMin= 2 EnMin= -516.286578660930     IErMin= 2 ErrMin= 1.46D-03
 ErrMax= 1.46D-03  0.00D+00 EMaxC= 1.00D-01 BMatC= 1.15D-03 BMatP= 1.87D-02
 IDIUse=3 WtCom= 9.85D-01 WtEn= 1.46D-02
 Coeff-Com:  0.787D-01 0.921D+00
 Coeff-En:   0.000D+00 0.100D+01
 Coeff:      0.775D-01 0.922D+00
 Gap=     0.364 Goal=   None    Shift=    0.000
 RMSDP=1.60D-04 MaxDP=6.00D-03 DE=-1.79D-02 OVMax= 7.96D-03

 Cycle   3  Pass 1  IDiag  1:
 E= -516.286428591444     Delta-E=        0.000150069486 Rises=F Damp=F
 DIIS: error= 1.60D-03 at cycle   3 NSaved=   3.
 NSaved= 3 IEnMin= 2 EnMin= -516.286578660930     IErMin= 2 ErrMin= 1.46D-03
 ErrMax= 1.60D-03  0.00D+00 EMaxC= 1.00D-01 BMatC= 1.43D-03 BMatP= 1.15D-03
 IDIUse=3 WtCom= 2.00D-01 WtEn= 8.00D-01
 Coeff-Com: -0.925D-02 0.531D+00 0.478D+00
 Coeff-En:   0.000D+00 0.547D+00 0.453D+00
 Coeff:     -0.185D-02 0.544D+00 0.458D+00
 Gap=     0.368 Goal=   None    Shift=    0.000
 RMSDP=9.01D-05 MaxDP=3.14D-03 DE= 1.50D-04 OVMax= 5.14D-03

 Cycle   4  Pass 1  IDiag  1:
 E= -516.287262881325     Delta-E=       -0.000834289881 Rises=F Damp=F
 DIIS: error= 2.83D-04 at cycle   4 NSaved=   4.
 NSaved= 4 IEnMin= 4 EnMin= -516.287262881325     IErMin= 4 ErrMin= 2.83D-04
 ErrMax= 2.83D-04  0.00D+00 EMaxC= 1.00D-01 BMatC= 2.89D-05 BMatP= 1.15D-03
 IDIUse=3 WtCom= 9.97D-01 WtEn= 2.83D-03
 Coeff-Com: -0.864D-02 0.137D+00 0.184D+00 0.688D+00
 Coeff-En:   0.000D+00 0.000D+00 0.000D+00 0.100D+01
 Coeff:     -0.861D-02 0.137D+00 0.183D+00 0.689D+00
 Gap=     0.368 Goal=   None    Shift=    0.000
 RMSDP=1.60D-05 MaxDP=4.23D-04 DE=-8.34D-04 OVMax= 9.42D-04

 Cycle   5  Pass 1  IDiag  1:
 E= -516.287277986522     Delta-E=       -0.000015105197 Rises=F Damp=F
 DIIS: error= 9.03D-05 at cycle   5 NSaved=   5.
 NSaved= 5 IEnMin= 5 EnMin= -516.287277986522     IErMin= 5 ErrMin= 9.03D-05
 ErrMax= 9.03D-05  0.00D+00 EMaxC= 1.00D-01 BMatC= 2.00D-06 BMatP= 2.89D-05
 IDIUse=1 WtCom= 1.00D+00 WtEn= 0.00D+00
 Coeff-Com: -0.335D-02 0.422D-01 0.677D-01 0.303D+00 0.590D+00
 Coeff:     -0.335D-02 0.422D-01 0.677D-01 0.303D+00 0.590D+00
 Gap=     0.368 Goal=   None    Shift=    0.000
 RMSDP=4.67D-06 MaxDP=2.45D-04 DE=-1.51D-05 OVMax= 3.01D-04

 Cycle   6  Pass 1  IDiag  1:
 E= -516.287279474055     Delta-E=       -0.000001487532 Rises=F Damp=F
 DIIS: error= 2.08D-05 at cycle   6 NSaved=   6.
 NSaved= 6 IEnMin= 6 EnMin= -516.287279474055     IErMin= 6 ErrMin= 2.08D-05
 ErrMax= 2.08D-05  0.00D+00 EMaxC= 1.00D-01 BMatC= 2.05D-07 BMatP= 2.00D-06
 IDIUse=1 WtCom= 1.00D+00 WtEn= 0.00D+00
 Coeff-Com: -0.351D-03-0.918D-04 0.523D-02 0.399D-01 0.259D+00 0.696D+00
 Coeff:     -0.351D-03-0.918D-04 0.523D-02 0.399D-01 0.259D+00 0.696D+00
 Gap=     0.368 Goal=   None    Shift=    0.000
 RMSDP=1.44D-06 MaxDP=5.14D-05 DE=-1.49D-06 OVMax= 9.93D-05

 Cycle   7  Pass 1  IDiag  1:
 E= -516.287279591972     Delta-E=       -0.000000117918 Rises=F Damp=F
 DIIS: error= 1.35D-05 at cycle   7 NSaved=   7.
 NSaved= 7 IEnMin= 7 EnMin= -516.287279591972     IErMin= 7 ErrMin= 1.35D-05
 ErrMax= 1.35D-05  0.00D+00 EMaxC= 1.00D-01 BMatC= 3.65D-08 BMatP= 2.05D-07
 IDIUse=1 WtCom= 1.00D+00 WtEn= 0.00D+00
 Coeff-Com:  0.370D-04-0.292D-02-0.200D-02 0.178D-02 0.107D+00 0.399D+00
 Coeff-Com:  0.497D+00
 Coeff:      0.370D-04-0.292D-02-0.200D-02 0.178D-02 0.107D+00 0.399D+00
 Coeff:      0.497D+00
 Gap=     0.368 Goal=   None    Shift=    0.000
 RMSDP=4.65D-07 MaxDP=1.82D-05 DE=-1.18D-07 OVMax= 2.39D-05

 Cycle   8  Pass 1  IDiag  1:
 E= -516.287279613534     Delta-E=       -0.000000021562 Rises=F Damp=F
 DIIS: error= 1.30D-06 at cycle   8 NSaved=   8.
 NSaved= 8 IEnMin= 8 EnMin= -516.287279613534     IErMin= 8 ErrMin= 1.30D-06
 ErrMax= 1.30D-06  0.00D+00 EMaxC= 1.00D-01 BMatC= 5.62D-10 BMatP= 3.65D-08
 IDIUse=1 WtCom= 1.00D+00 WtEn= 0.00D+00
 Coeff-Com:  0.268D-04-0.929D-03-0.103D-02-0.898D-03 0.237D-01 0.104D+00
 Coeff-Com:  0.163D+00 0.712D+00
 Coeff:      0.268D-04-0.929D-03-0.103D-02-0.898D-03 0.237D-01 0.104D+00
 Coeff:      0.163D+00 0.712D+00
 Gap=     0.368 Goal=   None    Shift=    0.000
 RMSDP=9.45D-08 MaxDP=3.75D-06 DE=-2.16D-08 OVMax= 4.33D-06

 Cycle   9  Pass 1  IDiag  1:
 E= -516.287279613904     Delta-E=       -0.000000000370 Rises=F Damp=F
 DIIS: error= 7.83D-07 at cycle   9 NSaved=   9.
 NSaved= 9 IEnMin= 9 EnMin= -516.287279613904     IErMin= 9 ErrMin= 7.83D-07
 ErrMax= 7.83D-07  0.00D+00 EMaxC= 1.00D-01 BMatC= 1.02D-10 BMatP= 5.62D-10
 IDIUse=1 WtCom= 1.00D+00 WtEn= 0.00D+00
 Coeff-Com:  0.113D-04-0.276D-03-0.406D-03-0.674D-03 0.409D-02 0.231D-01
 Coeff-Com:  0.464D-01 0.355D+00 0.573D+00
 Coeff:      0.113D-04-0.276D-03-0.406D-03-0.674D-03 0.409D-02 0.231D-01
 Coeff:      0.464D-01 0.355D+00 0.573D+00
 Gap=     0.368 Goal=   None    Shift=    0.000
 RMSDP=2.64D-08 MaxDP=1.44D-06 DE=-3.70D-10 OVMax= 1.68D-06

 Cycle  10  Pass 1  IDiag  1:
 E= -516.287279613944     Delta-E=       -0.000000000040 Rises=F Damp=F
 DIIS: error= 2.22D-07 at cycle  10 NSaved=  10.
 NSaved=10 IEnMin=10 EnMin= -516.287279613944     IErMin=10 ErrMin= 2.22D-07
 ErrMax= 2.22D-07  0.00D+00 EMaxC= 1.00D-01 BMatC= 8.66D-12 BMatP= 1.02D-10
 IDIUse=1 WtCom= 1.00D+00 WtEn= 0.00D+00
 Coeff-Com:  0.280D-05-0.470D-04-0.982D-04-0.290D-03-0.340D-03 0.830D-03
 Coeff-Com:  0.681D-02 0.992D-01 0.274D+00 0.620D+00
 Coeff:      0.280D-05-0.470D-04-0.982D-04-0.290D-03-0.340D-03 0.830D-03
 Coeff:      0.681D-02 0.992D-01 0.274D+00 0.620D+00
 Gap=     0.368 Goal=   None    Shift=    0.000
 RMSDP=8.84D-09 MaxDP=3.45D-07 DE=-3.96D-11 OVMax= 5.38D-07

 SCF Done:  E(RB3LYP) =  -516.287279614     A.U. after   10 cycles
            NFock= 10  Conv=0.88D-08     -V/T= 2.0027
 KE= 5.148957308296D+02 PE=-1.909045204166D+03 EE= 5.354945583073D+02
 Leave Link  502 at Thu Jun 13 12:26:21 2024, MaxMem=  1073741824 cpu:        96.3
 (Enter /apps/z_install_tree/linux-rocky8-ivybridge/gcc-12.2.0/gaussian-09-D.01-wczn3gur5lpur3omlkzwa2l5ecyxp5ef/g09/l508.exe)
 QCSCF skips out because SCF is already converged.
 Leave Link  508 at Thu Jun 13 12:26:21 2024, MaxMem=  1073741824 cpu:         0.0
 (Enter /apps/z_install_tree/linux-rocky8-ivybridge/gcc-12.2.0/gaussian-09-D.01-wczn3gur5lpur3omlkzwa2l5ecyxp5ef/g09/l701.exe)
 Compute integral first derivatives.
 ... and contract with generalized density number  0.
 R6Disp: Adding Grimme-D3 dispersion energy 1st derivatives to the gradient.
 Leave Link  701 at Thu Jun 13 12:26:21 2024, MaxMem=  1073741824 cpu:         1.9
 (Enter /apps/z_install_tree/linux-rocky8-ivybridge/gcc-12.2.0/gaussian-09-D.01-wczn3gur5lpur3omlkzwa2l5ecyxp5ef/g09/l702.exe)
 L702 exits ... SP integral derivatives will be done elsewhere.
 Leave Link  702 at Thu Jun 13 12:26:21 2024, MaxMem=  1073741824 cpu:         0.2
 (Enter /apps/z_install_tree/linux-rocky8-ivybridge/gcc-12.2.0/gaussian-09-D.01-wczn3gur5lpur3omlkzwa2l5ecyxp5ef/g09/l703.exe)
 Compute integral first derivatives, UseDBF=F ICtDFT=           0.
 Integral derivatives from FoFJK, PRISM(SPDF).
 Calling FoFJK, ICntrl=      2127 FMM=F ISym2X=0 I1Cent= 0 IOpClX= 0 NMat=1 NMatS=1 NMatT=0.
 FoFJK:  IHMeth= 1 ICntrl=    2127 DoSepK=F KAlg= 0 I1Cent=   0 FoldK=F
 IRaf=         0 NMat=   1 IRICut=       1 DoRegI=T DoRafI=F ISym2E= 0.
 FoFCou: FMM=F IPFlag=           0 FMFlag=      100000 FMFlg1=         800
         NFxFlg=           0 DoJE=F BraDBF=F KetDBF=F FulRan=T
         wScrn=  0.000000 ICntrl=    2127 IOpCl=  0 I1Cent=           0 NGrid=           0
         NMat0=    1 NMatS0=      1 NMatT0=    0 NMatD0=    1 NMtDS0=    0 NMtDT0=    0
 Symmetry not used in FoFCou.
 Leave Link  703 at Thu Jun 13 12:26:23 2024, MaxMem=  1073741824 cpu:        31.9
 (Enter /apps/z_install_tree/linux-rocky8-ivybridge/gcc-12.2.0/gaussian-09-D.01-wczn3gur5lpur3omlkzwa2l5ecyxp5ef/g09/l716.exe)
 Dipole        = 8.22487197D-02 1.09876092D-01-2.26792503D-01
 -------------------------------------------------------------------
 Center     Atomic                   Forces (Hartrees/Bohr)
 Number     Number              X              Y              Z
 -------------------------------------------------------------------
      1        6           0.000875314    0.000577927    0.011172641
      2        6          -0.009121523   -0.020607768   -0.001228299
      3        6          -0.001204305   -0.007576607   -0.011049078
      4        9           0.013712574    0.042420198    0.009796874
      5        9           0.005682684   -0.009631392   -0.002223698
      6        9          -0.008778624   -0.003413385   -0.005606943
      7        9          -0.000966709   -0.005382448   -0.020392641
      8        1          -0.001360862   -0.002842839   -0.000613234
      9        1          -0.001225279   -0.001803601   -0.002540779
     10        1           0.001017170    0.002802408    0.012024753
     11        1           0.001369561    0.005457508    0.010660405
 -------------------------------------------------------------------
 Cartesian Forces:  Max     0.042420198 RMS     0.010893381
 Leave Link  716 at Thu Jun 13 12:26:23 2024, MaxMem=  1073741824 cpu:         0.4
 (Enter /apps/z_install_tree/linux-rocky8-ivybridge/gcc-12.2.0/gaussian-09-D.01-wczn3gur5lpur3omlkzwa2l5ecyxp5ef/g09/l103.exe)

 GradGradGradGradGradGradGradGradGradGradGradGradGradGradGradGradGradGrad
 Berny optimization.
 Using GEDIIS/GDIIS optimizer.
 FormGI is forming the generalized inverse of G from B-inverse, IUseBI=4.
 Internal  Forces:  Max     0.045637830 RMS     0.008549891
 Search for a local minimum.
 Step number   5 out of a maximum of   56
 All quantities printed in internal units (Hartrees-Bohrs-Radians)
 RMS Force = .85499D-02 SwitMx=.10000D-02 MixMth= 1
 Mixed Optimization -- RFO/linear search
 Update second derivatives using D2CorX and points    4    5
 DE= -1.29D-02 DEPred=-2.31D-02 R= 5.58D-01
 TightC=F SS=  1.41D+00  RLast= 4.72D-01 DXNew= 8.4853D-01 1.4150D+00
 Trust test= 5.58D-01 RLast= 4.72D-01 DXMaxT set to 8.49D-01
 ITU=  1  0  0  1  0
 Use linear search instead of GDIIS.
     Eigenvalues ---    0.00230   0.00525   0.03728   0.04473   0.04946
     Eigenvalues ---    0.06071   0.08182   0.08562   0.08718   0.11870
     Eigenvalues ---    0.12048   0.15476   0.15990   0.17117   0.20594
     Eigenvalues ---    0.22128   0.23556   0.24581   0.24994   0.25046
     Eigenvalues ---    0.27254   0.28552   0.33381   0.33958   0.34076
     Eigenvalues ---    0.34079   0.35868
 RFO step:  Lambda=-1.19952690D-02 EMin= 2.29971547D-03
 Quartic linear search produced a step of -0.24736.
 Iteration  1 RMS(Cart)=  0.05008548 RMS(Int)=  0.00216627
 Iteration  2 RMS(Cart)=  0.00204523 RMS(Int)=  0.00134966
 Iteration  3 RMS(Cart)=  0.00000747 RMS(Int)=  0.00134964
 Iteration  4 RMS(Cart)=  0.00000005 RMS(Int)=  0.00134964
 ITry= 1 IFail=0 DXMaxC= 1.87D-01 DCOld= 1.00D+10 DXMaxT= 8.49D-01 DXLimC= 3.00D+00 Rises=F
 Variable       Old X    -DE/DX   Delta X   Delta X   Delta X     New X
                                 (Linear)    (Quad)   (Total)
    R1        2.85036   0.00221  -0.04084   0.08895   0.04811   2.89847
    R2        2.86683   0.00240  -0.00166   0.00995   0.00829   2.87512
    R3        2.05713  -0.00042   0.00107  -0.00282  -0.00175   2.05539
    R4        2.04793   0.00239  -0.00105   0.00792   0.00687   2.05480
    R5        2.45725   0.04564   0.04720   0.11975   0.16694   2.62420
    R6        2.57425  -0.00550  -0.01433  -0.01299  -0.02732   2.54693
    R7        2.58014  -0.00614  -0.02362   0.00680  -0.01682   2.56332
    R8        2.61976   0.02109   0.04993   0.00330   0.05324   2.67300
    R9        2.04648   0.00394  -0.00451   0.01841   0.01390   2.06038
   R10        2.04145   0.00501  -0.00548   0.02286   0.01738   2.05883
    A1        1.95531   0.00076  -0.01844   0.04507   0.02650   1.98181
    A2        1.86475  -0.00034  -0.00443   0.01509   0.01042   1.87517
    A3        1.89367   0.00116   0.00747  -0.01317  -0.00570   1.88796
    A4        1.90007   0.00144  -0.00106   0.01633   0.01525   1.91532
    A5        1.92102  -0.00176   0.00937  -0.03386  -0.02451   1.89652
    A6        1.92847  -0.00125   0.00605  -0.02881  -0.02263   1.90584
    A7        1.92288   0.00647   0.00767   0.02188   0.03009   1.95296
    A8        1.96163  -0.00464  -0.00152  -0.01757  -0.01956   1.94206
    A9        1.97855  -0.00760   0.00688  -0.04304  -0.03627   1.94228
   A10        1.84887   0.00398   0.00893   0.01029   0.01939   1.86826
   A11        1.84669   0.00442   0.00804   0.00916   0.01805   1.86474
   A12        1.89729  -0.00134  -0.03098   0.02445  -0.00757   1.88972
   A13        1.83404   0.00495  -0.00945   0.05521   0.04653   1.88058
   A14        2.00830  -0.00728   0.01085  -0.06734  -0.05961   1.94869
   A15        1.99374  -0.00535   0.01074  -0.05912  -0.05163   1.94211
   A16        1.81098   0.00527  -0.01146   0.07931   0.06873   1.87970
   A17        1.81911   0.00394  -0.01059   0.06786   0.05792   1.87703
   A18        1.97011   0.00151   0.00138  -0.03286  -0.03770   1.93240
    D1        0.89218   0.00098  -0.00753   0.04610   0.03834   0.93053
    D2        2.94963   0.00730   0.00810   0.06231   0.07005   3.01968
    D3       -1.17338  -0.00415  -0.02876   0.04739   0.01908  -1.15431
    D4       -1.18722  -0.00101   0.00580  -0.00917  -0.00353  -1.19075
    D5        0.87023   0.00532   0.02143   0.00705   0.02818   0.89841
    D6        3.03040  -0.00613  -0.01543  -0.00787  -0.02279   3.00760
    D7        3.01651   0.00005  -0.00291   0.02357   0.02052   3.03703
    D8       -1.20922   0.00637   0.01273   0.03979   0.05223  -1.15700
    D9        0.95094  -0.00507  -0.02413   0.02487   0.00125   0.95220
   D10        3.04904   0.00040   0.00551  -0.00479   0.00057   3.04961
   D11        1.06886  -0.00547   0.02030  -0.10196  -0.07992   0.98894
   D12       -1.25135   0.00552  -0.00806   0.08134   0.07143  -1.17992
   D13       -1.17566   0.00136  -0.01065   0.05139   0.04079  -1.13487
   D14        3.12735  -0.00452   0.00414  -0.04578  -0.03971   3.08765
   D15        0.80714   0.00648  -0.02422   0.13753   0.11165   0.91879
   D16        0.94047  -0.00036   0.00234   0.00520   0.00745   0.94792
   D17       -1.03970  -0.00623   0.01712  -0.09197  -0.07304  -1.11274
   D18        2.92327   0.00476  -0.01123   0.09133   0.07832   3.00158
         Item               Value     Threshold  Converged?
 Maximum Force            0.045638     0.000450     NO 
 RMS     Force            0.008550     0.000300     NO 
 Maximum Displacement     0.186929     0.001800     NO 
 RMS     Displacement     0.050568     0.001200     NO 
 Predicted change in Energy=-8.166229D-03
 Lowest energy point so far.  Saving SCF results.
 GradGradGradGradGradGradGradGradGradGradGradGradGradGradGradGradGradGrad

 Leave Link  103 at Thu Jun 13 12:26:23 2024, MaxMem=  1073741824 cpu:         8.6
 (Enter /apps/z_install_tree/linux-rocky8-ivybridge/gcc-12.2.0/gaussian-09-D.01-wczn3gur5lpur3omlkzwa2l5ecyxp5ef/g09/l202.exe)
                          Input orientation:                          
 ---------------------------------------------------------------------
 Center     Atomic      Atomic             Coordinates (Angstroms)
 Number     Number       Type             X           Y           Z
 ---------------------------------------------------------------------
      1          6           0       50.141715   35.354473   31.907199
      2          6           0       50.062998   35.627716   33.414415
      3          6           0       51.500740   35.672902   31.301843
      4          9           0       50.457540   36.921839   33.727422
      5          9           0       48.805001   35.476256   33.873764
      6          9           0       50.873222   34.790856   34.109517
      7          9           0       51.476097   35.264363   29.947860
      8          1           0       49.374891   35.957429   31.426121
      9          1           0       49.925060   34.301865   31.741607
     10          1           0       52.301123   35.124344   31.799077
     11          1           0       51.699613   36.743958   31.318175
 ---------------------------------------------------------------------
                    Distance matrix (angstroms):
                    1          2          3          4          5
     1  C    0.000000
     2  C    1.533805   0.000000
     3  C    1.521447   2.555799   0.000000
     4  F    2.422724   1.388666   2.920881   0.000000
     5  F    2.380969   1.347775   3.731013   2.200458   0.000000
     6  F    2.388089   1.356453   3.009122   2.204513   2.191550
     7  F    2.372278   3.761101   1.414490   4.250856   4.753144
     8  H    1.087663   2.129674   2.148403   2.719963   2.558761
     9  H    1.087356   2.138970   2.134456   3.330355   2.679519
    10  H    2.174325   2.805692   1.090307   3.216878   4.080569
    11  H    2.169024   2.884221   1.089485   2.716406   4.064097
                    6          7          8          9         10
     6  F    0.000000
     7  F    4.231673   0.000000
     8  H    3.287324   2.660952   0.000000
     9  H    2.597138   2.559227   1.772881   0.000000
    10  H    2.736466   2.031570   3.065283   2.515044   0.000000
    11  H    3.505584   2.029020   2.456545   3.048303   1.793385
                   11
    11  H    0.000000
 Symmetry turned off by external request.
 Stoichiometry    C3H4F4
 Framework group  C1[X(C3H4F4)]
 Deg. of freedom    27
 Full point group                 C1      NOp   1
 Rotational constants (GHZ):      4.8817548      1.3835233      1.3640466
 Leave Link  202 at Thu Jun 13 12:26:24 2024, MaxMem=  1073741824 cpu:         0.7
 (Enter /apps/z_install_tree/linux-rocky8-ivybridge/gcc-12.2.0/gaussian-09-D.01-wczn3gur5lpur3omlkzwa2l5ecyxp5ef/g09/l301.exe)
 Basis read from rwf:  (5D, 7F)
 No pseudopotential information found on rwf file.
   225 basis functions,   338 primitive gaussians,   239 cartesian basis functions
    29 alpha electrons       29 beta electrons
       nuclear repulsion energy       336.7440269164 Hartrees.
 IExCor=  402 DFT=T Ex+Corr=B3LYP ExCW=0 ScaHFX=  0.200000
 ScaDFX=  0.800000  0.720000  1.000000  0.810000 ScalE2=  1.000000  1.000000
 IRadAn=      5 IRanWt=     -1 IRanGd=            0 ICorTp=0 IEmpDi=131
 NAtoms=   11 NActive=   11 NUniq=   11 SFac= 1.00D+00 NAtFMM=   60 NAOKFM=F Big=F
 Integral buffers will be    131072 words long.
 Raffenetti 2 integral format.
 Two-electron integral symmetry is turned off.
 R6Disp:  Grimme-D3 Dispersion energy=       -0.0072243674 Hartrees.
 Nuclear repulsion after empirical dispersion term =      336.7368025491 Hartrees.
 No density basis found on file   724.
 Leave Link  301 at Thu Jun 13 12:26:24 2024, MaxMem=  1073741824 cpu:         0.7
 (Enter /apps/z_install_tree/linux-rocky8-ivybridge/gcc-12.2.0/gaussian-09-D.01-wczn3gur5lpur3omlkzwa2l5ecyxp5ef/g09/l302.exe)
 NPDir=0 NMtPBC=     1 NCelOv=     1 NCel=       1 NClECP=     1 NCelD=      1
         NCelK=      1 NCelE2=     1 NClLst=     1 CellRange=     0.0.
 One-electron integrals computed using PRISM.
 NBasis=   225 RedAO= T EigKep=  6.95D-05  NBF=   225
 NBsUse=   225 1.00D-06 EigRej= -1.00D+00 NBFU=   225
 Precomputing XC quadrature grid using
 IXCGrd= 4 IRadAn=           5 IRanWt=          -1 IRanGd=           0 AccXCQ= 0.00D+00.
 Generated NRdTot=       0 NPtTot=           0 NUsed=           0 NTot=          32
 NSgBfM=   239   239   239   239   239 MxSgAt=    11 MxSgA2=    11.
 Leave Link  302 at Thu Jun 13 12:26:24 2024, MaxMem=  1073741824 cpu:         2.6
 (Enter /apps/z_install_tree/linux-rocky8-ivybridge/gcc-12.2.0/gaussian-09-D.01-wczn3gur5lpur3omlkzwa2l5ecyxp5ef/g09/l303.exe)
 DipDrv:  MaxL=1.
 Leave Link  303 at Thu Jun 13 12:26:24 2024, MaxMem=  1073741824 cpu:         1.1
 (Enter /apps/z_install_tree/linux-rocky8-ivybridge/gcc-12.2.0/gaussian-09-D.01-wczn3gur5lpur3omlkzwa2l5ecyxp5ef/g09/l401.exe)
 Initial guess from the checkpoint file:  "tetrafluoropropane.chk"
 B after Tr=     0.307963   -0.838213    0.458640
         Rot=    0.999989    0.000541   -0.002089   -0.004093 Ang=   0.53 deg.
 Guess basis will be translated and rotated to current coordinates.
 JPrj=2 DoOrth=T DoCkMO=T.
 Generating alternative initial guess.
 ExpMin= 4.38D-02 ExpMax= 1.14D+04 ExpMxC= 1.72D+03 IAcc=2 IRadAn=         4 AccDes= 0.00D+00
 Harris functional with IExCor=  402 and IRadAn=       4 diagonalized for initial guess.
 HarFok:  IExCor=  402 AccDes= 0.00D+00 IRadAn=         4 IDoV= 1 UseB2=F ITyADJ=14
 ICtDFT=  3500011 ScaDFX=  1.000000  1.000000  1.000000  1.000000
 FoFCou: FMM=F IPFlag=           0 FMFlag=      100000 FMFlg1=           0
         NFxFlg=           0 DoJE=T BraDBF=F KetDBF=T FulRan=T
         wScrn=  0.000000 ICntrl=     500 IOpCl=  0 I1Cent=   200000004 NGrid=           0
         NMat0=    1 NMatS0=      1 NMatT0=    0 NMatD0=    1 NMtDS0=    0 NMtDT0=    0
 Symmetry not used in FoFCou.
 Harris En= -516.276046208581    
 Leave Link  401 at Thu Jun 13 12:26:25 2024, MaxMem=  1073741824 cpu:         7.5
 (Enter /apps/z_install_tree/linux-rocky8-ivybridge/gcc-12.2.0/gaussian-09-D.01-wczn3gur5lpur3omlkzwa2l5ecyxp5ef/g09/l502.exe)
 Closed shell SCF:
 Using DIIS extrapolation, IDIIS=  1040.
 Two-electron integral symmetry not used.
 Keep R1 ints in memory in canonical form, NReq=330328726.
 IVT=      188821 IEndB=      188821 NGot=  1073741824 MDV=   750324979
 LenX=   750324979 LenY=   750267417
 Requested convergence on RMS density matrix=1.00D-08 within  96 cycles.
 Requested convergence on MAX density matrix=1.00D-06.
 Requested convergence on             energy=1.00D-06.
 No special actions if energy rises.
 FoFCou: FMM=F IPFlag=           0 FMFlag=           0 FMFlg1=           0
         NFxFlg=           0 DoJE=F BraDBF=F KetDBF=F FulRan=T
         wScrn=  0.000000 ICntrl=     600 IOpCl=  0 I1Cent=           0 NGrid=           0
         NMat0=    1 NMatS0=  25425 NMatT0=    0 NMatD0=    1 NMtDS0=    0 NMtDT0=    0
 Symmetry not used in FoFCou.

 Cycle   1  Pass 1  IDiag  1:
 E= -516.283596363530    
 DIIS: error= 3.32D-03 at cycle   1 NSaved=   1.
 NSaved= 1 IEnMin= 1 EnMin= -516.283596363530     IErMin= 1 ErrMin= 3.32D-03
 ErrMax= 3.32D-03  0.00D+00 EMaxC= 1.00D-01 BMatC= 8.23D-03 BMatP= 8.23D-03
 IDIUse=3 WtCom= 9.67D-01 WtEn= 3.32D-02
 Coeff-Com:  0.100D+01
 Coeff-En:   0.100D+01
 Coeff:      0.100D+01
 Gap=     0.632 Goal=   None    Shift=    0.000
 GapD=    0.632 DampG=2.000 DampE=1.000 DampFc=2.0000 IDamp=-1.
 RMSDP=6.19D-04 MaxDP=1.22D-02              OVMax= 2.48D-02

 Cycle   2  Pass 1  IDiag  1:
 E= -516.291355323874     Delta-E=       -0.007758960344 Rises=F Damp=F
 DIIS: error= 1.81D-03 at cycle   2 NSaved=   2.
 NSaved= 2 IEnMin= 2 EnMin= -516.291355323874     IErMin= 2 ErrMin= 1.81D-03
 ErrMax= 1.81D-03  0.00D+00 EMaxC= 1.00D-01 BMatC= 5.66D-04 BMatP= 8.23D-03
 IDIUse=3 WtCom= 9.82D-01 WtEn= 1.81D-02
 Coeff-Com:  0.911D-01 0.909D+00
 Coeff-En:   0.000D+00 0.100D+01
 Coeff:      0.895D-01 0.911D+00
 Gap=     0.369 Goal=   None    Shift=    0.000
 RMSDP=1.03D-04 MaxDP=6.44D-03 DE=-7.76D-03 OVMax= 6.24D-03

 Cycle   3  Pass 1  IDiag  1:
 E= -516.291284526885     Delta-E=        0.000070796989 Rises=F Damp=F
 DIIS: error= 2.08D-03 at cycle   3 NSaved=   3.
 NSaved= 3 IEnMin= 2 EnMin= -516.291355323874     IErMin= 2 ErrMin= 1.81D-03
 ErrMax= 2.08D-03  0.00D+00 EMaxC= 1.00D-01 BMatC= 7.14D-04 BMatP= 5.66D-04
 IDIUse=3 WtCom= 1.80D-01 WtEn= 8.20D-01
 Coeff-Com: -0.123D-01 0.533D+00 0.480D+00
 Coeff-En:   0.000D+00 0.547D+00 0.453D+00
 Coeff:     -0.221D-02 0.544D+00 0.458D+00
 Gap=     0.369 Goal=   None    Shift=    0.000
 RMSDP=6.10D-05 MaxDP=3.06D-03 DE= 7.08D-05 OVMax= 3.99D-03

 Cycle   4  Pass 1  IDiag  1:
 E= -516.291678219869     Delta-E=       -0.000393692984 Rises=F Damp=F
 DIIS: error= 2.47D-04 at cycle   4 NSaved=   4.
 NSaved= 4 IEnMin= 4 EnMin= -516.291678219869     IErMin= 4 ErrMin= 2.47D-04
 ErrMax= 2.47D-04  0.00D+00 EMaxC= 1.00D-01 BMatC= 1.81D-05 BMatP= 5.66D-04
 IDIUse=3 WtCom= 9.98D-01 WtEn= 2.47D-03
 Coeff-Com: -0.101D-01 0.162D+00 0.207D+00 0.642D+00
 Coeff-En:   0.000D+00 0.000D+00 0.000D+00 0.100D+01
 Coeff:     -0.101D-01 0.161D+00 0.206D+00 0.642D+00
 Gap=     0.369 Goal=   None    Shift=    0.000
 RMSDP=1.32D-05 MaxDP=4.63D-04 DE=-3.94D-04 OVMax= 6.66D-04

 Cycle   5  Pass 1  IDiag  1:
 E= -516.291689094043     Delta-E=       -0.000010874174 Rises=F Damp=F
 DIIS: error= 6.34D-05 at cycle   5 NSaved=   5.
 NSaved= 5 IEnMin= 5 EnMin= -516.291689094043     IErMin= 5 ErrMin= 6.34D-05
 ErrMax= 6.34D-05  0.00D+00 EMaxC= 1.00D-01 BMatC= 8.46D-07 BMatP= 1.81D-05
 IDIUse=1 WtCom= 1.00D+00 WtEn= 0.00D+00
 Coeff-Com: -0.319D-02 0.362D-01 0.600D-01 0.250D+00 0.657D+00
 Coeff:     -0.319D-02 0.362D-01 0.600D-01 0.250D+00 0.657D+00
 Gap=     0.369 Goal=   None    Shift=    0.000
 RMSDP=3.00D-06 MaxDP=2.19D-04 DE=-1.09D-05 OVMax= 1.87D-04

 Cycle   6  Pass 1  IDiag  1:
 E= -516.291689708620     Delta-E=       -0.000000614577 Rises=F Damp=F
 DIIS: error= 8.98D-06 at cycle   6 NSaved=   6.
 NSaved= 6 IEnMin= 6 EnMin= -516.291689708620     IErMin= 6 ErrMin= 8.98D-06
 ErrMax= 8.98D-06  0.00D+00 EMaxC= 1.00D-01 BMatC= 3.98D-08 BMatP= 8.46D-07
 IDIUse=1 WtCom= 1.00D+00 WtEn= 0.00D+00
 Coeff-Com: -0.236D-03-0.106D-02 0.287D-02 0.296D-01 0.206D+00 0.762D+00
 Coeff:     -0.236D-03-0.106D-02 0.287D-02 0.296D-01 0.206D+00 0.762D+00
 Gap=     0.369 Goal=   None    Shift=    0.000
 RMSDP=7.37D-07 MaxDP=4.21D-05 DE=-6.15D-07 OVMax= 3.87D-05

 Cycle   7  Pass 1  IDiag  1:
 E= -516.291689734087     Delta-E=       -0.000000025468 Rises=F Damp=F
 DIIS: error= 7.22D-06 at cycle   7 NSaved=   7.
 NSaved= 7 IEnMin= 7 EnMin= -516.291689734087     IErMin= 7 ErrMin= 7.22D-06
 ErrMax= 7.22D-06  0.00D+00 EMaxC= 1.00D-01 BMatC= 8.22D-09 BMatP= 3.98D-08
 IDIUse=1 WtCom= 1.00D+00 WtEn= 0.00D+00
 Coeff-Com:  0.270D-04-0.230D-02-0.154D-02 0.403D-02 0.813D-01 0.413D+00
 Coeff-Com:  0.505D+00
 Coeff:      0.270D-04-0.230D-02-0.154D-02 0.403D-02 0.813D-01 0.413D+00
 Coeff:      0.505D+00
 Gap=     0.369 Goal=   None    Shift=    0.000
 RMSDP=2.17D-07 MaxDP=8.83D-06 DE=-2.55D-08 OVMax= 1.19D-05

 Cycle   8  Pass 1  IDiag  1:
 E= -516.291689738985     Delta-E=       -0.000000004898 Rises=F Damp=F
 DIIS: error= 1.28D-06 at cycle   8 NSaved=   8.
 NSaved= 8 IEnMin= 8 EnMin= -516.291689738985     IErMin= 8 ErrMin= 1.28D-06
 ErrMax= 1.28D-06  0.00D+00 EMaxC= 1.00D-01 BMatC= 3.32D-10 BMatP= 8.22D-09
 IDIUse=1 WtCom= 1.00D+00 WtEn= 0.00D+00
 Coeff-Com:  0.246D-04-0.878D-03-0.965D-03-0.455D-03 0.173D-01 0.112D+00
 Coeff-Com:  0.219D+00 0.655D+00
 Coeff:      0.246D-04-0.878D-03-0.965D-03-0.455D-03 0.173D-01 0.112D+00
 Coeff:      0.219D+00 0.655D+00
 Gap=     0.369 Goal=   None    Shift=    0.000
 RMSDP=6.73D-08 MaxDP=3.40D-06 DE=-4.90D-09 OVMax= 3.78D-06

 Cycle   9  Pass 1  IDiag  1:
 E= -516.291689739173     Delta-E=       -0.000000000187 Rises=F Damp=F
 DIIS: error= 2.94D-07 at cycle   9 NSaved=   9.
 NSaved= 9 IEnMin= 9 EnMin= -516.291689739173     IErMin= 9 ErrMin= 2.94D-07
 ErrMax= 2.94D-07  0.00D+00 EMaxC= 1.00D-01 BMatC= 3.41D-11 BMatP= 3.32D-10
 IDIUse=1 WtCom= 1.00D+00 WtEn= 0.00D+00
 Coeff-Com:  0.989D-05-0.258D-03-0.384D-03-0.595D-03 0.215D-02 0.231D-01
 Coeff-Com:  0.678D-01 0.318D+00 0.590D+00
 Coeff:      0.989D-05-0.258D-03-0.384D-03-0.595D-03 0.215D-02 0.231D-01
 Coeff:      0.678D-01 0.318D+00 0.590D+00
 Gap=     0.369 Goal=   None    Shift=    0.000
 RMSDP=2.07D-08 MaxDP=1.14D-06 DE=-1.87D-10 OVMax= 1.20D-06

 Cycle  10  Pass 1  IDiag  1:
 E= -516.291689739193     Delta-E=       -0.000000000021 Rises=F Damp=F
 DIIS: error= 7.85D-08 at cycle  10 NSaved=  10.
 NSaved=10 IEnMin=10 EnMin= -516.291689739193     IErMin=10 ErrMin= 7.85D-08
 ErrMax= 7.85D-08  0.00D+00 EMaxC= 1.00D-01 BMatC= 2.16D-12 BMatP= 3.41D-11
 IDIUse=1 WtCom= 1.00D+00 WtEn= 0.00D+00
 Coeff-Com:  0.236D-05-0.365D-04-0.853D-04-0.242D-03-0.548D-03 0.509D-03
 Coeff-Com:  0.113D-01 0.870D-01 0.261D+00 0.641D+00
 Coeff:      0.236D-05-0.365D-04-0.853D-04-0.242D-03-0.548D-03 0.509D-03
 Coeff:      0.113D-01 0.870D-01 0.261D+00 0.641D+00
 Gap=     0.369 Goal=   None    Shift=    0.000
 RMSDP=4.61D-09 MaxDP=1.58D-07 DE=-2.07D-11 OVMax= 2.38D-07

 SCF Done:  E(RB3LYP) =  -516.291689739     A.U. after   10 cycles
            NFock= 10  Conv=0.46D-08     -V/T= 2.0034
 KE= 5.145573331684D+02 PE=-1.897522424069D+03 EE= 5.299365986123D+02
 Leave Link  502 at Thu Jun 13 12:26:33 2024, MaxMem=  1073741824 cpu:        96.1
 (Enter /apps/z_install_tree/linux-rocky8-ivybridge/gcc-12.2.0/gaussian-09-D.01-wczn3gur5lpur3omlkzwa2l5ecyxp5ef/g09/l508.exe)
 QCSCF skips out because SCF is already converged.
 Leave Link  508 at Thu Jun 13 12:26:33 2024, MaxMem=  1073741824 cpu:         0.0
 (Enter /apps/z_install_tree/linux-rocky8-ivybridge/gcc-12.2.0/gaussian-09-D.01-wczn3gur5lpur3omlkzwa2l5ecyxp5ef/g09/l701.exe)
 Compute integral first derivatives.
 ... and contract with generalized density number  0.
 R6Disp: Adding Grimme-D3 dispersion energy 1st derivatives to the gradient.
 Leave Link  701 at Thu Jun 13 12:26:34 2024, MaxMem=  1073741824 cpu:         3.9
 (Enter /apps/z_install_tree/linux-rocky8-ivybridge/gcc-12.2.0/gaussian-09-D.01-wczn3gur5lpur3omlkzwa2l5ecyxp5ef/g09/l702.exe)
 L702 exits ... SP integral derivatives will be done elsewhere.
 Leave Link  702 at Thu Jun 13 12:26:34 2024, MaxMem=  1073741824 cpu:         0.2
 (Enter /apps/z_install_tree/linux-rocky8-ivybridge/gcc-12.2.0/gaussian-09-D.01-wczn3gur5lpur3omlkzwa2l5ecyxp5ef/g09/l703.exe)
 Compute integral first derivatives, UseDBF=F ICtDFT=           0.
 Integral derivatives from FoFJK, PRISM(SPDF).
 Calling FoFJK, ICntrl=      2127 FMM=F ISym2X=0 I1Cent= 0 IOpClX= 0 NMat=1 NMatS=1 NMatT=0.
 FoFJK:  IHMeth= 1 ICntrl=    2127 DoSepK=F KAlg= 0 I1Cent=   0 FoldK=F
 IRaf=         0 NMat=   1 IRICut=       1 DoRegI=T DoRafI=F ISym2E= 0.
 FoFCou: FMM=F IPFlag=           0 FMFlag=      100000 FMFlg1=         800
         NFxFlg=           0 DoJE=F BraDBF=F KetDBF=F FulRan=T
         wScrn=  0.000000 ICntrl=    2127 IOpCl=  0 I1Cent=           0 NGrid=           0
         NMat0=    1 NMatS0=      1 NMatT0=    0 NMatD0=    1 NMtDS0=    0 NMtDT0=    0
 Symmetry not used in FoFCou.
 Leave Link  703 at Thu Jun 13 12:26:36 2024, MaxMem=  1073741824 cpu:        31.8
 (Enter /apps/z_install_tree/linux-rocky8-ivybridge/gcc-12.2.0/gaussian-09-D.01-wczn3gur5lpur3omlkzwa2l5ecyxp5ef/g09/l716.exe)
 Dipole        = 2.97112413D-03-1.04897794D-02-1.58415887D-01
 -------------------------------------------------------------------
 Center     Atomic                   Forces (Hartrees/Bohr)
 Number     Number              X              Y              Z
 -------------------------------------------------------------------
      1        6           0.000371930    0.004615468    0.008204796
      2        6           0.007557142    0.009748708   -0.006726526
      3        6          -0.001095641   -0.000855606   -0.004142388
      4        9          -0.006165443   -0.020812611   -0.005397838
      5        9           0.006730801    0.000146588   -0.000530570
      6        9          -0.005375084    0.005949021   -0.001892446
      7        9          -0.000232084    0.002643978    0.009573369
      8        1          -0.001154202   -0.000711018   -0.000064360
      9        1          -0.002432685   -0.000528827    0.002026060
     10        1           0.000007386    0.001240909   -0.001109805
     11        1           0.001787881   -0.001436610    0.000059708
 -------------------------------------------------------------------
 Cartesian Forces:  Max     0.020812611 RMS     0.005608175
 Leave Link  716 at Thu Jun 13 12:26:36 2024, MaxMem=  1073741824 cpu:         0.3
 (Enter /apps/z_install_tree/linux-rocky8-ivybridge/gcc-12.2.0/gaussian-09-D.01-wczn3gur5lpur3omlkzwa2l5ecyxp5ef/g09/l103.exe)

 GradGradGradGradGradGradGradGradGradGradGradGradGradGradGradGradGradGrad
 Berny optimization.
 Using GEDIIS/GDIIS optimizer.
 FormGI is forming the generalized inverse of G from B-inverse, IUseBI=4.
 Internal  Forces:  Max     0.022363277 RMS     0.004780348
 Search for a local minimum.
 Step number   6 out of a maximum of   56
 All quantities printed in internal units (Hartrees-Bohrs-Radians)
 RMS Force = .47803D-02 SwitMx=.10000D-02 MixMth= 1
 Mixed Optimization -- RFO/linear search
 Update second derivatives using D2CorX and points    4    5    6
 DE= -4.41D-03 DEPred=-8.17D-03 R= 5.40D-01
 TightC=F SS=  1.41D+00  RLast= 3.29D-01 DXNew= 1.4270D+00 9.8606D-01
 Trust test= 5.40D-01 RLast= 3.29D-01 DXMaxT set to 9.86D-01
 ITU=  1  1  0  0  1  0
 Use linear search instead of GDIIS.
     Eigenvalues ---    0.00230   0.00524   0.03516   0.04554   0.04968
     Eigenvalues ---    0.05851   0.08447   0.08504   0.09142   0.11971
     Eigenvalues ---    0.12246   0.15195   0.15997   0.17170   0.21730
     Eigenvalues ---    0.22279   0.23525   0.24972   0.24995   0.26897
     Eigenvalues ---    0.27386   0.32919   0.33938   0.34075   0.34077
     Eigenvalues ---    0.34938   0.43601
 RFO step:  Lambda=-9.94340186D-04 EMin= 2.30088917D-03
 Quartic linear search produced a step of -0.29272.
 Iteration  1 RMS(Cart)=  0.02435211 RMS(Int)=  0.00050488
 Iteration  2 RMS(Cart)=  0.00024676 RMS(Int)=  0.00046176
 Iteration  3 RMS(Cart)=  0.00000007 RMS(Int)=  0.00046176
 ITry= 1 IFail=0 DXMaxC= 7.51D-02 DCOld= 1.00D+10 DXMaxT= 9.86D-01 DXLimC= 3.00D+00 Rises=F
 Variable       Old X    -DE/DX   Delta X   Delta X   Delta X     New X
                                 (Linear)    (Quad)   (Total)
    R1        2.89847  -0.01532  -0.01408  -0.02150  -0.03559   2.86289
    R2        2.87512  -0.00099  -0.00243   0.00081  -0.00162   2.87350
    R3        2.05539   0.00045   0.00051   0.00031   0.00082   2.05620
    R4        2.05480   0.00069  -0.00201   0.00326   0.00125   2.05605
    R5        2.62420  -0.02236  -0.04887  -0.01371  -0.06258   2.56162
    R6        2.54693  -0.00648   0.00800  -0.01374  -0.00574   2.54118
    R7        2.56332  -0.00785   0.00492  -0.01664  -0.01172   2.55161
    R8        2.67300  -0.00992  -0.01558  -0.00806  -0.02364   2.64936
    R9        2.06038  -0.00113  -0.00407   0.00170  -0.00237   2.05801
   R10        2.05883  -0.00109  -0.00509   0.00273  -0.00235   2.05648
    A1        1.98181  -0.00558  -0.00776  -0.00997  -0.01760   1.96422
    A2        1.87517   0.00170  -0.00305   0.00676   0.00396   1.87913
    A3        1.88796  -0.00033   0.00167  -0.00899  -0.00732   1.88064
    A4        1.91532   0.00209  -0.00446   0.01496   0.01063   1.92595
    A5        1.89652   0.00347   0.00717   0.00753   0.01454   1.91106
    A6        1.90584  -0.00137   0.00662  -0.01106  -0.00456   1.90128
    A7        1.95296  -0.00190  -0.00881   0.00531  -0.00356   1.94940
    A8        1.94206   0.00231   0.00573  -0.00212   0.00379   1.94585
    A9        1.94228   0.00400   0.01062  -0.00348   0.00727   1.94955
   A10        1.86826  -0.00031  -0.00568   0.00806   0.00237   1.87063
   A11        1.86474  -0.00138  -0.00528   0.00454  -0.00084   1.86390
   A12        1.88972  -0.00307   0.00222  -0.01220  -0.00963   1.88009
   A13        1.88058  -0.00144  -0.01362   0.01021  -0.00371   1.87687
   A14        1.94869   0.00127   0.01745  -0.01355   0.00497   1.95366
   A15        1.94211   0.00244   0.01511  -0.00493   0.01128   1.95339
   A16        1.87970  -0.00019  -0.02012   0.01787  -0.00257   1.87714
   A17        1.87703  -0.00022  -0.01695   0.01733   0.00012   1.87715
   A18        1.93240  -0.00199   0.01104  -0.02376  -0.01060   1.92180
    D1        0.93053   0.00007  -0.01122   0.03393   0.02267   0.95320
    D2        3.01968  -0.00003  -0.02051   0.04633   0.02586   3.04555
    D3       -1.15431   0.00038  -0.00558   0.02696   0.02120  -1.13311
    D4       -1.19075  -0.00021   0.00103   0.01662   0.01770  -1.17305
    D5        0.89841  -0.00032  -0.00825   0.02902   0.02089   0.91930
    D6        3.00760   0.00009   0.00667   0.00965   0.01623   3.02383
    D7        3.03703   0.00066  -0.00601   0.03077   0.02482   3.06185
    D8       -1.15700   0.00055  -0.01529   0.04317   0.02801  -1.12899
    D9        0.95220   0.00096  -0.00037   0.02379   0.02334   0.97554
   D10        3.04961  -0.00059  -0.00017   0.01005   0.00993   3.05954
   D11        0.98894  -0.00019   0.02340  -0.01029   0.01252   1.00146
   D12       -1.17992  -0.00035  -0.02091   0.03448   0.01421  -1.16571
   D13       -1.13487  -0.00066  -0.01194   0.02270   0.01069  -1.12419
   D14        3.08765  -0.00025   0.01162   0.00236   0.01328   3.10092
   D15        0.91879  -0.00042  -0.03268   0.04713   0.01497   0.93376
   D16        0.94792   0.00100  -0.00218   0.02261   0.02050   0.96842
   D17       -1.11274   0.00140   0.02138   0.00227   0.02308  -1.08966
   D18        3.00158   0.00124  -0.02292   0.04704   0.02478   3.02636
         Item               Value     Threshold  Converged?
 Maximum Force            0.022363     0.000450     NO 
 RMS     Force            0.004780     0.000300     NO 
 Maximum Displacement     0.075072     0.001800     NO 
 RMS     Displacement     0.024311     0.001200     NO 
 Predicted change in Energy=-1.364510D-03
 Lowest energy point so far.  Saving SCF results.
 GradGradGradGradGradGradGradGradGradGradGradGradGradGradGradGradGradGrad

 Leave Link  103 at Thu Jun 13 12:26:36 2024, MaxMem=  1073741824 cpu:         2.7
 (Enter /apps/z_install_tree/linux-rocky8-ivybridge/gcc-12.2.0/gaussian-09-D.01-wczn3gur5lpur3omlkzwa2l5ecyxp5ef/g09/l202.exe)
                          Input orientation:                          
 ---------------------------------------------------------------------
 Center     Atomic      Atomic             Coordinates (Angstroms)
 Number     Number       Type             X           Y           Z
 ---------------------------------------------------------------------
      1          6           0       50.133802   35.357711   31.907157
      2          6           0       50.070029   35.631725   33.395779
      3          6           0       51.498551   35.671618   31.314605
      4          9           0       50.441078   36.902406   33.687696
      5          9           0       48.825235   35.461383   33.875140
      6          9           0       50.892713   34.815991   34.089285
      7          9           0       51.474532   35.281078   29.968332
      8          1           0       49.365281   35.960237   31.427270
      9          1           0       49.904552   34.305288   31.753436
     10          1           0       52.293549   35.111593   31.804895
     11          1           0       51.718679   36.736972   31.343406
 ---------------------------------------------------------------------
                    Distance matrix (angstroms):
                    1          2          3          4          5
     1  C    0.000000
     2  C    1.514974   0.000000
     3  C    1.520591   2.524590   0.000000
     4  F    2.377145   1.355553   2.874831   0.000000
     5  F    2.365597   1.344736   3.707716   2.173162   0.000000
     6  F    2.372991   1.350252   2.966140   2.172183   2.176431
     7  F    2.358489   3.720615   1.401980   4.186932   4.723815
     8  H    1.088097   2.116511   2.155652   2.674798   2.555890
     9  H    1.088017   2.117572   2.144823   3.282415   2.646339
    10  H    2.176129   2.783072   1.089051   3.191175   4.054315
    11  H    2.175319   2.855146   1.088240   2.674945   4.050781
                    6          7          8          9         10
     6  F    0.000000
     7  F    4.187728   0.000000
     8  H    3.275465   2.653054   0.000000
     9  H    2.587174   2.569746   1.770891   0.000000
    10  H    2.695952   2.018037   3.072060   2.521920   0.000000
    11  H    3.451412   2.017440   2.479685   3.061417   1.784742
                   11
    11  H    0.000000
 Symmetry turned off by external request.
 Stoichiometry    C3H4F4
 Framework group  C1[X(C3H4F4)]
 Deg. of freedom    27
 Full point group                 C1      NOp   1
 Rotational constants (GHZ):      4.9969695      1.4114206      1.3917792
 Leave Link  202 at Thu Jun 13 12:26:36 2024, MaxMem=  1073741824 cpu:         0.4
 (Enter /apps/z_install_tree/linux-rocky8-ivybridge/gcc-12.2.0/gaussian-09-D.01-wczn3gur5lpur3omlkzwa2l5ecyxp5ef/g09/l301.exe)
 Basis read from rwf:  (5D, 7F)
 No pseudopotential information found on rwf file.
   225 basis functions,   338 primitive gaussians,   239 cartesian basis functions
    29 alpha electrons       29 beta electrons
       nuclear repulsion energy       339.9280982966 Hartrees.
 IExCor=  402 DFT=T Ex+Corr=B3LYP ExCW=0 ScaHFX=  0.200000
 ScaDFX=  0.800000  0.720000  1.000000  0.810000 ScalE2=  1.000000  1.000000
 IRadAn=      5 IRanWt=     -1 IRanGd=            0 ICorTp=0 IEmpDi=131
 NAtoms=   11 NActive=   11 NUniq=   11 SFac= 1.00D+00 NAtFMM=   60 NAOKFM=F Big=F
 Integral buffers will be    131072 words long.
 Raffenetti 2 integral format.
 Two-electron integral symmetry is turned off.
 R6Disp:  Grimme-D3 Dispersion energy=       -0.0072500158 Hartrees.
 Nuclear repulsion after empirical dispersion term =      339.9208482808 Hartrees.
 No density basis found on file   724.
 Leave Link  301 at Thu Jun 13 12:26:36 2024, MaxMem=  1073741824 cpu:         0.5
 (Enter /apps/z_install_tree/linux-rocky8-ivybridge/gcc-12.2.0/gaussian-09-D.01-wczn3gur5lpur3omlkzwa2l5ecyxp5ef/g09/l302.exe)
 NPDir=0 NMtPBC=     1 NCelOv=     1 NCel=       1 NClECP=     1 NCelD=      1
         NCelK=      1 NCelE2=     1 NClLst=     1 CellRange=     0.0.
 One-electron integrals computed using PRISM.
 NBasis=   225 RedAO= T EigKep=  6.74D-05  NBF=   225
 NBsUse=   225 1.00D-06 EigRej= -1.00D+00 NBFU=   225
 Precomputing XC quadrature grid using
 IXCGrd= 4 IRadAn=           5 IRanWt=          -1 IRanGd=           0 AccXCQ= 0.00D+00.
 Generated NRdTot=       0 NPtTot=           0 NUsed=           0 NTot=          32
 NSgBfM=   239   239   239   239   239 MxSgAt=    11 MxSgA2=    11.
 Leave Link  302 at Thu Jun 13 12:26:37 2024, MaxMem=  1073741824 cpu:         5.8
 (Enter /apps/z_install_tree/linux-rocky8-ivybridge/gcc-12.2.0/gaussian-09-D.01-wczn3gur5lpur3omlkzwa2l5ecyxp5ef/g09/l303.exe)
 DipDrv:  MaxL=1.
 Leave Link  303 at Thu Jun 13 12:26:37 2024, MaxMem=  1073741824 cpu:         1.9
 (Enter /apps/z_install_tree/linux-rocky8-ivybridge/gcc-12.2.0/gaussian-09-D.01-wczn3gur5lpur3omlkzwa2l5ecyxp5ef/g09/l401.exe)
 Initial guess from the checkpoint file:  "tetrafluoropropane.chk"
 B after Tr=     0.684090   -1.308203    0.388015
         Rot=    0.999981    0.001715   -0.000873   -0.005788 Ang=   0.70 deg.
 Guess basis will be translated and rotated to current coordinates.
 JPrj=2 DoOrth=T DoCkMO=T.
 Generating alternative initial guess.
 ExpMin= 4.38D-02 ExpMax= 1.14D+04 ExpMxC= 1.72D+03 IAcc=2 IRadAn=         4 AccDes= 0.00D+00
 Harris functional with IExCor=  402 and IRadAn=       4 diagonalized for initial guess.
 HarFok:  IExCor=  402 AccDes= 0.00D+00 IRadAn=         4 IDoV= 1 UseB2=F ITyADJ=14
 ICtDFT=  3500011 ScaDFX=  1.000000  1.000000  1.000000  1.000000
 FoFCou: FMM=F IPFlag=           0 FMFlag=      100000 FMFlg1=           0
         NFxFlg=           0 DoJE=T BraDBF=F KetDBF=T FulRan=T
         wScrn=  0.000000 ICntrl=     500 IOpCl=  0 I1Cent=   200000004 NGrid=           0
         NMat0=    1 NMatS0=      1 NMatT0=    0 NMatD0=    1 NMtDS0=    0 NMtDT0=    0
 Symmetry not used in FoFCou.
 Harris En= -516.274602697155    
 Leave Link  401 at Thu Jun 13 12:26:38 2024, MaxMem=  1073741824 cpu:        12.7
 (Enter /apps/z_install_tree/linux-rocky8-ivybridge/gcc-12.2.0/gaussian-09-D.01-wczn3gur5lpur3omlkzwa2l5ecyxp5ef/g09/l502.exe)
 Closed shell SCF:
 Using DIIS extrapolation, IDIIS=  1040.
 Two-electron integral symmetry not used.
 Keep R1 ints in memory in canonical form, NReq=330328726.
 IVT=      188821 IEndB=      188821 NGot=  1073741824 MDV=   750324979
 LenX=   750324979 LenY=   750267417
 Requested convergence on RMS density matrix=1.00D-08 within  96 cycles.
 Requested convergence on MAX density matrix=1.00D-06.
 Requested convergence on             energy=1.00D-06.
 No special actions if energy rises.
 FoFCou: FMM=F IPFlag=           0 FMFlag=           0 FMFlg1=           0
         NFxFlg=           0 DoJE=F BraDBF=F KetDBF=F FulRan=T
         wScrn=  0.000000 ICntrl=     600 IOpCl=  0 I1Cent=           0 NGrid=           0
         NMat0=    1 NMatS0=  25425 NMatT0=    0 NMatD0=    1 NMtDS0=    0 NMtDT0=    0
 Symmetry not used in FoFCou.

 Cycle   1  Pass 1  IDiag  1:
 E= -516.292057545877    
 DIIS: error= 1.23D-03 at cycle   1 NSaved=   1.
 NSaved= 1 IEnMin= 1 EnMin= -516.292057545877     IErMin= 1 ErrMin= 1.23D-03
 ErrMax= 1.23D-03  0.00D+00 EMaxC= 1.00D-01 BMatC= 1.14D-03 BMatP= 1.14D-03
 IDIUse=3 WtCom= 9.88D-01 WtEn= 1.23D-02
 Coeff-Com:  0.100D+01
 Coeff-En:   0.100D+01
 Coeff:      0.100D+01
 Gap=     0.633 Goal=   None    Shift=    0.000
 GapD=    0.633 DampG=2.000 DampE=1.000 DampFc=2.0000 IDamp=-1.
 RMSDP=2.51D-04 MaxDP=7.51D-03              OVMax= 7.02D-03

 Cycle   2  Pass 1  IDiag  1:
 E= -516.293196848922     Delta-E=       -0.001139303046 Rises=F Damp=F
 DIIS: error= 6.17D-04 at cycle   2 NSaved=   2.
 NSaved= 2 IEnMin= 2 EnMin= -516.293196848922     IErMin= 2 ErrMin= 6.17D-04
 ErrMax= 6.17D-04  0.00D+00 EMaxC= 1.00D-01 BMatC= 9.10D-05 BMatP= 1.14D-03
 IDIUse=3 WtCom= 9.94D-01 WtEn= 6.17D-03
 Coeff-Com:  0.106D+00 0.894D+00
 Coeff-En:   0.000D+00 0.100D+01
 Coeff:      0.106D+00 0.894D+00
 Gap=     0.368 Goal=   None    Shift=    0.000
 RMSDP=4.35D-05 MaxDP=2.59D-03 DE=-1.14D-03 OVMax= 2.64D-03

 Cycle   3  Pass 1  IDiag  1:
 E= -516.293196228104     Delta-E=        0.000000620818 Rises=F Damp=F
 DIIS: error= 7.24D-04 at cycle   3 NSaved=   3.
 NSaved= 3 IEnMin= 2 EnMin= -516.293196848922     IErMin= 2 ErrMin= 6.17D-04
 ErrMax= 7.24D-04  0.00D+00 EMaxC= 1.00D-01 BMatC= 9.89D-05 BMatP= 9.10D-05
 IDIUse=3 WtCom= 9.93D-01 WtEn= 7.24D-03
 Coeff-Com: -0.143D-01 0.513D+00 0.502D+00
 Coeff-En:   0.000D+00 0.503D+00 0.497D+00
 Coeff:     -0.142D-01 0.512D+00 0.502D+00
 Gap=     0.368 Goal=   None    Shift=    0.000
 RMSDP=2.44D-05 MaxDP=1.07D-03 DE= 6.21D-07 OVMax= 1.40D-03

 Cycle   4  Pass 1  IDiag  1:
 E= -516.293253199718     Delta-E=       -0.000056971613 Rises=F Damp=F
 DIIS: error= 1.32D-04 at cycle   4 NSaved=   4.
 NSaved= 4 IEnMin= 4 EnMin= -516.293253199718     IErMin= 4 ErrMin= 1.32D-04
 ErrMax= 1.32D-04  0.00D+00 EMaxC= 1.00D-01 BMatC= 4.19D-06 BMatP= 9.10D-05
 IDIUse=3 WtCom= 9.99D-01 WtEn= 1.32D-03
 Coeff-Com: -0.122D-01 0.198D+00 0.258D+00 0.556D+00
 Coeff-En:   0.000D+00 0.000D+00 0.000D+00 0.100D+01
 Coeff:     -0.122D-01 0.198D+00 0.258D+00 0.557D+00
 Gap=     0.368 Goal=   None    Shift=    0.000
 RMSDP=5.55D-06 MaxDP=1.88D-04 DE=-5.70D-05 OVMax= 2.95D-04

 Cycle   5  Pass 1  IDiag  1:
 E= -516.293255576624     Delta-E=       -0.000002376906 Rises=F Damp=F
 DIIS: error= 2.63D-05 at cycle   5 NSaved=   5.
 NSaved= 5 IEnMin= 5 EnMin= -516.293255576624     IErMin= 5 ErrMin= 2.63D-05
 ErrMax= 2.63D-05  0.00D+00 EMaxC= 1.00D-01 BMatC= 1.44D-07 BMatP= 4.19D-06
 IDIUse=1 WtCom= 1.00D+00 WtEn= 0.00D+00
 Coeff-Com: -0.314D-02 0.356D-01 0.638D-01 0.212D+00 0.692D+00
 Coeff:     -0.314D-02 0.356D-01 0.638D-01 0.212D+00 0.692D+00
 Gap=     0.368 Goal=   None    Shift=    0.000
 RMSDP=1.27D-06 MaxDP=9.13D-05 DE=-2.38D-06 OVMax= 7.62D-05

 Cycle   6  Pass 1  IDiag  1:
 E= -516.293255680722     Delta-E=       -0.000000104098 Rises=F Damp=F
 DIIS: error= 4.99D-06 at cycle   6 NSaved=   6.
 NSaved= 6 IEnMin= 6 EnMin= -516.293255680722     IErMin= 6 ErrMin= 4.99D-06
 ErrMax= 4.99D-06  0.00D+00 EMaxC= 1.00D-01 BMatC= 8.20D-09 BMatP= 1.44D-07
 IDIUse=1 WtCom= 1.00D+00 WtEn= 0.00D+00
 Coeff-Com: -0.571D-03 0.261D-02 0.985D-02 0.501D-01 0.257D+00 0.681D+00
 Coeff:     -0.571D-03 0.261D-02 0.985D-02 0.501D-01 0.257D+00 0.681D+00
 Gap=     0.368 Goal=   None    Shift=    0.000
 RMSDP=3.17D-07 MaxDP=1.66D-05 DE=-1.04D-07 OVMax= 1.65D-05

 Cycle   7  Pass 1  IDiag  1:
 E= -516.293255685453     Delta-E=       -0.000000004731 Rises=F Damp=F
 DIIS: error= 4.06D-06 at cycle   7 NSaved=   7.
 NSaved= 7 IEnMin= 7 EnMin= -516.293255685453     IErMin= 7 ErrMin= 4.06D-06
 ErrMax= 4.06D-06  0.00D+00 EMaxC= 1.00D-01 BMatC= 2.03D-09 BMatP= 8.20D-09
 IDIUse=1 WtCom= 1.00D+00 WtEn= 0.00D+00
 Coeff-Com: -0.174D-04-0.175D-02-0.638D-03 0.805D-02 0.807D-01 0.382D+00
 Coeff-Com:  0.532D+00
 Coeff:     -0.174D-04-0.175D-02-0.638D-03 0.805D-02 0.807D-01 0.382D+00
 Coeff:      0.532D+00
 Gap=     0.368 Goal=   None    Shift=    0.000
 RMSDP=1.04D-07 MaxDP=3.89D-06 DE=-4.73D-09 OVMax= 5.63D-06

 Cycle   8  Pass 1  IDiag  1:
 E= -516.293255686632     Delta-E=       -0.000000001179 Rises=F Damp=F
 DIIS: error= 4.47D-07 at cycle   8 NSaved=   8.
 NSaved= 8 IEnMin= 8 EnMin= -516.293255686632     IErMin= 8 ErrMin= 4.47D-07
 ErrMax= 4.47D-07  0.00D+00 EMaxC= 1.00D-01 BMatC= 4.91D-11 BMatP= 2.03D-09
 IDIUse=1 WtCom= 1.00D+00 WtEn= 0.00D+00
 Coeff-Com:  0.123D-04-0.822D-03-0.790D-03 0.951D-03 0.199D-01 0.119D+00
 Coeff-Com:  0.218D+00 0.644D+00
 Coeff:      0.123D-04-0.822D-03-0.790D-03 0.951D-03 0.199D-01 0.119D+00
 Coeff:      0.218D+00 0.644D+00
 Gap=     0.368 Goal=   None    Shift=    0.000
 RMSDP=3.03D-08 MaxDP=1.35D-06 DE=-1.18D-09 OVMax= 1.59D-06

 Cycle   9  Pass 1  IDiag  1:
 E= -516.293255686668     Delta-E=       -0.000000000035 Rises=F Damp=F
 DIIS: error= 1.22D-07 at cycle   9 NSaved=   9.
 NSaved= 9 IEnMin= 9 EnMin= -516.293255686668     IErMin= 9 ErrMin= 1.22D-07
 ErrMax= 1.22D-07  0.00D+00 EMaxC= 1.00D-01 BMatC= 6.03D-12 BMatP= 4.91D-11
 IDIUse=1 WtCom= 1.00D+00 WtEn= 0.00D+00
 Coeff-Com:  0.776D-05-0.219D-03-0.339D-03-0.380D-03 0.145D-02 0.186D-01
 Coeff-Com:  0.518D-01 0.307D+00 0.622D+00
 Coeff:      0.776D-05-0.219D-03-0.339D-03-0.380D-03 0.145D-02 0.186D-01
 Coeff:      0.518D-01 0.307D+00 0.622D+00
 Gap=     0.368 Goal=   None    Shift=    0.000
 RMSDP=8.24D-09 MaxDP=2.92D-07 DE=-3.54D-11 OVMax= 5.24D-07

 SCF Done:  E(RB3LYP) =  -516.293255687     A.U. after    9 cycles
            NFock=  9  Conv=0.82D-08     -V/T= 2.0031
 KE= 5.147180147954D+02 PE=-1.903995087380D+03 EE= 5.330629686171D+02
 Leave Link  502 at Thu Jun 13 12:26:45 2024, MaxMem=  1073741824 cpu:        87.5
 (Enter /apps/z_install_tree/linux-rocky8-ivybridge/gcc-12.2.0/gaussian-09-D.01-wczn3gur5lpur3omlkzwa2l5ecyxp5ef/g09/l508.exe)
 QCSCF skips out because SCF is already converged.
 Leave Link  508 at Thu Jun 13 12:26:45 2024, MaxMem=  1073741824 cpu:         0.0
 (Enter /apps/z_install_tree/linux-rocky8-ivybridge/gcc-12.2.0/gaussian-09-D.01-wczn3gur5lpur3omlkzwa2l5ecyxp5ef/g09/l701.exe)
 Compute integral first derivatives.
 ... and contract with generalized density number  0.
 R6Disp: Adding Grimme-D3 dispersion energy 1st derivatives to the gradient.
 Leave Link  701 at Thu Jun 13 12:26:46 2024, MaxMem=  1073741824 cpu:         4.3
 (Enter /apps/z_install_tree/linux-rocky8-ivybridge/gcc-12.2.0/gaussian-09-D.01-wczn3gur5lpur3omlkzwa2l5ecyxp5ef/g09/l702.exe)
 L702 exits ... SP integral derivatives will be done elsewhere.
 Leave Link  702 at Thu Jun 13 12:26:46 2024, MaxMem=  1073741824 cpu:         0.2
 (Enter /apps/z_install_tree/linux-rocky8-ivybridge/gcc-12.2.0/gaussian-09-D.01-wczn3gur5lpur3omlkzwa2l5ecyxp5ef/g09/l703.exe)
 Compute integral first derivatives, UseDBF=F ICtDFT=           0.
 Integral derivatives from FoFJK, PRISM(SPDF).
 Calling FoFJK, ICntrl=      2127 FMM=F ISym2X=0 I1Cent= 0 IOpClX= 0 NMat=1 NMatS=1 NMatT=0.
 FoFJK:  IHMeth= 1 ICntrl=    2127 DoSepK=F KAlg= 0 I1Cent=   0 FoldK=F
 IRaf=         0 NMat=   1 IRICut=       1 DoRegI=T DoRafI=F ISym2E= 0.
 FoFCou: FMM=F IPFlag=           0 FMFlag=      100000 FMFlg1=         800
         NFxFlg=           0 DoJE=F BraDBF=F KetDBF=F FulRan=T
         wScrn=  0.000000 ICntrl=    2127 IOpCl=  0 I1Cent=           0 NGrid=           0
         NMat0=    1 NMatS0=      1 NMatT0=    0 NMatD0=    1 NMtDS0=    0 NMtDT0=    0
 Symmetry not used in FoFCou.
 Leave Link  703 at Thu Jun 13 12:26:48 2024, MaxMem=  1073741824 cpu:        32.0
 (Enter /apps/z_install_tree/linux-rocky8-ivybridge/gcc-12.2.0/gaussian-09-D.01-wczn3gur5lpur3omlkzwa2l5ecyxp5ef/g09/l716.exe)
 Dipole        = 1.74668586D-02 2.26640419D-02-1.62851563D-01
 -------------------------------------------------------------------
 Center     Atomic                   Forces (Hartrees/Bohr)
 Number     Number              X              Y              Z
 -------------------------------------------------------------------
      1        6           0.000582189    0.001199619    0.003673736
      2        6           0.001980742    0.001740232   -0.005185157
      3        6          -0.001121447   -0.001225680   -0.002650734
      4        9          -0.000490462   -0.000517226   -0.000156943
      5        9          -0.000633191   -0.001099768    0.000795431
      6        9           0.000030684   -0.000703713    0.000915155
      7        9           0.000336214    0.000691466    0.001439377
      8        1          -0.000200178   -0.000282464   -0.000393611
      9        1          -0.000987353   -0.000154514    0.000233859
     10        1           0.000023229    0.000369113    0.000515005
     11        1           0.000479573   -0.000017066    0.000813882
 -------------------------------------------------------------------
 Cartesian Forces:  Max     0.005185157 RMS     0.001438578
 Leave Link  716 at Thu Jun 13 12:26:48 2024, MaxMem=  1073741824 cpu:         0.2
 (Enter /apps/z_install_tree/linux-rocky8-ivybridge/gcc-12.2.0/gaussian-09-D.01-wczn3gur5lpur3omlkzwa2l5ecyxp5ef/g09/l103.exe)

 GradGradGradGradGradGradGradGradGradGradGradGradGradGradGradGradGradGrad
 Berny optimization.
 Using GEDIIS/GDIIS optimizer.
 FormGI is forming the generalized inverse of G from B-inverse, IUseBI=4.
 Internal  Forces:  Max     0.003709413 RMS     0.000768143
 Search for a local minimum.
 Step number   7 out of a maximum of   56
 All quantities printed in internal units (Hartrees-Bohrs-Radians)
 RMS Force = .76814D-03 SwitMx=.10000D-02 MixMth= 2
 Mixed Optimization -- En-DIIS/RFO-DIIS
 Update second derivatives using D2CorX and points    4    5    6    7
 DE= -1.57D-03 DEPred=-1.36D-03 R= 1.15D+00
 TightC=F SS=  1.41D+00  RLast= 1.19D-01 DXNew= 1.6584D+00 3.5805D-01
 Trust test= 1.15D+00 RLast= 1.19D-01 DXMaxT set to 9.86D-01
 ITU=  1  1  1  0  0  1  0
 Use linear search instead of GDIIS.
     Eigenvalues ---    0.00230   0.00514   0.03629   0.04662   0.04973
     Eigenvalues ---    0.05831   0.08332   0.08437   0.08881   0.12017
     Eigenvalues ---    0.12111   0.15290   0.15978   0.17142   0.21057
     Eigenvalues ---    0.22027   0.23727   0.24977   0.24994   0.25940
     Eigenvalues ---    0.27346   0.33077   0.33943   0.34076   0.34077
     Eigenvalues ---    0.34966   0.42554
 RFO step:  Lambda=-2.21041821D-04 EMin= 2.29520368D-03
 Quartic linear search produced a step of  0.12287.
 Iteration  1 RMS(Cart)=  0.02819877 RMS(Int)=  0.00044386
 Iteration  2 RMS(Cart)=  0.00048059 RMS(Int)=  0.00001680
 Iteration  3 RMS(Cart)=  0.00000014 RMS(Int)=  0.00001680
 ITry= 1 IFail=0 DXMaxC= 7.01D-02 DCOld= 1.00D+10 DXMaxT= 9.86D-01 DXLimC= 3.00D+00 Rises=F
 Variable       Old X    -DE/DX   Delta X   Delta X   Delta X     New X
                                 (Linear)    (Quad)   (Total)
    R1        2.86289  -0.00371  -0.00437  -0.00936  -0.01373   2.84915
    R2        2.87350  -0.00034  -0.00020  -0.00114  -0.00134   2.87216
    R3        2.05620   0.00016   0.00010   0.00040   0.00050   2.05670
    R4        2.05605   0.00032   0.00015   0.00113   0.00129   2.05734
    R5        2.56162  -0.00065  -0.00769   0.00366  -0.00403   2.55759
    R6        2.54118   0.00101  -0.00071   0.00762   0.00691   2.54809
    R7        2.55161   0.00091  -0.00144   0.00739   0.00595   2.55755
    R8        2.64936  -0.00158  -0.00290  -0.01279  -0.01570   2.63366
    R9        2.05801   0.00006  -0.00029   0.00076   0.00047   2.05847
   R10        2.05648   0.00010  -0.00029   0.00098   0.00069   2.05717
    A1        1.96422  -0.00131  -0.00216  -0.00382  -0.00597   1.95825
    A2        1.87913   0.00055   0.00049   0.00355   0.00405   1.88318
    A3        1.88064   0.00007  -0.00090  -0.00156  -0.00244   1.87821
    A4        1.92595   0.00042   0.00131   0.00317   0.00447   1.93042
    A5        1.91106   0.00076   0.00179   0.00377   0.00553   1.91659
    A6        1.90128  -0.00050  -0.00056  -0.00538  -0.00596   1.89531
    A7        1.94940   0.00007  -0.00044   0.00314   0.00269   1.95210
    A8        1.94585   0.00016   0.00047  -0.00127  -0.00081   1.94504
    A9        1.94955   0.00063   0.00089   0.00061   0.00150   1.95104
   A10        1.87063   0.00009   0.00029   0.00178   0.00207   1.87269
   A11        1.86390  -0.00002  -0.00010   0.00258   0.00246   1.86637
   A12        1.88009  -0.00100  -0.00118  -0.00696  -0.00815   1.87194
   A13        1.87687   0.00097  -0.00046   0.00844   0.00798   1.88486
   A14        1.95366  -0.00045   0.00061  -0.00616  -0.00558   1.94808
   A15        1.95339  -0.00007   0.00139  -0.00384  -0.00249   1.95090
   A16        1.87714   0.00004  -0.00032   0.00580   0.00550   1.88263
   A17        1.87715  -0.00009   0.00002   0.00474   0.00475   1.88190
   A18        1.92180  -0.00033  -0.00130  -0.00764  -0.00901   1.91279
    D1        0.95320   0.00025   0.00279   0.03785   0.04062   0.99382
    D2        3.04555   0.00053   0.00318   0.04138   0.04455   3.09009
    D3       -1.13311  -0.00020   0.00260   0.03201   0.03460  -1.09851
    D4       -1.17305   0.00018   0.00218   0.03386   0.03603  -1.13702
    D5        0.91930   0.00045   0.00257   0.03739   0.03996   0.95926
    D6        3.02383  -0.00028   0.00199   0.02802   0.03001   3.05384
    D7        3.06185   0.00043   0.00305   0.03913   0.04219   3.10404
    D8       -1.12899   0.00071   0.00344   0.04266   0.04611  -1.08288
    D9        0.97554  -0.00002   0.00287   0.03329   0.03616   1.01170
   D10        3.05954  -0.00003   0.00122   0.02995   0.03116   3.09070
   D11        1.00146  -0.00042   0.00154   0.02113   0.02268   1.02414
   D12       -1.16571   0.00042   0.00175   0.03881   0.04053  -1.12517
   D13       -1.12419   0.00009   0.00131   0.03411   0.03541  -1.08877
   D14        3.10092  -0.00030   0.00163   0.02529   0.02693   3.12785
   D15        0.93376   0.00053   0.00184   0.04297   0.04478   0.97854
   D16        0.96842   0.00021   0.00252   0.03182   0.03435   1.00277
   D17       -1.08966  -0.00018   0.00284   0.02300   0.02587  -1.06379
   D18        3.02636   0.00066   0.00304   0.04067   0.04372   3.07008
         Item               Value     Threshold  Converged?
 Maximum Force            0.003709     0.000450     NO 
 RMS     Force            0.000768     0.000300     NO 
 Maximum Displacement     0.070146     0.001800     NO 
 RMS     Displacement     0.028230     0.001200     NO 
 Predicted change in Energy=-1.575475D-04
 Lowest energy point so far.  Saving SCF results.
 GradGradGradGradGradGradGradGradGradGradGradGradGradGradGradGradGradGrad

 Leave Link  103 at Thu Jun 13 12:26:48 2024, MaxMem=  1073741824 cpu:         4.1
 (Enter /apps/z_install_tree/linux-rocky8-ivybridge/gcc-12.2.0/gaussian-09-D.01-wczn3gur5lpur3omlkzwa2l5ecyxp5ef/g09/l202.exe)
                          Input orientation:                          
 ---------------------------------------------------------------------
 Center     Atomic      Atomic             Coordinates (Angstroms)
 Number     Number       Type             X           Y           Z
 ---------------------------------------------------------------------
      1          6           0       50.130113   35.360048   31.905717
      2          6           0       50.073523   35.640345   33.386058
      3          6           0       51.498447   35.660480   31.316268
      4          9           0       50.407754   36.920891   33.669324
      5          9           0       48.836886   35.429969   33.880664
      6          9           0       50.923577   34.848281   34.080127
      7          9           0       51.472760   35.309677   29.967712
      8          1           0       49.363855   35.962602   31.421663
      9          1           0       49.888349   34.308576   31.760048
     10          1           0       52.280499   35.075641   31.798893
     11          1           0       51.742236   36.719489   31.380525
 ---------------------------------------------------------------------
                    Distance matrix (angstroms):
                    1          2          3          4          5
     1  C    0.000000
     2  C    1.507706   0.000000
     3  C    1.519884   2.512935   0.000000
     4  F    2.371418   1.353420   2.883595   0.000000
     5  F    2.361723   1.348393   3.703129   2.176038   0.000000
     6  F    2.370558   1.353399   2.937525   2.174981   2.175414
     7  F    2.358200   3.708409   1.393674   4.175186   4.719481
     8  H    1.088361   2.113368   2.158441   2.657070   2.570618
     9  H    1.088698   2.109931   2.148720   3.277088   2.619181
    10  H    2.171741   2.776460   1.089298   3.226551   4.039528
    11  H    2.173212   2.823352   1.088606   2.657067   4.044084
                    6          7          8          9         10
     6  F    0.000000
     7  F    4.174500   0.000000
     8  H    3.277479   2.643439   0.000000
     9  H    2.597257   2.593267   1.767881   0.000000
    10  H    2.664012   2.015053   3.071777   2.512425   0.000000
    11  H    3.385184   2.014008   2.496251   3.064872   1.779605
                   11
    11  H    0.000000
 Symmetry turned off by external request.
 Stoichiometry    C3H4F4
 Framework group  C1[X(C3H4F4)]
 Deg. of freedom    27
 Full point group                 C1      NOp   1
 Rotational constants (GHZ):      5.0000184      1.4171623      1.3981328
 Leave Link  202 at Thu Jun 13 12:26:48 2024, MaxMem=  1073741824 cpu:         0.7
 (Enter /apps/z_install_tree/linux-rocky8-ivybridge/gcc-12.2.0/gaussian-09-D.01-wczn3gur5lpur3omlkzwa2l5ecyxp5ef/g09/l301.exe)
 Basis read from rwf:  (5D, 7F)
 No pseudopotential information found on rwf file.
   225 basis functions,   338 primitive gaussians,   239 cartesian basis functions
    29 alpha electrons       29 beta electrons
       nuclear repulsion energy       340.3463703439 Hartrees.
 IExCor=  402 DFT=T Ex+Corr=B3LYP ExCW=0 ScaHFX=  0.200000
 ScaDFX=  0.800000  0.720000  1.000000  0.810000 ScalE2=  1.000000  1.000000
 IRadAn=      5 IRanWt=     -1 IRanGd=            0 ICorTp=0 IEmpDi=131
 NAtoms=   11 NActive=   11 NUniq=   11 SFac= 1.00D+00 NAtFMM=   60 NAOKFM=F Big=F
 Integral buffers will be    131072 words long.
 Raffenetti 2 integral format.
 Two-electron integral symmetry is turned off.
 R6Disp:  Grimme-D3 Dispersion energy=       -0.0072799834 Hartrees.
 Nuclear repulsion after empirical dispersion term =      340.3390903605 Hartrees.
 No density basis found on file   724.
 Leave Link  301 at Thu Jun 13 12:26:49 2024, MaxMem=  1073741824 cpu:         1.1
 (Enter /apps/z_install_tree/linux-rocky8-ivybridge/gcc-12.2.0/gaussian-09-D.01-wczn3gur5lpur3omlkzwa2l5ecyxp5ef/g09/l302.exe)
 NPDir=0 NMtPBC=     1 NCelOv=     1 NCel=       1 NClECP=     1 NCelD=      1
         NCelK=      1 NCelE2=     1 NClLst=     1 CellRange=     0.0.
 One-electron integrals computed using PRISM.
 NBasis=   225 RedAO= T EigKep=  6.68D-05  NBF=   225
 NBsUse=   225 1.00D-06 EigRej= -1.00D+00 NBFU=   225
 Precomputing XC quadrature grid using
 IXCGrd= 4 IRadAn=           5 IRanWt=          -1 IRanGd=           0 AccXCQ= 0.00D+00.
 Generated NRdTot=       0 NPtTot=           0 NUsed=           0 NTot=          32
 NSgBfM=   239   239   239   239   239 MxSgAt=    11 MxSgA2=    11.
 Leave Link  302 at Thu Jun 13 12:26:49 2024, MaxMem=  1073741824 cpu:         3.2
 (Enter /apps/z_install_tree/linux-rocky8-ivybridge/gcc-12.2.0/gaussian-09-D.01-wczn3gur5lpur3omlkzwa2l5ecyxp5ef/g09/l303.exe)
 DipDrv:  MaxL=1.
 Leave Link  303 at Thu Jun 13 12:26:49 2024, MaxMem=  1073741824 cpu:         0.9
 (Enter /apps/z_install_tree/linux-rocky8-ivybridge/gcc-12.2.0/gaussian-09-D.01-wczn3gur5lpur3omlkzwa2l5ecyxp5ef/g09/l401.exe)
 Initial guess from the checkpoint file:  "tetrafluoropropane.chk"
 B after Tr=     1.168572   -2.162757    0.613141
         Rot=    0.999948    0.002564   -0.001424   -0.009812 Ang=   1.17 deg.
 Guess basis will be translated and rotated to current coordinates.
 JPrj=2 DoOrth=T DoCkMO=T.
 Generating alternative initial guess.
 ExpMin= 4.38D-02 ExpMax= 1.14D+04 ExpMxC= 1.72D+03 IAcc=2 IRadAn=         4 AccDes= 0.00D+00
 Harris functional with IExCor=  402 and IRadAn=       4 diagonalized for initial guess.
 HarFok:  IExCor=  402 AccDes= 0.00D+00 IRadAn=         4 IDoV= 1 UseB2=F ITyADJ=14
 ICtDFT=  3500011 ScaDFX=  1.000000  1.000000  1.000000  1.000000
 FoFCou: FMM=F IPFlag=           0 FMFlag=      100000 FMFlg1=           0
         NFxFlg=           0 DoJE=T BraDBF=F KetDBF=T FulRan=T
         wScrn=  0.000000 ICntrl=     500 IOpCl=  0 I1Cent=   200000004 NGrid=           0
         NMat0=    1 NMatS0=      1 NMatT0=    0 NMatD0=    1 NMtDS0=    0 NMtDT0=    0
 Symmetry not used in FoFCou.
 Harris En= -516.274726790839    
 Leave Link  401 at Thu Jun 13 12:26:50 2024, MaxMem=  1073741824 cpu:         8.0
 (Enter /apps/z_install_tree/linux-rocky8-ivybridge/gcc-12.2.0/gaussian-09-D.01-wczn3gur5lpur3omlkzwa2l5ecyxp5ef/g09/l502.exe)
 Closed shell SCF:
 Using DIIS extrapolation, IDIIS=  1040.
 Two-electron integral symmetry not used.
 Keep R1 ints in memory in canonical form, NReq=330328726.
 IVT=      188821 IEndB=      188821 NGot=  1073741824 MDV=   750324979
 LenX=   750324979 LenY=   750267417
 Requested convergence on RMS density matrix=1.00D-08 within  96 cycles.
 Requested convergence on MAX density matrix=1.00D-06.
 Requested convergence on             energy=1.00D-06.
 No special actions if energy rises.
 FoFCou: FMM=F IPFlag=           0 FMFlag=           0 FMFlg1=           0
         NFxFlg=           0 DoJE=F BraDBF=F KetDBF=F FulRan=T
         wScrn=  0.000000 ICntrl=     600 IOpCl=  0 I1Cent=           0 NGrid=           0
         NMat0=    1 NMatS0=  25425 NMatT0=    0 NMatD0=    1 NMtDS0=    0 NMtDT0=    0
 Symmetry not used in FoFCou.

 Cycle   1  Pass 1  IDiag  1:
 E= -516.291992839206    
 DIIS: error= 2.26D-03 at cycle   1 NSaved=   1.
 NSaved= 1 IEnMin= 1 EnMin= -516.291992839206     IErMin= 1 ErrMin= 2.26D-03
 ErrMax= 2.26D-03  0.00D+00 EMaxC= 1.00D-01 BMatC= 9.70D-04 BMatP= 9.70D-04
 IDIUse=3 WtCom= 9.77D-01 WtEn= 2.26D-02
 Coeff-Com:  0.100D+01
 Coeff-En:   0.100D+01
 Coeff:      0.100D+01
 Gap=     0.634 Goal=   None    Shift=    0.000
 GapD=    0.634 DampG=2.000 DampE=1.000 DampFc=2.0000 IDamp=-1.
 RMSDP=2.26D-04 MaxDP=6.70D-03              OVMax= 1.35D-02

 Cycle   2  Pass 1  IDiag  1:
 E= -516.293393360750     Delta-E=       -0.001400521544 Rises=F Damp=F
 DIIS: error= 2.33D-04 at cycle   2 NSaved=   2.
 NSaved= 2 IEnMin= 2 EnMin= -516.293393360750     IErMin= 2 ErrMin= 2.33D-04
 ErrMax= 2.33D-04  0.00D+00 EMaxC= 1.00D-01 BMatC= 1.97D-05 BMatP= 9.70D-04
 IDIUse=3 WtCom= 9.98D-01 WtEn= 2.33D-03
 Coeff-Com: -0.445D-01 0.104D+01
 Coeff-En:   0.000D+00 0.100D+01
 Coeff:     -0.444D-01 0.104D+01
 Gap=     0.368 Goal=   None    Shift=    0.000
 RMSDP=2.56D-05 MaxDP=5.86D-04 DE=-1.40D-03 OVMax= 1.29D-03

 Cycle   3  Pass 1  IDiag  1:
 E= -516.293398540720     Delta-E=       -0.000005179969 Rises=F Damp=F
 DIIS: error= 3.61D-04 at cycle   3 NSaved=   3.
 NSaved= 3 IEnMin= 3 EnMin= -516.293398540720     IErMin= 2 ErrMin= 2.33D-04
 ErrMax= 3.61D-04  0.00D+00 EMaxC= 1.00D-01 BMatC= 2.53D-05 BMatP= 1.97D-05
 IDIUse=3 WtCom= 3.45D-01 WtEn= 6.55D-01
 Coeff-Com: -0.395D-01 0.581D+00 0.458D+00
 Coeff-En:   0.000D+00 0.378D+00 0.622D+00
 Coeff:     -0.136D-01 0.448D+00 0.565D+00
 Gap=     0.368 Goal=   None    Shift=    0.000
 RMSDP=1.52D-05 MaxDP=5.12D-04 DE=-5.18D-06 OVMax= 8.64D-04

 Cycle   4  Pass 1  IDiag  1:
 E= -516.293409540883     Delta-E=       -0.000011000164 Rises=F Damp=F
 DIIS: error= 1.75D-04 at cycle   4 NSaved=   4.
 NSaved= 4 IEnMin= 4 EnMin= -516.293409540883     IErMin= 4 ErrMin= 1.75D-04
 ErrMax= 1.75D-04  0.00D+00 EMaxC= 1.00D-01 BMatC= 6.03D-06 BMatP= 1.97D-05
 IDIUse=3 WtCom= 9.98D-01 WtEn= 1.75D-03
 Coeff-Com: -0.889D-02 0.970D-01 0.340D+00 0.572D+00
 Coeff-En:   0.000D+00 0.000D+00 0.213D+00 0.787D+00
 Coeff:     -0.887D-02 0.968D-01 0.340D+00 0.572D+00
 Gap=     0.368 Goal=   None    Shift=    0.000
 RMSDP=5.43D-06 MaxDP=1.70D-04 DE=-1.10D-05 OVMax= 3.06D-04

 Cycle   5  Pass 1  IDiag  1:
 E= -516.293412931571     Delta-E=       -0.000003390687 Rises=F Damp=F
 DIIS: error= 8.85D-06 at cycle   5 NSaved=   5.
 NSaved= 5 IEnMin= 5 EnMin= -516.293412931571     IErMin= 5 ErrMin= 8.85D-06
 ErrMax= 8.85D-06  0.00D+00 EMaxC= 1.00D-01 BMatC= 3.70D-08 BMatP= 6.03D-06
 IDIUse=1 WtCom= 1.00D+00 WtEn= 0.00D+00
 Coeff-Com: -0.172D-02 0.111D-01 0.110D+00 0.221D+00 0.660D+00
 Coeff:     -0.172D-02 0.111D-01 0.110D+00 0.221D+00 0.660D+00
 Gap=     0.368 Goal=   None    Shift=    0.000
 RMSDP=9.55D-07 MaxDP=3.39D-05 DE=-3.39D-06 OVMax= 4.19D-05

 Cycle   6  Pass 1  IDiag  1:
 E= -516.293412959527     Delta-E=       -0.000000027956 Rises=F Damp=F
 DIIS: error= 4.02D-06 at cycle   6 NSaved=   6.
 NSaved= 6 IEnMin= 6 EnMin= -516.293412959527     IErMin= 6 ErrMin= 4.02D-06
 ErrMax= 4.02D-06  0.00D+00 EMaxC= 1.00D-01 BMatC= 5.99D-09 BMatP= 3.70D-08
 IDIUse=1 WtCom= 1.00D+00 WtEn= 0.00D+00
 Coeff-Com: -0.156D-03-0.289D-02 0.292D-01 0.698D-01 0.336D+00 0.568D+00
 Coeff:     -0.156D-03-0.289D-02 0.292D-01 0.698D-01 0.336D+00 0.568D+00
 Gap=     0.368 Goal=   None    Shift=    0.000
 RMSDP=2.30D-07 MaxDP=9.38D-06 DE=-2.80D-08 OVMax= 1.21D-05

 Cycle   7  Pass 1  IDiag  1:
 E= -516.293412963402     Delta-E=       -0.000000003875 Rises=F Damp=F
 DIIS: error= 2.03D-06 at cycle   7 NSaved=   7.
 NSaved= 7 IEnMin= 7 EnMin= -516.293412963402     IErMin= 7 ErrMin= 2.03D-06
 ErrMax= 2.03D-06  0.00D+00 EMaxC= 1.00D-01 BMatC= 5.13D-10 BMatP= 5.99D-09
 IDIUse=1 WtCom= 1.00D+00 WtEn= 0.00D+00
 Coeff-Com:  0.850D-04-0.282D-02 0.453D-02 0.152D-01 0.112D+00 0.285D+00
 Coeff-Com:  0.586D+00
 Coeff:      0.850D-04-0.282D-02 0.453D-02 0.152D-01 0.112D+00 0.285D+00
 Coeff:      0.586D+00
 Gap=     0.368 Goal=   None    Shift=    0.000
 RMSDP=6.21D-08 MaxDP=2.55D-06 DE=-3.87D-09 OVMax= 2.70D-06

 Cycle   8  Pass 1  IDiag  1:
 E= -516.293412963682     Delta-E=       -0.000000000280 Rises=F Damp=F
 DIIS: error= 3.84D-07 at cycle   8 NSaved=   8.
 NSaved= 8 IEnMin= 8 EnMin= -516.293412963682     IErMin= 8 ErrMin= 3.84D-07
 ErrMax= 3.84D-07  0.00D+00 EMaxC= 1.00D-01 BMatC= 2.05D-11 BMatP= 5.13D-10
 IDIUse=1 WtCom= 1.00D+00 WtEn= 0.00D+00
 Coeff-Com:  0.410D-04-0.101D-02 0.221D-03 0.241D-02 0.272D-01 0.890D-01
 Coeff-Com:  0.251D+00 0.631D+00
 Coeff:      0.410D-04-0.101D-02 0.221D-03 0.241D-02 0.272D-01 0.890D-01
 Coeff:      0.251D+00 0.631D+00
 Gap=     0.368 Goal=   None    Shift=    0.000
 RMSDP=1.60D-08 MaxDP=8.42D-07 DE=-2.80D-10 OVMax= 8.94D-07

 Cycle   9  Pass 1  IDiag  1:
 E= -516.293412963694     Delta-E=       -0.000000000013 Rises=F Damp=F
 DIIS: error= 6.54D-08 at cycle   9 NSaved=   9.
 NSaved= 9 IEnMin= 9 EnMin= -516.293412963694     IErMin= 9 ErrMin= 6.54D-08
 ErrMax= 6.54D-08  0.00D+00 EMaxC= 1.00D-01 BMatC= 1.03D-12 BMatP= 2.05D-11
 IDIUse=1 WtCom= 1.00D+00 WtEn= 0.00D+00
 Coeff-Com:  0.840D-05-0.146D-03-0.267D-03-0.269D-03 0.139D-02 0.112D-01
 Coeff-Com:  0.493D-01 0.237D+00 0.702D+00
 Coeff:      0.840D-05-0.146D-03-0.267D-03-0.269D-03 0.139D-02 0.112D-01
 Coeff:      0.493D-01 0.237D+00 0.702D+00
 Gap=     0.368 Goal=   None    Shift=    0.000
 RMSDP=4.70D-09 MaxDP=1.94D-07 DE=-1.26D-11 OVMax= 2.39D-07

 SCF Done:  E(RB3LYP) =  -516.293412964     A.U. after    9 cycles
            NFock=  9  Conv=0.47D-08     -V/T= 2.0030
 KE= 5.147332576674D+02 PE=-1.904837118127D+03 EE= 5.334713571353D+02
 Leave Link  502 at Thu Jun 13 12:26:58 2024, MaxMem=  1073741824 cpu:        89.4
 (Enter /apps/z_install_tree/linux-rocky8-ivybridge/gcc-12.2.0/gaussian-09-D.01-wczn3gur5lpur3omlkzwa2l5ecyxp5ef/g09/l508.exe)
 QCSCF skips out because SCF is already converged.
 Leave Link  508 at Thu Jun 13 12:26:58 2024, MaxMem=  1073741824 cpu:         0.0
 (Enter /apps/z_install_tree/linux-rocky8-ivybridge/gcc-12.2.0/gaussian-09-D.01-wczn3gur5lpur3omlkzwa2l5ecyxp5ef/g09/l701.exe)
 Compute integral first derivatives.
 ... and contract with generalized density number  0.
 R6Disp: Adding Grimme-D3 dispersion energy 1st derivatives to the gradient.
 Leave Link  701 at Thu Jun 13 12:26:58 2024, MaxMem=  1073741824 cpu:         6.1
 (Enter /apps/z_install_tree/linux-rocky8-ivybridge/gcc-12.2.0/gaussian-09-D.01-wczn3gur5lpur3omlkzwa2l5ecyxp5ef/g09/l702.exe)
 L702 exits ... SP integral derivatives will be done elsewhere.
 Leave Link  702 at Thu Jun 13 12:26:58 2024, MaxMem=  1073741824 cpu:         0.2
 (Enter /apps/z_install_tree/linux-rocky8-ivybridge/gcc-12.2.0/gaussian-09-D.01-wczn3gur5lpur3omlkzwa2l5ecyxp5ef/g09/l703.exe)
 Compute integral first derivatives, UseDBF=F ICtDFT=           0.
 Integral derivatives from FoFJK, PRISM(SPDF).
 Calling FoFJK, ICntrl=      2127 FMM=F ISym2X=0 I1Cent= 0 IOpClX= 0 NMat=1 NMatS=1 NMatT=0.
 FoFJK:  IHMeth= 1 ICntrl=    2127 DoSepK=F KAlg= 0 I1Cent=   0 FoldK=F
 IRaf=         0 NMat=   1 IRICut=       1 DoRegI=T DoRafI=F ISym2E= 0.
 FoFCou: FMM=F IPFlag=           0 FMFlag=      100000 FMFlg1=         800
         NFxFlg=           0 DoJE=F BraDBF=F KetDBF=F FulRan=T
         wScrn=  0.000000 ICntrl=    2127 IOpCl=  0 I1Cent=           0 NGrid=           0
         NMat0=    1 NMatS0=      1 NMatT0=    0 NMatD0=    1 NMtDS0=    0 NMtDT0=    0
 Symmetry not used in FoFCou.
 Leave Link  703 at Thu Jun 13 12:27:00 2024, MaxMem=  1073741824 cpu:        32.0
 (Enter /apps/z_install_tree/linux-rocky8-ivybridge/gcc-12.2.0/gaussian-09-D.01-wczn3gur5lpur3omlkzwa2l5ecyxp5ef/g09/l716.exe)
 Dipole        = 2.30346876D-02 7.59577023D-03-1.79374654D-01
 -------------------------------------------------------------------
 Center     Atomic                   Forces (Hartrees/Bohr)
 Number     Number              X              Y              Z
 -------------------------------------------------------------------
      1        6           0.000195928   -0.000471521    0.000869748
      2        6          -0.000403502   -0.000305021   -0.000052244
      3        6           0.000008892    0.000361477    0.001311888
      4        9          -0.000271195   -0.000304800    0.000243535
      5        9           0.000739438    0.000098666   -0.000106234
      6        9          -0.000238022    0.000681586   -0.000226955
      7        9           0.000067830   -0.000562465   -0.002487412
      8        1           0.000181679    0.000206188   -0.000165629
      9        1          -0.000411906    0.000058448    0.000022943
     10        1           0.000050731   -0.000019966    0.000207880
     11        1           0.000080127    0.000257407    0.000382481
 -------------------------------------------------------------------
 Cartesian Forces:  Max     0.002487412 RMS     0.000591448
 Leave Link  716 at Thu Jun 13 12:27:00 2024, MaxMem=  1073741824 cpu:         0.3
 (Enter /apps/z_install_tree/linux-rocky8-ivybridge/gcc-12.2.0/gaussian-09-D.01-wczn3gur5lpur3omlkzwa2l5ecyxp5ef/g09/l103.exe)

 GradGradGradGradGradGradGradGradGradGradGradGradGradGradGradGradGradGrad
 Berny optimization.
 Using GEDIIS/GDIIS optimizer.
 FormGI is forming the generalized inverse of G from B-inverse, IUseBI=4.
 Internal  Forces:  Max     0.002547788 RMS     0.000448026
 Search for a local minimum.
 Step number   8 out of a maximum of   56
 All quantities printed in internal units (Hartrees-Bohrs-Radians)
 RMS Force = .44803D-03 SwitMx=.10000D-02 MixMth= 2
 Mixed Optimization -- En-DIIS/RFO-DIIS
 Swapping is turned off.
 Update second derivatives using D2CorX and points    5    6    7    8
 DE= -1.57D-04 DEPred=-1.58D-04 R= 9.98D-01
 TightC=F SS=  1.41D+00  RLast= 1.60D-01 DXNew= 1.6584D+00 4.8112D-01
 Trust test= 9.98D-01 RLast= 1.60D-01 DXMaxT set to 9.86D-01
 ITU=  1  1  1  1  0  0  1  0
     Eigenvalues ---    0.00211   0.00404   0.03740   0.04557   0.04997
     Eigenvalues ---    0.05776   0.08296   0.08383   0.09113   0.12012
     Eigenvalues ---    0.13762   0.15455   0.16060   0.17250   0.21828
     Eigenvalues ---    0.22693   0.23772   0.24969   0.24999   0.27249
     Eigenvalues ---    0.29864   0.32831   0.33807   0.34063   0.34082
     Eigenvalues ---    0.34325   0.41838
 En-DIIS/RFO-DIIS IScMMF=        0 using points:     8    7
 RFO step:  Lambda=-2.47388093D-05.
 NNeg= 0 NP= 2 Switch=  2.50D-03 Rises=F DC=  1.57D-04 SmlDif=  1.00D-05
 RMS Error=  0.1696123560D-02 NUsed= 2 EDIIS=F
 DidBck=F Rises=F RFO-DIIS coefs:    1.11551   -0.11551
 Iteration  1 RMS(Cart)=  0.03035552 RMS(Int)=  0.00050105
 Iteration  2 RMS(Cart)=  0.00054326 RMS(Int)=  0.00000730
 Iteration  3 RMS(Cart)=  0.00000014 RMS(Int)=  0.00000730
 ITry= 1 IFail=0 DXMaxC= 8.17D-02 DCOld= 1.00D+10 DXMaxT= 9.86D-01 DXLimC= 3.00D+00 Rises=F
 Variable       Old X    -DE/DX   Delta X   Delta X   Delta X     New X
                                 (Linear)    (Quad)   (Total)
    R1        2.84915  -0.00010  -0.00159  -0.00438  -0.00597   2.84318
    R2        2.87216   0.00042  -0.00015   0.00135   0.00120   2.87336
    R3        2.05670   0.00006   0.00006   0.00037   0.00043   2.05713
    R4        2.05734   0.00003   0.00015   0.00048   0.00063   2.05797
    R5        2.55759  -0.00030  -0.00047  -0.00893  -0.00940   2.54819
    R6        2.54809  -0.00073   0.00080  -0.00192  -0.00112   2.54697
    R7        2.55755  -0.00066   0.00069  -0.00145  -0.00076   2.55679
    R8        2.63366   0.00255  -0.00181   0.01714   0.01533   2.64899
    R9        2.05847   0.00014   0.00005   0.00053   0.00058   2.05905
   R10        2.05717   0.00029   0.00008   0.00108   0.00116   2.05833
    A1        1.95825   0.00027  -0.00069  -0.00008  -0.00077   1.95748
    A2        1.88318  -0.00005   0.00047  -0.00023   0.00024   1.88342
    A3        1.87821  -0.00010  -0.00028   0.00004  -0.00024   1.87796
    A4        1.93042  -0.00023   0.00052  -0.00189  -0.00137   1.92905
    A5        1.91659   0.00010   0.00064   0.00454   0.00518   1.92176
    A6        1.89531   0.00000  -0.00069  -0.00251  -0.00320   1.89211
    A7        1.95210   0.00045   0.00031   0.00169   0.00200   1.95409
    A8        1.94504   0.00017  -0.00009   0.00113   0.00104   1.94608
    A9        1.95104   0.00017   0.00017   0.00183   0.00201   1.95305
   A10        1.87269  -0.00035   0.00024  -0.00173  -0.00149   1.87120
   A11        1.86637  -0.00038   0.00028  -0.00196  -0.00168   1.86469
   A12        1.87194  -0.00012  -0.00094  -0.00133  -0.00227   1.86966
   A13        1.88486   0.00038   0.00092   0.00453   0.00545   1.89031
   A14        1.94808  -0.00019  -0.00064  -0.00283  -0.00349   1.94459
   A15        1.95090  -0.00025  -0.00029  -0.00217  -0.00248   1.94842
   A16        1.88263   0.00001   0.00063   0.00214   0.00278   1.88541
   A17        1.88190   0.00005   0.00055   0.00269   0.00323   1.88514
   A18        1.91279   0.00002  -0.00104  -0.00384  -0.00492   1.90787
    D1        0.99382   0.00001   0.00469   0.03645   0.04114   1.03497
    D2        3.09009  -0.00002   0.00515   0.03618   0.04133   3.13142
    D3       -1.09851   0.00006   0.00400   0.03652   0.04051  -1.05800
    D4       -1.13702   0.00015   0.00416   0.03902   0.04319  -1.09383
    D5        0.95926   0.00013   0.00462   0.03875   0.04337   1.00262
    D6        3.05384   0.00021   0.00347   0.03909   0.04255   3.09639
    D7        3.10404   0.00023   0.00487   0.04207   0.04694  -3.13221
    D8       -1.08288   0.00021   0.00533   0.04180   0.04712  -1.03575
    D9        1.01170   0.00028   0.00418   0.04214   0.04631   1.05802
   D10        3.09070   0.00010   0.00360   0.03396   0.03756   3.12826
   D11        1.02414  -0.00003   0.00262   0.03015   0.03278   1.05693
   D12       -1.12517   0.00026   0.00468   0.03884   0.04351  -1.08166
   D13       -1.08877   0.00006   0.00409   0.03230   0.03639  -1.05238
   D14        3.12785  -0.00008   0.00311   0.02849   0.03162  -3.12371
   D15        0.97854   0.00022   0.00517   0.03718   0.04235   1.02088
   D16        1.00277  -0.00002   0.00397   0.03090   0.03487   1.03763
   D17       -1.06379  -0.00015   0.00299   0.02709   0.03009  -1.03370
   D18        3.07008   0.00014   0.00505   0.03578   0.04082   3.11090
         Item               Value     Threshold  Converged?
 Maximum Force            0.002548     0.000450     NO 
 RMS     Force            0.000448     0.000300     NO 
 Maximum Displacement     0.081730     0.001800     NO 
 RMS     Displacement     0.030375     0.001200     NO 
 Predicted change in Energy=-6.620676D-05
 Lowest energy point so far.  Saving SCF results.
 GradGradGradGradGradGradGradGradGradGradGradGradGradGradGradGradGradGrad

 Leave Link  103 at Thu Jun 13 12:27:00 2024, MaxMem=  1073741824 cpu:         1.4
 (Enter /apps/z_install_tree/linux-rocky8-ivybridge/gcc-12.2.0/gaussian-09-D.01-wczn3gur5lpur3omlkzwa2l5ecyxp5ef/g09/l202.exe)
                          Input orientation:                          
 ---------------------------------------------------------------------
 Center     Atomic      Atomic             Coordinates (Angstroms)
 Number     Number       Type             X           Y           Z
 ---------------------------------------------------------------------
      1          6           0       50.129067   35.360615   31.906471
      2          6           0       50.072753   35.647898   33.382263
      3          6           0       51.501170   35.648959   31.318108
      4          9           0       50.364505   36.935445   33.656877
      5          9           0       48.848048   35.399980   33.887434
      6          9           0       50.951523   34.889936   34.077859
      7          9           0       51.468296   35.338674   29.951489
      8          1           0       49.368999   35.967790   31.417948
      9          1           0       49.874138   34.311296   31.765316
     10          1           0       52.271148   35.035288   31.784777
     11          1           0       51.768352   36.700121   31.418459
 ---------------------------------------------------------------------
                    Distance matrix (angstroms):
                    1          2          3          4          5
     1  C    0.000000
     2  C    1.504548   0.000000
     3  C    1.520519   2.510201   0.000000
     4  F    2.366314   1.348446   2.901188   0.000000
     5  F    2.359402   1.347800   3.701686   2.170357   0.000000
     6  F    2.369156   1.352996   2.914524   2.169314   2.172790
     7  F    2.369803   3.716634   1.401786   4.183053   4.728755
     8  H    1.088586   2.110956   2.158187   2.634424   2.586921
     9  H    1.089029   2.107243   2.153269   3.271792   2.596436
    10  H    2.170059   2.785712   1.089604   3.278817   4.033830
    11  H    2.172484   2.799777   1.089219   2.652674   4.039106
                    6          7          8          9         10
     6  F    0.000000
     7  F    4.182744   0.000000
     8  H    3.277389   2.636918   0.000000
     9  H    2.615997   2.624273   1.766296   0.000000
    10  H    2.649672   2.024242   3.070275   2.504037   0.000000
    11  H    3.319094   2.023752   2.508625   3.068361   1.777262
                   11
    11  H    0.000000
 Symmetry turned off by external request.
 Stoichiometry    C3H4F4
 Framework group  C1[X(C3H4F4)]
 Deg. of freedom    27
 Full point group                 C1      NOp   1
 Rotational constants (GHZ):      5.0202170      1.4144820      1.3952299
 Leave Link  202 at Thu Jun 13 12:27:01 2024, MaxMem=  1073741824 cpu:         0.7
 (Enter /apps/z_install_tree/linux-rocky8-ivybridge/gcc-12.2.0/gaussian-09-D.01-wczn3gur5lpur3omlkzwa2l5ecyxp5ef/g09/l301.exe)
 Basis read from rwf:  (5D, 7F)
 No pseudopotential information found on rwf file.
   225 basis functions,   338 primitive gaussians,   239 cartesian basis functions
    29 alpha electrons       29 beta electrons
       nuclear repulsion energy       340.4026164390 Hartrees.
 IExCor=  402 DFT=T Ex+Corr=B3LYP ExCW=0 ScaHFX=  0.200000
 ScaDFX=  0.800000  0.720000  1.000000  0.810000 ScalE2=  1.000000  1.000000
 IRadAn=      5 IRanWt=     -1 IRanGd=            0 ICorTp=0 IEmpDi=131
 NAtoms=   11 NActive=   11 NUniq=   11 SFac= 1.00D+00 NAtFMM=   60 NAOKFM=F Big=F
 Integral buffers will be    131072 words long.
 Raffenetti 2 integral format.
 Two-electron integral symmetry is turned off.
 R6Disp:  Grimme-D3 Dispersion energy=       -0.0072925956 Hartrees.
 Nuclear repulsion after empirical dispersion term =      340.3953238434 Hartrees.
 No density basis found on file   724.
 Leave Link  301 at Thu Jun 13 12:27:01 2024, MaxMem=  1073741824 cpu:         1.0
 (Enter /apps/z_install_tree/linux-rocky8-ivybridge/gcc-12.2.0/gaussian-09-D.01-wczn3gur5lpur3omlkzwa2l5ecyxp5ef/g09/l302.exe)
 NPDir=0 NMtPBC=     1 NCelOv=     1 NCel=       1 NClECP=     1 NCelD=      1
         NCelK=      1 NCelE2=     1 NClLst=     1 CellRange=     0.0.
 One-electron integrals computed using PRISM.
 NBasis=   225 RedAO= T EigKep=  6.67D-05  NBF=   225
 NBsUse=   225 1.00D-06 EigRej= -1.00D+00 NBFU=   225
 Precomputing XC quadrature grid using
 IXCGrd= 4 IRadAn=           5 IRanWt=          -1 IRanGd=           0 AccXCQ= 0.00D+00.
 Generated NRdTot=       0 NPtTot=           0 NUsed=           0 NTot=          32
 NSgBfM=   239   239   239   239   239 MxSgAt=    11 MxSgA2=    11.
 Leave Link  302 at Thu Jun 13 12:27:01 2024, MaxMem=  1073741824 cpu:         3.2
 (Enter /apps/z_install_tree/linux-rocky8-ivybridge/gcc-12.2.0/gaussian-09-D.01-wczn3gur5lpur3omlkzwa2l5ecyxp5ef/g09/l303.exe)
 DipDrv:  MaxL=1.
 Leave Link  303 at Thu Jun 13 12:27:01 2024, MaxMem=  1073741824 cpu:         3.0
 (Enter /apps/z_install_tree/linux-rocky8-ivybridge/gcc-12.2.0/gaussian-09-D.01-wczn3gur5lpur3omlkzwa2l5ecyxp5ef/g09/l401.exe)
 Initial guess from the checkpoint file:  "tetrafluoropropane.chk"
 B after Tr=     1.293402   -2.401263    0.689336
         Rot=    0.999936    0.002978   -0.001519   -0.010818 Ang=   1.30 deg.
 Guess basis will be translated and rotated to current coordinates.
 JPrj=2 DoOrth=T DoCkMO=T.
 Generating alternative initial guess.
 ExpMin= 4.38D-02 ExpMax= 1.14D+04 ExpMxC= 1.72D+03 IAcc=2 IRadAn=         4 AccDes= 0.00D+00
 Harris functional with IExCor=  402 and IRadAn=       4 diagonalized for initial guess.
 HarFok:  IExCor=  402 AccDes= 0.00D+00 IRadAn=         4 IDoV= 1 UseB2=F ITyADJ=14
 ICtDFT=  3500011 ScaDFX=  1.000000  1.000000  1.000000  1.000000
 FoFCou: FMM=F IPFlag=           0 FMFlag=      100000 FMFlg1=           0
         NFxFlg=           0 DoJE=T BraDBF=F KetDBF=T FulRan=T
         wScrn=  0.000000 ICntrl=     500 IOpCl=  0 I1Cent=   200000004 NGrid=           0
         NMat0=    1 NMatS0=      1 NMatT0=    0 NMatD0=    1 NMtDS0=    0 NMtDT0=    0
 Symmetry not used in FoFCou.
 Harris En= -516.274414689816    
 Leave Link  401 at Thu Jun 13 12:27:02 2024, MaxMem=  1073741824 cpu:         8.6
 (Enter /apps/z_install_tree/linux-rocky8-ivybridge/gcc-12.2.0/gaussian-09-D.01-wczn3gur5lpur3omlkzwa2l5ecyxp5ef/g09/l502.exe)
 Closed shell SCF:
 Using DIIS extrapolation, IDIIS=  1040.
 Two-electron integral symmetry not used.
 Keep R1 ints in memory in canonical form, NReq=330328726.
 IVT=      188821 IEndB=      188821 NGot=  1073741824 MDV=   750324979
 LenX=   750324979 LenY=   750267417
 Requested convergence on RMS density matrix=1.00D-08 within  96 cycles.
 Requested convergence on MAX density matrix=1.00D-06.
 Requested convergence on             energy=1.00D-06.
 No special actions if energy rises.
 FoFCou: FMM=F IPFlag=           0 FMFlag=           0 FMFlg1=           0
         NFxFlg=           0 DoJE=F BraDBF=F KetDBF=F FulRan=T
         wScrn=  0.000000 ICntrl=     600 IOpCl=  0 I1Cent=           0 NGrid=           0
         NMat0=    1 NMatS0=  25425 NMatT0=    0 NMatD0=    1 NMtDS0=    0 NMtDT0=    0
 Symmetry not used in FoFCou.

 Cycle   1  Pass 1  IDiag  1:
 E= -516.291761412551    
 DIIS: error= 2.47D-03 at cycle   1 NSaved=   1.
 NSaved= 1 IEnMin= 1 EnMin= -516.291761412551     IErMin= 1 ErrMin= 2.47D-03
 ErrMax= 2.47D-03  0.00D+00 EMaxC= 1.00D-01 BMatC= 1.13D-03 BMatP= 1.13D-03
 IDIUse=3 WtCom= 9.75D-01 WtEn= 2.47D-02
 Coeff-Com:  0.100D+01
 Coeff-En:   0.100D+01
 Coeff:      0.100D+01
 Gap=     0.635 Goal=   None    Shift=    0.000
 GapD=    0.635 DampG=2.000 DampE=1.000 DampFc=2.0000 IDamp=-1.
 RMSDP=2.46D-04 MaxDP=6.78D-03              OVMax= 1.51D-02

 Cycle   2  Pass 1  IDiag  1:
 E= -516.293404822158     Delta-E=       -0.001643409607 Rises=F Damp=F
 DIIS: error= 2.36D-04 at cycle   2 NSaved=   2.
 NSaved= 2 IEnMin= 2 EnMin= -516.293404822158     IErMin= 2 ErrMin= 2.36D-04
 ErrMax= 2.36D-04  0.00D+00 EMaxC= 1.00D-01 BMatC= 2.14D-05 BMatP= 1.13D-03
 IDIUse=3 WtCom= 9.98D-01 WtEn= 2.36D-03
 Coeff-Com: -0.481D-01 0.105D+01
 Coeff-En:   0.000D+00 0.100D+01
 Coeff:     -0.480D-01 0.105D+01
 Gap=     0.369 Goal=   None    Shift=    0.000
 RMSDP=2.81D-05 MaxDP=7.13D-04 DE=-1.64D-03 OVMax= 1.52D-03

 Cycle   3  Pass 1  IDiag  1:
 E= -516.293412760636     Delta-E=       -0.000007938478 Rises=F Damp=F
 DIIS: error= 2.47D-04 at cycle   3 NSaved=   3.
 NSaved= 3 IEnMin= 3 EnMin= -516.293412760636     IErMin= 2 ErrMin= 2.36D-04
 ErrMax= 2.47D-04  0.00D+00 EMaxC= 1.00D-01 BMatC= 2.49D-05 BMatP= 2.14D-05
 IDIUse=3 WtCom= 3.89D-01 WtEn= 6.11D-01
 Coeff-Com: -0.394D-01 0.571D+00 0.468D+00
 Coeff-En:   0.000D+00 0.318D+00 0.682D+00
 Coeff:     -0.153D-01 0.417D+00 0.599D+00
 Gap=     0.368 Goal=   None    Shift=    0.000
 RMSDP=1.70D-05 MaxDP=6.28D-04 DE=-7.94D-06 OVMax= 1.09D-03

 Cycle   4  Pass 1  IDiag  1:
 E= -516.293422919395     Delta-E=       -0.000010158759 Rises=F Damp=F
 DIIS: error= 1.39D-04 at cycle   4 NSaved=   4.
 NSaved= 4 IEnMin= 4 EnMin= -516.293422919395     IErMin= 4 ErrMin= 1.39D-04
 ErrMax= 1.39D-04  0.00D+00 EMaxC= 1.00D-01 BMatC= 8.15D-06 BMatP= 2.14D-05
 IDIUse=3 WtCom= 9.99D-01 WtEn= 1.39D-03
 Coeff-Com: -0.102D-01 0.115D+00 0.372D+00 0.523D+00
 Coeff-En:   0.000D+00 0.000D+00 0.266D+00 0.734D+00
 Coeff:     -0.102D-01 0.115D+00 0.371D+00 0.523D+00
 Gap=     0.368 Goal=   None    Shift=    0.000
 RMSDP=6.43D-06 MaxDP=2.34D-04 DE=-1.02D-05 OVMax= 4.51D-04

 Cycle   5  Pass 1  IDiag  1:
 E= -516.293427580326     Delta-E=       -0.000004660931 Rises=F Damp=F
 DIIS: error= 1.57D-05 at cycle   5 NSaved=   5.
 NSaved= 5 IEnMin= 5 EnMin= -516.293427580326     IErMin= 5 ErrMin= 1.57D-05
 ErrMax= 1.57D-05  0.00D+00 EMaxC= 1.00D-01 BMatC= 7.38D-08 BMatP= 8.15D-06
 IDIUse=1 WtCom= 1.00D+00 WtEn= 0.00D+00
 Coeff-Com: -0.182D-02 0.132D-01 0.132D+00 0.229D+00 0.628D+00
 Coeff:     -0.182D-02 0.132D-01 0.132D+00 0.229D+00 0.628D+00
 Gap=     0.368 Goal=   None    Shift=    0.000
 RMSDP=1.03D-06 MaxDP=5.56D-05 DE=-4.66D-06 OVMax= 5.58D-05

 Cycle   6  Pass 1  IDiag  1:
 E= -516.293427637395     Delta-E=       -0.000000057069 Rises=F Damp=F
 DIIS: error= 3.63D-06 at cycle   6 NSaved=   6.
 NSaved= 6 IEnMin= 6 EnMin= -516.293427637395     IErMin= 6 ErrMin= 3.63D-06
 ErrMax= 3.63D-06  0.00D+00 EMaxC= 1.00D-01 BMatC= 4.36D-09 BMatP= 7.38D-08
 IDIUse=1 WtCom= 1.00D+00 WtEn= 0.00D+00
 Coeff-Com: -0.607D-04-0.349D-02 0.265D-01 0.561D-01 0.260D+00 0.661D+00
 Coeff:     -0.607D-04-0.349D-02 0.265D-01 0.561D-01 0.260D+00 0.661D+00
 Gap=     0.368 Goal=   None    Shift=    0.000
 RMSDP=2.67D-07 MaxDP=1.55D-05 DE=-5.71D-08 OVMax= 1.49D-05

 Cycle   7  Pass 1  IDiag  1:
 E= -516.293427641106     Delta-E=       -0.000000003711 Rises=F Damp=F
 DIIS: error= 8.84D-07 at cycle   7 NSaved=   7.
 NSaved= 7 IEnMin= 7 EnMin= -516.293427641106     IErMin= 7 ErrMin= 8.84D-07
 ErrMax= 8.84D-07  0.00D+00 EMaxC= 1.00D-01 BMatC= 3.01D-10 BMatP= 4.36D-09
 IDIUse=1 WtCom= 1.00D+00 WtEn= 0.00D+00
 Coeff-Com:  0.774D-04-0.249D-02 0.426D-02 0.121D-01 0.799D-01 0.288D+00
 Coeff-Com:  0.619D+00
 Coeff:      0.774D-04-0.249D-02 0.426D-02 0.121D-01 0.799D-01 0.288D+00
 Coeff:      0.619D+00
 Gap=     0.368 Goal=   None    Shift=    0.000
 RMSDP=7.15D-08 MaxDP=1.99D-06 DE=-3.71D-09 OVMax= 3.44D-06

 Cycle   8  Pass 1  IDiag  1:
 E= -516.293427641309     Delta-E=       -0.000000000203 Rises=F Damp=F
 DIIS: error= 4.20D-07 at cycle   8 NSaved=   8.
 NSaved= 8 IEnMin= 8 EnMin= -516.293427641309     IErMin= 8 ErrMin= 4.20D-07
 ErrMax= 4.20D-07  0.00D+00 EMaxC= 1.00D-01 BMatC= 5.28D-11 BMatP= 3.01D-10
 IDIUse=1 WtCom= 1.00D+00 WtEn= 0.00D+00
 Coeff-Com:  0.469D-04-0.115D-02 0.466D-03 0.270D-02 0.259D-01 0.114D+00
 Coeff-Com:  0.352D+00 0.506D+00
 Coeff:      0.469D-04-0.115D-02 0.466D-03 0.270D-02 0.259D-01 0.114D+00
 Coeff:      0.352D+00 0.506D+00
 Gap=     0.368 Goal=   None    Shift=    0.000
 RMSDP=1.89D-08 MaxDP=8.11D-07 DE=-2.03D-10 OVMax= 9.56D-07

 Cycle   9  Pass 1  IDiag  1:
 E= -516.293427641342     Delta-E=       -0.000000000033 Rises=F Damp=F
 DIIS: error= 5.13D-08 at cycle   9 NSaved=   9.
 NSaved= 9 IEnMin= 9 EnMin= -516.293427641342     IErMin= 9 ErrMin= 5.13D-08
 ErrMax= 5.13D-08  0.00D+00 EMaxC= 1.00D-01 BMatC= 1.52D-12 BMatP= 5.28D-11
 IDIUse=1 WtCom= 1.00D+00 WtEn= 0.00D+00
 Coeff-Com:  0.963D-05-0.171D-03-0.322D-03-0.340D-03 0.131D-02 0.147D-01
 Coeff-Com:  0.806D-01 0.193D+00 0.712D+00
 Coeff:      0.963D-05-0.171D-03-0.322D-03-0.340D-03 0.131D-02 0.147D-01
 Coeff:      0.806D-01 0.193D+00 0.712D+00
 Gap=     0.368 Goal=   None    Shift=    0.000
 RMSDP=4.73D-09 MaxDP=1.49D-07 DE=-3.30D-11 OVMax= 2.22D-07

 SCF Done:  E(RB3LYP) =  -516.293427641     A.U. after    9 cycles
            NFock=  9  Conv=0.47D-08     -V/T= 2.0030
 KE= 5.147332614410D+02 PE=-1.904944253988D+03 EE= 5.335222410626D+02
 Leave Link  502 at Thu Jun 13 12:27:09 2024, MaxMem=  1073741824 cpu:        87.1
 (Enter /apps/z_install_tree/linux-rocky8-ivybridge/gcc-12.2.0/gaussian-09-D.01-wczn3gur5lpur3omlkzwa2l5ecyxp5ef/g09/l508.exe)
 QCSCF skips out because SCF is already converged.
 Leave Link  508 at Thu Jun 13 12:27:10 2024, MaxMem=  1073741824 cpu:         0.0
 (Enter /apps/z_install_tree/linux-rocky8-ivybridge/gcc-12.2.0/gaussian-09-D.01-wczn3gur5lpur3omlkzwa2l5ecyxp5ef/g09/l701.exe)
 Compute integral first derivatives.
 ... and contract with generalized density number  0.
 R6Disp: Adding Grimme-D3 dispersion energy 1st derivatives to the gradient.
 Leave Link  701 at Thu Jun 13 12:27:10 2024, MaxMem=  1073741824 cpu:         3.0
 (Enter /apps/z_install_tree/linux-rocky8-ivybridge/gcc-12.2.0/gaussian-09-D.01-wczn3gur5lpur3omlkzwa2l5ecyxp5ef/g09/l702.exe)
 L702 exits ... SP integral derivatives will be done elsewhere.
 Leave Link  702 at Thu Jun 13 12:27:10 2024, MaxMem=  1073741824 cpu:         0.2
 (Enter /apps/z_install_tree/linux-rocky8-ivybridge/gcc-12.2.0/gaussian-09-D.01-wczn3gur5lpur3omlkzwa2l5ecyxp5ef/g09/l703.exe)
 Compute integral first derivatives, UseDBF=F ICtDFT=           0.
 Integral derivatives from FoFJK, PRISM(SPDF).
 Calling FoFJK, ICntrl=      2127 FMM=F ISym2X=0 I1Cent= 0 IOpClX= 0 NMat=1 NMatS=1 NMatT=0.
 FoFJK:  IHMeth= 1 ICntrl=    2127 DoSepK=F KAlg= 0 I1Cent=   0 FoldK=F
 IRaf=         0 NMat=   1 IRICut=       1 DoRegI=T DoRafI=F ISym2E= 0.
 FoFCou: FMM=F IPFlag=           0 FMFlag=      100000 FMFlg1=         800
         NFxFlg=           0 DoJE=F BraDBF=F KetDBF=F FulRan=T
         wScrn=  0.000000 ICntrl=    2127 IOpCl=  0 I1Cent=           0 NGrid=           0
         NMat0=    1 NMatS0=      1 NMatT0=    0 NMatD0=    1 NMtDS0=    0 NMtDT0=    0
 Symmetry not used in FoFCou.
 Leave Link  703 at Thu Jun 13 12:27:12 2024, MaxMem=  1073741824 cpu:        31.8
 (Enter /apps/z_install_tree/linux-rocky8-ivybridge/gcc-12.2.0/gaussian-09-D.01-wczn3gur5lpur3omlkzwa2l5ecyxp5ef/g09/l716.exe)
 Dipole        = 2.63698044D-02-8.39029674D-03-1.60010953D-01
 -------------------------------------------------------------------
 Center     Atomic                   Forces (Hartrees/Bohr)
 Number     Number              X              Y              Z
 -------------------------------------------------------------------
      1        6           0.000041617   -0.001406267   -0.002006711
      2        6          -0.000872268   -0.001578893    0.001402828
      3        6           0.000222476   -0.000335129   -0.001165062
      4        9           0.000709904    0.003154083    0.000440793
      5        9          -0.000550541   -0.000289722   -0.000253110
      6        9           0.000575825   -0.000519875   -0.000071074
      7        9          -0.000085838    0.000724383    0.003317991
      8        1           0.000233196    0.000302107    0.000023373
      9        1          -0.000001426    0.000166213   -0.000117448
     10        1          -0.000078936   -0.000202598   -0.000835225
     11        1          -0.000194010   -0.000014302   -0.000736356
 -------------------------------------------------------------------
 Cartesian Forces:  Max     0.003317991 RMS     0.001066079
 Leave Link  716 at Thu Jun 13 12:27:12 2024, MaxMem=  1073741824 cpu:         0.5
 (Enter /apps/z_install_tree/linux-rocky8-ivybridge/gcc-12.2.0/gaussian-09-D.01-wczn3gur5lpur3omlkzwa2l5ecyxp5ef/g09/l103.exe)

 GradGradGradGradGradGradGradGradGradGradGradGradGradGradGradGradGradGrad
 Berny optimization.
 Using GEDIIS/GDIIS optimizer.
 FormGI is forming the generalized inverse of G from B-inverse, IUseBI=4.
 Internal  Forces:  Max     0.003392713 RMS     0.000800406
 Search for a local minimum.
 Step number   9 out of a maximum of   56
 All quantities printed in internal units (Hartrees-Bohrs-Radians)
 RMS Force = .80041D-03 SwitMx=.10000D-02 MixMth= 2
 Mixed Optimization -- En-DIIS/RFO-DIIS
 Swapping is turned off.
 Update second derivatives using D2CorX and points    5    6    7    8    9
 DE= -1.47D-05 DEPred=-6.62D-05 R= 2.22D-01
 Trust test= 2.22D-01 RLast= 1.73D-01 DXMaxT set to 9.86D-01
 ITU=  0  1  1  1  1  0  0  1  0
     Eigenvalues ---    0.00163   0.00339   0.03742   0.04819   0.05442
     Eigenvalues ---    0.05742   0.08276   0.08361   0.09252   0.11990
     Eigenvalues ---    0.15076   0.16010   0.17209   0.21170   0.22145
     Eigenvalues ---    0.23163   0.24682   0.24984   0.26576   0.28470
     Eigenvalues ---    0.28910   0.32588   0.33831   0.34074   0.34093
     Eigenvalues ---    0.34264   0.47894
 En-DIIS/RFO-DIIS IScMMF=        0 using points:     9    8    7
 RFO step:  Lambda=-4.92555743D-05.
 NNeg= 0 NP= 3 Switch=  2.50D-03 Rises=F DC=  1.57D-04 SmlDif=  1.00D-05
 RMS Error=  0.1393710382D-02 NUsed= 3 EDIIS=F
 DidBck=T Rises=F RFO-DIIS coefs:    0.54587    0.59450   -0.14037
 Iteration  1 RMS(Cart)=  0.00540004 RMS(Int)=  0.00001709
 Iteration  2 RMS(Cart)=  0.00001781 RMS(Int)=  0.00000369
 Iteration  3 RMS(Cart)=  0.00000000 RMS(Int)=  0.00000369
 ITry= 1 IFail=0 DXMaxC= 1.36D-02 DCOld= 1.00D+10 DXMaxT= 9.86D-01 DXLimC= 3.00D+00 Rises=F
 Variable       Old X    -DE/DX   Delta X   Delta X   Delta X     New X
                                 (Linear)    (Quad)   (Total)
    R1        2.84318   0.00164   0.00078   0.00169   0.00248   2.84566
    R2        2.87336  -0.00032  -0.00073   0.00049  -0.00024   2.87312
    R3        2.05713   0.00000  -0.00012   0.00014   0.00001   2.05714
    R4        2.05797  -0.00014  -0.00010  -0.00011  -0.00021   2.05775
    R5        2.54819   0.00326   0.00370   0.00461   0.00831   2.55651
    R6        2.54697   0.00046   0.00148  -0.00257  -0.00109   2.54588
    R7        2.55679   0.00063   0.00118  -0.00175  -0.00057   2.55622
    R8        2.64899  -0.00339  -0.00916  -0.00094  -0.01010   2.63889
    R9        2.05905  -0.00030  -0.00020  -0.00020  -0.00040   2.05865
   R10        2.05833  -0.00013  -0.00043   0.00035  -0.00008   2.05825
    A1        1.95748   0.00023  -0.00049   0.00113   0.00065   1.95813
    A2        1.88342  -0.00013   0.00046  -0.00186  -0.00140   1.88202
    A3        1.87796   0.00008  -0.00023   0.00154   0.00132   1.87928
    A4        1.92905  -0.00021   0.00125  -0.00324  -0.00199   1.92706
    A5        1.92176  -0.00007  -0.00157   0.00259   0.00102   1.92278
    A6        1.89211   0.00011   0.00062  -0.00017   0.00045   1.89256
    A7        1.95409  -0.00010  -0.00053   0.00054   0.00001   1.95411
    A8        1.94608  -0.00066  -0.00059  -0.00034  -0.00093   1.94515
    A9        1.95305  -0.00062  -0.00070  -0.00029  -0.00099   1.95205
   A10        1.87120   0.00046   0.00097  -0.00035   0.00062   1.87182
   A11        1.86469   0.00042   0.00111  -0.00081   0.00030   1.86499
   A12        1.86966   0.00060  -0.00011   0.00126   0.00115   1.87081
   A13        1.89031  -0.00066  -0.00136  -0.00092  -0.00227   1.88804
   A14        1.94459   0.00064   0.00080   0.00163   0.00242   1.94701
   A15        1.94842   0.00031   0.00078   0.00041   0.00118   1.94960
   A16        1.88541  -0.00025  -0.00049  -0.00149  -0.00198   1.88344
   A17        1.88514  -0.00017  -0.00080  -0.00114  -0.00194   1.88320
   A18        1.90787   0.00008   0.00097   0.00132   0.00227   1.91014
    D1        1.03497  -0.00008  -0.01298   0.01823   0.00525   1.04021
    D2        3.13142  -0.00001  -0.01251   0.01792   0.00540   3.13682
    D3       -1.05800  -0.00012  -0.01354   0.01909   0.00555  -1.05245
    D4       -1.09383   0.00013  -0.01455   0.02283   0.00828  -1.08555
    D5        1.00262   0.00020  -0.01409   0.02252   0.00843   1.01106
    D6        3.09639   0.00009  -0.01511   0.02370   0.00858   3.10498
    D7       -3.13221   0.00003  -0.01540   0.02319   0.00780  -3.12441
    D8       -1.03575   0.00010  -0.01493   0.02288   0.00795  -1.02780
    D9        1.05802  -0.00001  -0.01596   0.02405   0.00810   1.06612
   D10        3.12826   0.00016  -0.01268   0.01970   0.00702   3.13528
   D11        1.05693   0.00050  -0.01170   0.02114   0.00944   1.06637
   D12       -1.08166  -0.00028  -0.01407   0.01797   0.00389  -1.07777
   D13       -1.05238   0.00000  -0.01156   0.01585   0.00429  -1.04808
   D14       -3.12371   0.00034  -0.01058   0.01729   0.00672  -3.11699
   D15        1.02088  -0.00044  -0.01294   0.01412   0.00117   1.02206
   D16        1.03763  -0.00004  -0.01101   0.01525   0.00424   1.04187
   D17       -1.03370   0.00030  -0.01003   0.01669   0.00666  -1.02704
   D18        3.11090  -0.00048  -0.01240   0.01352   0.00111   3.11201
         Item               Value     Threshold  Converged?
 Maximum Force            0.003393     0.000450     NO 
 RMS     Force            0.000800     0.000300     NO 
 Maximum Displacement     0.013607     0.001800     NO 
 RMS     Displacement     0.005399     0.001200     NO 
 Predicted change in Energy=-4.411190D-05
 Lowest energy point so far.  Saving SCF results.
 GradGradGradGradGradGradGradGradGradGradGradGradGradGradGradGradGradGrad

 Leave Link  103 at Thu Jun 13 12:27:12 2024, MaxMem=  1073741824 cpu:         8.0
 (Enter /apps/z_install_tree/linux-rocky8-ivybridge/gcc-12.2.0/gaussian-09-D.01-wczn3gur5lpur3omlkzwa2l5ecyxp5ef/g09/l202.exe)
                          Input orientation:                          
 ---------------------------------------------------------------------
 Center     Atomic      Atomic             Coordinates (Angstroms)
 Number     Number       Type             X           Y           Z
 ---------------------------------------------------------------------
      1          6           0       50.129814   35.359447   31.906382
      2          6           0       50.071701   35.648440   33.383107
      3          6           0       51.502193   35.646858   31.318537
      4          9           0       50.357746   36.941988   33.657156
      5          9           0       48.848367   35.394444   33.887037
      6          9           0       50.954673   34.895663   34.078424
      7          9           0       51.464512   35.344031   29.955848
      8          1           0       49.372036   35.969067   31.417331
      9          1           0       49.872652   34.310910   31.764329
     10          1           0       52.272052   35.028088   31.778122
     11          1           0       51.772254   36.697064   31.420726
 ---------------------------------------------------------------------
                    Distance matrix (angstroms):
                    1          2          3          4          5
     1  C    0.000000
     2  C    1.505859   0.000000
     3  C    1.520392   2.511725   0.000000
     4  F    2.370991   1.352846   2.907965   0.000000
     5  F    2.359306   1.347221   3.701851   2.173928   0.000000
     6  F    2.369231   1.352693   2.912225   2.172840   2.173002
     7  F    2.363523   3.711966   1.396440   4.180679   4.722394
     8  H    1.088593   2.111068   2.156652   2.633442   2.589183
     9  H    1.088917   2.109277   2.153808   3.277298   2.594050
    10  H    2.171504   2.793270   1.089393   3.295201   4.037742
    11  H    2.173175   2.800434   1.089178   2.657525   4.040869
                    6          7          8          9         10
     6  F    0.000000
     7  F    4.178110   0.000000
     8  H    3.276942   2.627748   0.000000
     9  H    2.620638   2.621442   1.766496   0.000000
    10  H    2.654131   2.018074   3.070130   2.504326   0.000000
    11  H    3.313132   2.017739   2.508194   3.069247   1.778486
                   11
    11  H    0.000000
 Symmetry turned off by external request.
 Stoichiometry    C3H4F4
 Framework group  C1[X(C3H4F4)]
 Deg. of freedom    27
 Full point group                 C1      NOp   1
 Rotational constants (GHZ):      5.0083273      1.4159440      1.3968412
 Leave Link  202 at Thu Jun 13 12:27:13 2024, MaxMem=  1073741824 cpu:         1.1
 (Enter /apps/z_install_tree/linux-rocky8-ivybridge/gcc-12.2.0/gaussian-09-D.01-wczn3gur5lpur3omlkzwa2l5ecyxp5ef/g09/l301.exe)
 Basis read from rwf:  (5D, 7F)
 No pseudopotential information found on rwf file.
   225 basis functions,   338 primitive gaussians,   239 cartesian basis functions
    29 alpha electrons       29 beta electrons
       nuclear repulsion energy       340.3765775161 Hartrees.
 IExCor=  402 DFT=T Ex+Corr=B3LYP ExCW=0 ScaHFX=  0.200000
 ScaDFX=  0.800000  0.720000  1.000000  0.810000 ScalE2=  1.000000  1.000000
 IRadAn=      5 IRanWt=     -1 IRanGd=            0 ICorTp=0 IEmpDi=131
 NAtoms=   11 NActive=   11 NUniq=   11 SFac= 1.00D+00 NAtFMM=   60 NAOKFM=F Big=F
 Integral buffers will be    131072 words long.
 Raffenetti 2 integral format.
 Two-electron integral symmetry is turned off.
 R6Disp:  Grimme-D3 Dispersion energy=       -0.0072832254 Hartrees.
 Nuclear repulsion after empirical dispersion term =      340.3692942907 Hartrees.
 No density basis found on file   724.
 Leave Link  301 at Thu Jun 13 12:27:13 2024, MaxMem=  1073741824 cpu:         0.9
 (Enter /apps/z_install_tree/linux-rocky8-ivybridge/gcc-12.2.0/gaussian-09-D.01-wczn3gur5lpur3omlkzwa2l5ecyxp5ef/g09/l302.exe)
 NPDir=0 NMtPBC=     1 NCelOv=     1 NCel=       1 NClECP=     1 NCelD=      1
         NCelK=      1 NCelE2=     1 NClLst=     1 CellRange=     0.0.
 One-electron integrals computed using PRISM.
 NBasis=   225 RedAO= T EigKep=  6.68D-05  NBF=   225
 NBsUse=   225 1.00D-06 EigRej= -1.00D+00 NBFU=   225
 Precomputing XC quadrature grid using
 IXCGrd= 4 IRadAn=           5 IRanWt=          -1 IRanGd=           0 AccXCQ= 0.00D+00.
 Generated NRdTot=       0 NPtTot=           0 NUsed=           0 NTot=          32
 NSgBfM=   239   239   239   239   239 MxSgAt=    11 MxSgA2=    11.
 Leave Link  302 at Thu Jun 13 12:27:13 2024, MaxMem=  1073741824 cpu:         4.2
 (Enter /apps/z_install_tree/linux-rocky8-ivybridge/gcc-12.2.0/gaussian-09-D.01-wczn3gur5lpur3omlkzwa2l5ecyxp5ef/g09/l303.exe)
 DipDrv:  MaxL=1.
 Leave Link  303 at Thu Jun 13 12:27:13 2024, MaxMem=  1073741824 cpu:         2.3
 (Enter /apps/z_install_tree/linux-rocky8-ivybridge/gcc-12.2.0/gaussian-09-D.01-wczn3gur5lpur3omlkzwa2l5ecyxp5ef/g09/l401.exe)
 Initial guess from the checkpoint file:  "tetrafluoropropane.chk"
 B after Tr=     0.208524   -0.366325    0.080419
         Rot=    0.999999    0.000443   -0.000100   -0.001650 Ang=   0.20 deg.
 Guess basis will be translated and rotated to current coordinates.
 JPrj=2 DoOrth=T DoCkMO=T.
 Leave Link  401 at Thu Jun 13 12:27:14 2024, MaxMem=  1073741824 cpu:        10.6
 (Enter /apps/z_install_tree/linux-rocky8-ivybridge/gcc-12.2.0/gaussian-09-D.01-wczn3gur5lpur3omlkzwa2l5ecyxp5ef/g09/l502.exe)
 Closed shell SCF:
 Using DIIS extrapolation, IDIIS=  1040.
 Two-electron integral symmetry not used.
 Keep R1 ints in memory in canonical form, NReq=330328726.
 IVT=      188821 IEndB=      188821 NGot=  1073741824 MDV=   750324979
 LenX=   750324979 LenY=   750267417
 Requested convergence on RMS density matrix=1.00D-08 within  96 cycles.
 Requested convergence on MAX density matrix=1.00D-06.
 Requested convergence on             energy=1.00D-06.
 No special actions if energy rises.
 FoFCou: FMM=F IPFlag=           0 FMFlag=           0 FMFlg1=           0
         NFxFlg=           0 DoJE=F BraDBF=F KetDBF=F FulRan=T
         wScrn=  0.000000 ICntrl=     600 IOpCl=  0 I1Cent=           0 NGrid=           0
         NMat0=    1 NMatS0=  25425 NMatT0=    0 NMatD0=    1 NMtDS0=    0 NMtDT0=    0
 Symmetry not used in FoFCou.

 Cycle   1  Pass 1  IDiag  1:
 E= -516.293405840227    
 DIIS: error= 3.88D-04 at cycle   1 NSaved=   1.
 NSaved= 1 IEnMin= 1 EnMin= -516.293405840227     IErMin= 1 ErrMin= 3.88D-04
 ErrMax= 3.88D-04  0.00D+00 EMaxC= 1.00D-01 BMatC= 5.51D-05 BMatP= 5.51D-05
 IDIUse=3 WtCom= 9.96D-01 WtEn= 3.88D-03
 Coeff-Com:  0.100D+01
 Coeff-En:   0.100D+01
 Coeff:      0.100D+01
 Gap=     0.635 Goal=   None    Shift=    0.000
 RMSDP=5.30D-05 MaxDP=1.78D-03              OVMax= 2.52D-03

 Cycle   2  Pass 1  IDiag  1:
 E= -516.293469742289     Delta-E=       -0.000063902062 Rises=F Damp=F
 DIIS: error= 7.97D-05 at cycle   2 NSaved=   2.
 NSaved= 2 IEnMin= 2 EnMin= -516.293469742289     IErMin= 2 ErrMin= 7.97D-05
 ErrMax= 7.97D-05  0.00D+00 EMaxC= 1.00D-01 BMatC= 2.71D-06 BMatP= 5.51D-05
 IDIUse=1 WtCom= 1.00D+00 WtEn= 0.00D+00
 Coeff-Com:  0.432D-01 0.957D+00
 Coeff:      0.432D-01 0.957D+00
 Gap=     0.368 Goal=   None    Shift=    0.000
 RMSDP=7.59D-06 MaxDP=3.07D-04 DE=-6.39D-05 OVMax= 4.57D-04

 Cycle   3  Pass 1  IDiag  1:
 E= -516.293469387133     Delta-E=        0.000000355157 Rises=F Damp=F
 DIIS: error= 1.03D-04 at cycle   3 NSaved=   3.
 NSaved= 3 IEnMin= 2 EnMin= -516.293469742289     IErMin= 2 ErrMin= 7.97D-05
 ErrMax= 1.03D-04  0.00D+00 EMaxC= 1.00D-01 BMatC= 3.67D-06 BMatP= 2.71D-06
 IDIUse=3 WtCom= 4.96D-01 WtEn= 5.04D-01
 Coeff-Com: -0.229D-01 0.548D+00 0.475D+00
 Coeff-En:   0.000D+00 0.547D+00 0.453D+00
 Coeff:     -0.114D-01 0.547D+00 0.464D+00
 Gap=     0.368 Goal=   None    Shift=    0.000
 RMSDP=4.72D-06 MaxDP=1.56D-04 DE= 3.55D-07 OVMax= 2.79D-04

 Cycle   4  Pass 1  IDiag  1:
 E= -516.293471493935     Delta-E=       -0.000002106802 Rises=F Damp=F
 DIIS: error= 2.01D-05 at cycle   4 NSaved=   4.
 NSaved= 4 IEnMin= 4 EnMin= -516.293471493935     IErMin= 4 ErrMin= 2.01D-05
 ErrMax= 2.01D-05  0.00D+00 EMaxC= 1.00D-01 BMatC= 1.22D-07 BMatP= 2.71D-06
 IDIUse=1 WtCom= 1.00D+00 WtEn= 0.00D+00
 Coeff-Com: -0.120D-01 0.153D+00 0.214D+00 0.644D+00
 Coeff:     -0.120D-01 0.153D+00 0.214D+00 0.644D+00
 Gap=     0.368 Goal=   None    Shift=    0.000
 RMSDP=9.87D-07 MaxDP=3.02D-05 DE=-2.11D-06 OVMax= 5.91D-05

 Cycle   5  Pass 1  IDiag  1:
 E= -516.293471559788     Delta-E=       -0.000000065853 Rises=F Damp=F
 DIIS: error= 4.91D-06 at cycle   5 NSaved=   5.
 NSaved= 5 IEnMin= 5 EnMin= -516.293471559788     IErMin= 5 ErrMin= 4.91D-06
 ErrMax= 4.91D-06  0.00D+00 EMaxC= 1.00D-01 BMatC= 7.53D-09 BMatP= 1.22D-07
 IDIUse=1 WtCom= 1.00D+00 WtEn= 0.00D+00
 Coeff-Com: -0.357D-02 0.358D-01 0.707D-01 0.292D+00 0.605D+00
 Coeff:     -0.357D-02 0.358D-01 0.707D-01 0.292D+00 0.605D+00
 Gap=     0.368 Goal=   None    Shift=    0.000
 RMSDP=2.78D-07 MaxDP=2.00D-05 DE=-6.59D-08 OVMax= 2.02D-05

 Cycle   6  Pass 1  IDiag  1:
 E= -516.293471565909     Delta-E=       -0.000000006122 Rises=F Damp=F
 DIIS: error= 1.05D-06 at cycle   6 NSaved=   6.
 NSaved= 6 IEnMin= 6 EnMin= -516.293471565909     IErMin= 6 ErrMin= 1.05D-06
 ErrMax= 1.05D-06  0.00D+00 EMaxC= 1.00D-01 BMatC= 2.88D-10 BMatP= 7.53D-09
 IDIUse=1 WtCom= 1.00D+00 WtEn= 0.00D+00
 Coeff-Com: -0.124D-03-0.261D-02 0.250D-02 0.325D-01 0.196D+00 0.772D+00
 Coeff:     -0.124D-03-0.261D-02 0.250D-02 0.325D-01 0.196D+00 0.772D+00
 Gap=     0.368 Goal=   None    Shift=    0.000
 RMSDP=5.97D-08 MaxDP=4.23D-06 DE=-6.12D-09 OVMax= 3.70D-06

 Cycle   7  Pass 1  IDiag  1:
 E= -516.293471566155     Delta-E=       -0.000000000246 Rises=F Damp=F
 DIIS: error= 3.42D-07 at cycle   7 NSaved=   7.
 NSaved= 7 IEnMin= 7 EnMin= -516.293471566155     IErMin= 7 ErrMin= 3.42D-07
 ErrMax= 3.42D-07  0.00D+00 EMaxC= 1.00D-01 BMatC= 2.60D-11 BMatP= 2.88D-10
 IDIUse=1 WtCom= 1.00D+00 WtEn= 0.00D+00
 Coeff-Com:  0.491D-04-0.238D-02-0.114D-02 0.764D-02 0.789D-01 0.373D+00
 Coeff-Com:  0.544D+00
 Coeff:      0.491D-04-0.238D-02-0.114D-02 0.764D-02 0.789D-01 0.373D+00
 Coeff:      0.544D+00
 Gap=     0.368 Goal=   None    Shift=    0.000
 RMSDP=1.49D-08 MaxDP=5.51D-07 DE=-2.46D-10 OVMax= 1.11D-06

 Cycle   8  Pass 1  IDiag  1:
 E= -516.293471566174     Delta-E=       -0.000000000019 Rises=F Damp=F
 DIIS: error= 8.34D-08 at cycle   8 NSaved=   8.
 NSaved= 8 IEnMin= 8 EnMin= -516.293471566174     IErMin= 8 ErrMin= 8.34D-08
 ErrMax= 8.34D-08  0.00D+00 EMaxC= 1.00D-01 BMatC= 2.41D-12 BMatP= 2.60D-11
 IDIUse=1 WtCom= 1.00D+00 WtEn= 0.00D+00
 Coeff-Com:  0.284D-04-0.882D-03-0.855D-03 0.613D-03 0.189D-01 0.105D+00
 Coeff-Com:  0.274D+00 0.603D+00
 Coeff:      0.284D-04-0.882D-03-0.855D-03 0.613D-03 0.189D-01 0.105D+00
 Coeff:      0.274D+00 0.603D+00
 Gap=     0.368 Goal=   None    Shift=    0.000
 RMSDP=5.16D-09 MaxDP=1.32D-07 DE=-1.91D-11 OVMax= 2.29D-07

 SCF Done:  E(RB3LYP) =  -516.293471566     A.U. after    8 cycles
            NFock=  8  Conv=0.52D-08     -V/T= 2.0030
 KE= 5.147339079003D+02 PE=-1.904895958126D+03 EE= 5.334992843688D+02
 Leave Link  502 at Thu Jun 13 12:27:21 2024, MaxMem=  1073741824 cpu:        81.5
 (Enter /apps/z_install_tree/linux-rocky8-ivybridge/gcc-12.2.0/gaussian-09-D.01-wczn3gur5lpur3omlkzwa2l5ecyxp5ef/g09/l508.exe)
 QCSCF skips out because SCF is already converged.
 Leave Link  508 at Thu Jun 13 12:27:21 2024, MaxMem=  1073741824 cpu:         0.0
 (Enter /apps/z_install_tree/linux-rocky8-ivybridge/gcc-12.2.0/gaussian-09-D.01-wczn3gur5lpur3omlkzwa2l5ecyxp5ef/g09/l701.exe)
 Compute integral first derivatives.
 ... and contract with generalized density number  0.
 R6Disp: Adding Grimme-D3 dispersion energy 1st derivatives to the gradient.
 Leave Link  701 at Thu Jun 13 12:27:22 2024, MaxMem=  1073741824 cpu:         3.4
 (Enter /apps/z_install_tree/linux-rocky8-ivybridge/gcc-12.2.0/gaussian-09-D.01-wczn3gur5lpur3omlkzwa2l5ecyxp5ef/g09/l702.exe)
 L702 exits ... SP integral derivatives will be done elsewhere.
 Leave Link  702 at Thu Jun 13 12:27:22 2024, MaxMem=  1073741824 cpu:         0.2
 (Enter /apps/z_install_tree/linux-rocky8-ivybridge/gcc-12.2.0/gaussian-09-D.01-wczn3gur5lpur3omlkzwa2l5ecyxp5ef/g09/l703.exe)
 Compute integral first derivatives, UseDBF=F ICtDFT=           0.
 Integral derivatives from FoFJK, PRISM(SPDF).
 Calling FoFJK, ICntrl=      2127 FMM=F ISym2X=0 I1Cent= 0 IOpClX= 0 NMat=1 NMatS=1 NMatT=0.
 FoFJK:  IHMeth= 1 ICntrl=    2127 DoSepK=F KAlg= 0 I1Cent=   0 FoldK=F
 IRaf=         0 NMat=   1 IRICut=       1 DoRegI=T DoRafI=F ISym2E= 0.
 FoFCou: FMM=F IPFlag=           0 FMFlag=      100000 FMFlg1=         800
         NFxFlg=           0 DoJE=F BraDBF=F KetDBF=F FulRan=T
         wScrn=  0.000000 ICntrl=    2127 IOpCl=  0 I1Cent=           0 NGrid=           0
         NMat0=    1 NMatS0=      1 NMatT0=    0 NMatD0=    1 NMtDS0=    0 NMtDT0=    0
 Symmetry not used in FoFCou.
 Leave Link  703 at Thu Jun 13 12:27:23 2024, MaxMem=  1073741824 cpu:        31.0
 (Enter /apps/z_install_tree/linux-rocky8-ivybridge/gcc-12.2.0/gaussian-09-D.01-wczn3gur5lpur3omlkzwa2l5ecyxp5ef/g09/l716.exe)
 Dipole        = 2.83913149D-02-2.16396076D-02-1.68600535D-01
 -------------------------------------------------------------------
 Center     Atomic                   Forces (Hartrees/Bohr)
 Number     Number              X              Y              Z
 -------------------------------------------------------------------
      1        6           0.000081236   -0.000406575   -0.000773269
      2        6          -0.000234082   -0.000000817    0.000859026
      3        6           0.000229551    0.000118891    0.000595275
      4        9           0.000033316    0.000181030   -0.000153921
      5        9          -0.000413086    0.000018399    0.000011415
      6        9           0.000409556   -0.000142475    0.000092232
      7        9          -0.000107530   -0.000111526   -0.000363678
      8        1           0.000174047    0.000218884   -0.000036393
      9        1           0.000052626    0.000115435    0.000008513
     10        1          -0.000063601   -0.000049432   -0.000156705
     11        1          -0.000162033    0.000058186   -0.000082495
 -------------------------------------------------------------------
 Cartesian Forces:  Max     0.000859026 RMS     0.000287540
 Leave Link  716 at Thu Jun 13 12:27:24 2024, MaxMem=  1073741824 cpu:         0.6
 (Enter /apps/z_install_tree/linux-rocky8-ivybridge/gcc-12.2.0/gaussian-09-D.01-wczn3gur5lpur3omlkzwa2l5ecyxp5ef/g09/l103.exe)

 GradGradGradGradGradGradGradGradGradGradGradGradGradGradGradGradGradGrad
 Berny optimization.
 Using GEDIIS/GDIIS optimizer.
 FormGI is forming the generalized inverse of G from B-inverse, IUseBI=4.
 Internal  Forces:  Max     0.000812508 RMS     0.000197208
 Search for a local minimum.
 Step number  10 out of a maximum of   56
 All quantities printed in internal units (Hartrees-Bohrs-Radians)
 RMS Force = .19721D-03 SwitMx=.10000D-02 MixMth= 2
 Mixed Optimization -- En-DIIS/RFO-DIIS
 Swapping is turned off.
 Update second derivatives using D2CorX and points    6    7    8    9   10
 DE= -4.39D-05 DEPred=-4.41D-05 R= 9.96D-01
 TightC=F SS=  1.41D+00  RLast= 3.15D-02 DXNew= 1.6584D+00 9.4381D-02
 Trust test= 9.96D-01 RLast= 3.15D-02 DXMaxT set to 9.86D-01
 ITU=  1  0  1  1  1  1  0  0  1  0
     Eigenvalues ---    0.00177   0.00345   0.03664   0.04840   0.05326
     Eigenvalues ---    0.05756   0.08306   0.08367   0.09261   0.11971
     Eigenvalues ---    0.15099   0.15984   0.17209   0.21679   0.22139
     Eigenvalues ---    0.24139   0.24927   0.25236   0.27216   0.27681
     Eigenvalues ---    0.31804   0.33806   0.33969   0.34078   0.34247
     Eigenvalues ---    0.37563   0.45364
 En-DIIS/RFO-DIIS IScMMF=        0 using points:    10    9    8    7
 RFO step:  Lambda=-3.46203581D-06.
 NNeg= 0 NP= 4 Switch=  2.50D-03 Rises=F DC=  1.57D-04 SmlDif=  1.00D-05
 RMS Error=  0.4276537964D-03 NUsed= 4 EDIIS=F
 DidBck=F Rises=F RFO-DIIS coefs:    1.18736   -0.10495   -0.17869    0.09628
 Iteration  1 RMS(Cart)=  0.00408334 RMS(Int)=  0.00001002
 Iteration  2 RMS(Cart)=  0.00001002 RMS(Int)=  0.00000196
 Iteration  3 RMS(Cart)=  0.00000000 RMS(Int)=  0.00000196
 ITry= 1 IFail=0 DXMaxC= 1.10D-02 DCOld= 1.00D+10 DXMaxT= 9.86D-01 DXLimC= 3.00D+00 Rises=F
 Variable       Old X    -DE/DX   Delta X   Delta X   Delta X     New X
                                 (Linear)    (Quad)   (Total)
    R1        2.84566   0.00081   0.00129   0.00075   0.00205   2.84771
    R2        2.87312  -0.00009   0.00018  -0.00072  -0.00054   2.87258
    R3        2.05714   0.00002  -0.00001   0.00010   0.00009   2.05723
    R4        2.05775  -0.00012  -0.00011  -0.00030  -0.00042   2.05734
    R5        2.55651   0.00015   0.00117  -0.00061   0.00056   2.55707
    R6        2.54588   0.00038  -0.00096   0.00180   0.00084   2.54672
    R7        2.55622   0.00039  -0.00074   0.00142   0.00068   2.55690
    R8        2.63889   0.00038   0.00088   0.00079   0.00167   2.64056
    R9        2.05865  -0.00008  -0.00007  -0.00033  -0.00040   2.05825
   R10        2.05825   0.00001   0.00001  -0.00009  -0.00007   2.05818
    A1        1.95813   0.00032   0.00063   0.00024   0.00087   1.95900
    A2        1.88202  -0.00008  -0.00063  -0.00054  -0.00118   1.88084
    A3        1.87928  -0.00007   0.00046   0.00036   0.00081   1.88009
    A4        1.92706  -0.00023  -0.00092  -0.00179  -0.00270   1.92436
    A5        1.92278  -0.00007   0.00009   0.00084   0.00092   1.92370
    A6        1.89256   0.00012   0.00039   0.00095   0.00134   1.89390
    A7        1.95411  -0.00032  -0.00009  -0.00178  -0.00187   1.95224
    A8        1.94515  -0.00009  -0.00001  -0.00016  -0.00017   1.94498
    A9        1.95205  -0.00007  -0.00016   0.00024   0.00007   1.95213
   A10        1.87182   0.00014  -0.00021   0.00072   0.00052   1.87233
   A11        1.86499   0.00014  -0.00032   0.00070   0.00038   1.86537
   A12        1.87081   0.00023   0.00081   0.00043   0.00124   1.87205
   A13        1.88804  -0.00022  -0.00075  -0.00118  -0.00193   1.88611
   A14        1.94701   0.00013   0.00070   0.00085   0.00155   1.94856
   A15        1.94960  -0.00013   0.00026  -0.00076  -0.00050   1.94910
   A16        1.88344   0.00001  -0.00067   0.00002  -0.00065   1.88279
   A17        1.88320   0.00009  -0.00055  -0.00003  -0.00059   1.88261
   A18        1.91014   0.00012   0.00089   0.00107   0.00197   1.91211
    D1        1.04021  -0.00005   0.00046   0.00370   0.00416   1.04437
    D2        3.13682  -0.00015   0.00013   0.00328   0.00341   3.14023
    D3       -1.05245   0.00004   0.00105   0.00388   0.00492  -1.04752
    D4       -1.08555   0.00009   0.00164   0.00615   0.00779  -1.07776
    D5        1.01106  -0.00001   0.00131   0.00574   0.00704   1.01810
    D6        3.10498   0.00018   0.00223   0.00633   0.00855   3.11353
    D7       -3.12441   0.00002   0.00127   0.00514   0.00640  -3.11801
    D8       -1.02780  -0.00008   0.00093   0.00472   0.00565  -1.02215
    D9        1.06612   0.00011   0.00185   0.00531   0.00716   1.07328
   D10        3.13528   0.00006   0.00141   0.00429   0.00570   3.14098
   D11        1.06637   0.00011   0.00229   0.00451   0.00680   1.07317
   D12       -1.07777  -0.00005   0.00041   0.00306   0.00347  -1.07430
   D13       -1.04808   0.00002   0.00039   0.00253   0.00293  -1.04516
   D14       -3.11699   0.00007   0.00127   0.00275   0.00402  -3.11297
   D15        1.02206  -0.00009  -0.00060   0.00129   0.00069   1.02275
   D16        1.04187  -0.00002   0.00036   0.00311   0.00347   1.04534
   D17       -1.02704   0.00003   0.00124   0.00333   0.00456  -1.02248
   D18        3.11201  -0.00013  -0.00064   0.00187   0.00123   3.11324
         Item               Value     Threshold  Converged?
 Maximum Force            0.000813     0.000450     NO 
 RMS     Force            0.000197     0.000300     YES
 Maximum Displacement     0.010994     0.001800     NO 
 RMS     Displacement     0.004083     0.001200     NO 
 Predicted change in Energy=-4.145198D-06
 Lowest energy point so far.  Saving SCF results.
 GradGradGradGradGradGradGradGradGradGradGradGradGradGradGradGradGradGrad

 Leave Link  103 at Thu Jun 13 12:27:24 2024, MaxMem=  1073741824 cpu:        10.8
 (Enter /apps/z_install_tree/linux-rocky8-ivybridge/gcc-12.2.0/gaussian-09-D.01-wczn3gur5lpur3omlkzwa2l5ecyxp5ef/g09/l202.exe)
                          Input orientation:                          
 ---------------------------------------------------------------------
 Center     Atomic      Atomic             Coordinates (Angstroms)
 Number     Number       Type             X           Y           Z
 ---------------------------------------------------------------------
      1          6           0       50.130822   35.358671   31.906701
      2          6           0       50.070895   35.648701   33.384256
      3          6           0       51.503213   35.645327   31.319257
      4          9           0       50.351928   36.944338   33.655070
      5          9           0       48.847667   35.390806   33.887653
      6          9           0       50.957524   34.900563   34.080628
      7          9           0       51.461259   35.347604   29.954665
      8          1           0       49.375773   35.971293   31.417074
      9          1           0       49.871747   34.310939   31.763875
     10          1           0       52.272769   35.022814   31.773762
     11          1           0       51.774402   36.694945   31.424059
 ---------------------------------------------------------------------
                    Distance matrix (angstroms):
                    1          2          3          4          5
     1  C    0.000000
     2  C    1.506943   0.000000
     3  C    1.520105   2.513119   0.000000
     4  F    2.370659   1.353143   2.910140   0.000000
     5  F    2.360443   1.347667   3.703157   2.174939   0.000000
     6  F    2.370498   1.353054   2.911636   2.173675   2.174644
     7  F    2.362336   3.712932   1.397322   4.180093   4.722407
     8  H    1.088641   2.111176   2.154489   2.628369   2.592224
     9  H    1.088697   2.110663   2.154056   3.277496   2.593315
    10  H    2.172190   2.798870   1.089180   3.304725   4.041692
    11  H    2.172539   2.799809   1.089140   2.657638   4.041764
                    6          7          8          9         10
     6  F    0.000000
     7  F    4.180570   0.000000
     8  H    3.277639   2.622381   0.000000
     9  H    2.625626   2.621920   1.767211   0.000000
    10  H    2.658279   2.018205   3.069108   2.504350   0.000000
    11  H    3.308241   2.018045   2.505422   3.069047   1.779518
                   11
    11  H    0.000000
 Symmetry turned off by external request.
 Stoichiometry    C3H4F4
 Framework group  C1[X(C3H4F4)]
 Deg. of freedom    27
 Full point group                 C1      NOp   1
 Rotational constants (GHZ):      5.0034112      1.4154122      1.3962387
 Leave Link  202 at Thu Jun 13 12:27:25 2024, MaxMem=  1073741824 cpu:         0.9
 (Enter /apps/z_install_tree/linux-rocky8-ivybridge/gcc-12.2.0/gaussian-09-D.01-wczn3gur5lpur3omlkzwa2l5ecyxp5ef/g09/l301.exe)
 Basis read from rwf:  (5D, 7F)
 No pseudopotential information found on rwf file.
   225 basis functions,   338 primitive gaussians,   239 cartesian basis functions
    29 alpha electrons       29 beta electrons
       nuclear repulsion energy       340.2784363321 Hartrees.
 IExCor=  402 DFT=T Ex+Corr=B3LYP ExCW=0 ScaHFX=  0.200000
 ScaDFX=  0.800000  0.720000  1.000000  0.810000 ScalE2=  1.000000  1.000000
 IRadAn=      5 IRanWt=     -1 IRanGd=            0 ICorTp=0 IEmpDi=131
 NAtoms=   11 NActive=   11 NUniq=   11 SFac= 1.00D+00 NAtFMM=   60 NAOKFM=F Big=F
 Integral buffers will be    131072 words long.
 Raffenetti 2 integral format.
 Two-electron integral symmetry is turned off.
 R6Disp:  Grimme-D3 Dispersion energy=       -0.0072833488 Hartrees.
 Nuclear repulsion after empirical dispersion term =      340.2711529833 Hartrees.
 No density basis found on file   724.
 Leave Link  301 at Thu Jun 13 12:27:25 2024, MaxMem=  1073741824 cpu:         1.1
 (Enter /apps/z_install_tree/linux-rocky8-ivybridge/gcc-12.2.0/gaussian-09-D.01-wczn3gur5lpur3omlkzwa2l5ecyxp5ef/g09/l302.exe)
 NPDir=0 NMtPBC=     1 NCelOv=     1 NCel=       1 NClECP=     1 NCelD=      1
         NCelK=      1 NCelE2=     1 NClLst=     1 CellRange=     0.0.
 One-electron integrals computed using PRISM.
 NBasis=   225 RedAO= T EigKep=  6.69D-05  NBF=   225
 NBsUse=   225 1.00D-06 EigRej= -1.00D+00 NBFU=   225
 Precomputing XC quadrature grid using
 IXCGrd= 4 IRadAn=           5 IRanWt=          -1 IRanGd=           0 AccXCQ= 0.00D+00.
 Generated NRdTot=       0 NPtTot=           0 NUsed=           0 NTot=          32
 NSgBfM=   239   239   239   239   239 MxSgAt=    11 MxSgA2=    11.
 Leave Link  302 at Thu Jun 13 12:27:25 2024, MaxMem=  1073741824 cpu:         4.0
 (Enter /apps/z_install_tree/linux-rocky8-ivybridge/gcc-12.2.0/gaussian-09-D.01-wczn3gur5lpur3omlkzwa2l5ecyxp5ef/g09/l303.exe)
 DipDrv:  MaxL=1.
 Leave Link  303 at Thu Jun 13 12:27:26 2024, MaxMem=  1073741824 cpu:         3.1
 (Enter /apps/z_install_tree/linux-rocky8-ivybridge/gcc-12.2.0/gaussian-09-D.01-wczn3gur5lpur3omlkzwa2l5ecyxp5ef/g09/l401.exe)
 Initial guess from the checkpoint file:  "tetrafluoropropane.chk"
 B after Tr=     0.158673   -0.310784    0.094246
         Rot=    0.999999    0.000451   -0.000174   -0.001347 Ang=   0.16 deg.
 Guess basis will be translated and rotated to current coordinates.
 JPrj=2 DoOrth=T DoCkMO=T.
 Leave Link  401 at Thu Jun 13 12:27:26 2024, MaxMem=  1073741824 cpu:         9.0
 (Enter /apps/z_install_tree/linux-rocky8-ivybridge/gcc-12.2.0/gaussian-09-D.01-wczn3gur5lpur3omlkzwa2l5ecyxp5ef/g09/l502.exe)
 Closed shell SCF:
 Using DIIS extrapolation, IDIIS=  1040.
 Two-electron integral symmetry not used.
 Keep R1 ints in memory in canonical form, NReq=330328726.
 IVT=      188821 IEndB=      188821 NGot=  1073741824 MDV=   750324979
 LenX=   750324979 LenY=   750267417
 Requested convergence on RMS density matrix=1.00D-08 within  96 cycles.
 Requested convergence on MAX density matrix=1.00D-06.
 Requested convergence on             energy=1.00D-06.
 No special actions if energy rises.
 FoFCou: FMM=F IPFlag=           0 FMFlag=           0 FMFlg1=           0
         NFxFlg=           0 DoJE=F BraDBF=F KetDBF=F FulRan=T
         wScrn=  0.000000 ICntrl=     600 IOpCl=  0 I1Cent=           0 NGrid=           0
         NMat0=    1 NMatS0=  25425 NMatT0=    0 NMatD0=    1 NMtDS0=    0 NMtDT0=    0
 Symmetry not used in FoFCou.

 Cycle   1  Pass 1  IDiag  1:
 E= -516.293443996157    
 DIIS: error= 3.06D-04 at cycle   1 NSaved=   1.
 NSaved= 1 IEnMin= 1 EnMin= -516.293443996157     IErMin= 1 ErrMin= 3.06D-04
 ErrMax= 3.06D-04  0.00D+00 EMaxC= 1.00D-01 BMatC= 2.23D-05 BMatP= 2.23D-05
 IDIUse=3 WtCom= 9.97D-01 WtEn= 3.06D-03
 Coeff-Com:  0.100D+01
 Coeff-En:   0.100D+01
 Coeff:      0.100D+01
 Gap=     0.635 Goal=   None    Shift=    0.000
 RMSDP=3.75D-05 MaxDP=9.76D-04              OVMax= 2.08D-03

 Cycle   2  Pass 1  IDiag  1:
 E= -516.293476170333     Delta-E=       -0.000032174177 Rises=F Damp=F
 DIIS: error= 2.66D-05 at cycle   2 NSaved=   2.
 NSaved= 2 IEnMin= 2 EnMin= -516.293476170333     IErMin= 2 ErrMin= 2.66D-05
 ErrMax= 2.66D-05  0.00D+00 EMaxC= 1.00D-01 BMatC= 3.96D-07 BMatP= 2.23D-05
 IDIUse=1 WtCom= 1.00D+00 WtEn= 0.00D+00
 Coeff-Com: -0.504D-01 0.105D+01
 Coeff:     -0.504D-01 0.105D+01
 Gap=     0.368 Goal=   None    Shift=    0.000
 RMSDP=4.08D-06 MaxDP=1.49D-04 DE=-3.22D-05 OVMax= 2.17D-04

 Cycle   3  Pass 1  IDiag  1:
 E= -516.293476388871     Delta-E=       -0.000000218538 Rises=F Damp=F
 DIIS: error= 3.58D-05 at cycle   3 NSaved=   3.
 NSaved= 3 IEnMin= 3 EnMin= -516.293476388871     IErMin= 2 ErrMin= 2.66D-05
 ErrMax= 3.58D-05  0.00D+00 EMaxC= 1.00D-01 BMatC= 3.46D-07 BMatP= 3.96D-07
 IDIUse=1 WtCom= 1.00D+00 WtEn= 0.00D+00
 Coeff-Com: -0.371D-01 0.533D+00 0.504D+00
 Coeff:     -0.371D-01 0.533D+00 0.504D+00
 Gap=     0.368 Goal=   None    Shift=    0.000
 RMSDP=1.69D-06 MaxDP=8.87D-05 DE=-2.19D-07 OVMax= 1.06D-04

 Cycle   4  Pass 1  IDiag  1:
 E= -516.293476611346     Delta-E=       -0.000000222475 Rises=F Damp=F
 DIIS: error= 1.05D-05 at cycle   4 NSaved=   4.
 NSaved= 4 IEnMin= 4 EnMin= -516.293476611346     IErMin= 4 ErrMin= 1.05D-05
 ErrMax= 1.05D-05  0.00D+00 EMaxC= 1.00D-01 BMatC= 2.44D-08 BMatP= 3.46D-07
 IDIUse=1 WtCom= 1.00D+00 WtEn= 0.00D+00
 Coeff-Com: -0.101D-01 0.126D+00 0.239D+00 0.645D+00
 Coeff:     -0.101D-01 0.126D+00 0.239D+00 0.645D+00
 Gap=     0.368 Goal=   None    Shift=    0.000
 RMSDP=4.59D-07 MaxDP=1.47D-05 DE=-2.22D-07 OVMax= 3.22D-05

 Cycle   5  Pass 1  IDiag  1:
 E= -516.293476624488     Delta-E=       -0.000000013142 Rises=F Damp=F
 DIIS: error= 3.38D-06 at cycle   5 NSaved=   5.
 NSaved= 5 IEnMin= 5 EnMin= -516.293476624488     IErMin= 5 ErrMin= 3.38D-06
 ErrMax= 3.38D-06  0.00D+00 EMaxC= 1.00D-01 BMatC= 2.00D-09 BMatP= 2.44D-08
 IDIUse=1 WtCom= 1.00D+00 WtEn= 0.00D+00
 Coeff-Com: -0.178D-02 0.172D-01 0.744D-01 0.305D+00 0.605D+00
 Coeff:     -0.178D-02 0.172D-01 0.744D-01 0.305D+00 0.605D+00
 Gap=     0.368 Goal=   None    Shift=    0.000
 RMSDP=1.52D-07 MaxDP=5.99D-06 DE=-1.31D-08 OVMax= 8.86D-06

 Cycle   6  Pass 1  IDiag  1:
 E= -516.293476625862     Delta-E=       -0.000000001374 Rises=F Damp=F
 DIIS: error= 4.50D-07 at cycle   6 NSaved=   6.
 NSaved= 6 IEnMin= 6 EnMin= -516.293476625862     IErMin= 6 ErrMin= 4.50D-07
 ErrMax= 4.50D-07  0.00D+00 EMaxC= 1.00D-01 BMatC= 1.00D-10 BMatP= 2.00D-09
 IDIUse=1 WtCom= 1.00D+00 WtEn= 0.00D+00
 Coeff-Com: -0.176D-03-0.114D-02 0.178D-01 0.965D-01 0.257D+00 0.630D+00
 Coeff:     -0.176D-03-0.114D-02 0.178D-01 0.965D-01 0.257D+00 0.630D+00
 Gap=     0.368 Goal=   None    Shift=    0.000
 RMSDP=3.73D-08 MaxDP=1.42D-06 DE=-1.37D-09 OVMax= 2.16D-06

 Cycle   7  Pass 1  IDiag  1:
 E= -516.293476625919     Delta-E=       -0.000000000057 Rises=F Damp=F
 DIIS: error= 3.35D-07 at cycle   7 NSaved=   7.
 NSaved= 7 IEnMin= 7 EnMin= -516.293476625919     IErMin= 7 ErrMin= 3.35D-07
 ErrMax= 3.35D-07  0.00D+00 EMaxC= 1.00D-01 BMatC= 1.85D-11 BMatP= 1.00D-10
 IDIUse=1 WtCom= 1.00D+00 WtEn= 0.00D+00
 Coeff-Com:  0.790D-04-0.258D-02 0.204D-02 0.228D-01 0.828D-01 0.347D+00
 Coeff-Com:  0.548D+00
 Coeff:      0.790D-04-0.258D-02 0.204D-02 0.228D-01 0.828D-01 0.347D+00
 Coeff:      0.548D+00
 Gap=     0.368 Goal=   None    Shift=    0.000
 RMSDP=1.03D-08 MaxDP=3.33D-07 DE=-5.73D-11 OVMax= 6.11D-07

 Cycle   8  Pass 1  IDiag  1:
 E= -516.293476625925     Delta-E=       -0.000000000006 Rises=F Damp=F
 DIIS: error= 7.64D-08 at cycle   8 NSaved=   8.
 NSaved= 8 IEnMin= 8 EnMin= -516.293476625925     IErMin= 8 ErrMin= 7.64D-08
 ErrMax= 7.64D-08  0.00D+00 EMaxC= 1.00D-01 BMatC= 8.45D-13 BMatP= 1.85D-11
 IDIUse=1 WtCom= 1.00D+00 WtEn= 0.00D+00
 Coeff-Com:  0.443D-04-0.109D-02-0.298D-03 0.365D-02 0.191D-01 0.114D+00
 Coeff-Com:  0.255D+00 0.610D+00
 Coeff:      0.443D-04-0.109D-02-0.298D-03 0.365D-02 0.191D-01 0.114D+00
 Coeff:      0.255D+00 0.610D+00
 Gap=     0.368 Goal=   None    Shift=    0.000
 RMSDP=3.56D-09 MaxDP=1.36D-07 DE=-5.91D-12 OVMax= 1.60D-07

 SCF Done:  E(RB3LYP) =  -516.293476626     A.U. after    8 cycles
            NFock=  8  Conv=0.36D-08     -V/T= 2.0030
 KE= 5.147287751434D+02 PE=-1.904697151692D+03 EE= 5.334037469396D+02
 Leave Link  502 at Thu Jun 13 12:27:34 2024, MaxMem=  1073741824 cpu:        82.6
 (Enter /apps/z_install_tree/linux-rocky8-ivybridge/gcc-12.2.0/gaussian-09-D.01-wczn3gur5lpur3omlkzwa2l5ecyxp5ef/g09/l508.exe)
 QCSCF skips out because SCF is already converged.
 Leave Link  508 at Thu Jun 13 12:27:34 2024, MaxMem=  1073741824 cpu:         0.0
 (Enter /apps/z_install_tree/linux-rocky8-ivybridge/gcc-12.2.0/gaussian-09-D.01-wczn3gur5lpur3omlkzwa2l5ecyxp5ef/g09/l701.exe)
 Compute integral first derivatives.
 ... and contract with generalized density number  0.
 R6Disp: Adding Grimme-D3 dispersion energy 1st derivatives to the gradient.
 Leave Link  701 at Thu Jun 13 12:27:34 2024, MaxMem=  1073741824 cpu:         3.4
 (Enter /apps/z_install_tree/linux-rocky8-ivybridge/gcc-12.2.0/gaussian-09-D.01-wczn3gur5lpur3omlkzwa2l5ecyxp5ef/g09/l702.exe)
 L702 exits ... SP integral derivatives will be done elsewhere.
 Leave Link  702 at Thu Jun 13 12:27:34 2024, MaxMem=  1073741824 cpu:         0.3
 (Enter /apps/z_install_tree/linux-rocky8-ivybridge/gcc-12.2.0/gaussian-09-D.01-wczn3gur5lpur3omlkzwa2l5ecyxp5ef/g09/l703.exe)
 Compute integral first derivatives, UseDBF=F ICtDFT=           0.
 Integral derivatives from FoFJK, PRISM(SPDF).
 Calling FoFJK, ICntrl=      2127 FMM=F ISym2X=0 I1Cent= 0 IOpClX= 0 NMat=1 NMatS=1 NMatT=0.
 FoFJK:  IHMeth= 1 ICntrl=    2127 DoSepK=F KAlg= 0 I1Cent=   0 FoldK=F
 IRaf=         0 NMat=   1 IRICut=       1 DoRegI=T DoRafI=F ISym2E= 0.
 FoFCou: FMM=F IPFlag=           0 FMFlag=      100000 FMFlg1=         800
         NFxFlg=           0 DoJE=F BraDBF=F KetDBF=F FulRan=T
         wScrn=  0.000000 ICntrl=    2127 IOpCl=  0 I1Cent=           0 NGrid=           0
         NMat0=    1 NMatS0=      1 NMatT0=    0 NMatD0=    1 NMtDS0=    0 NMtDT0=    0
 Symmetry not used in FoFCou.
 Leave Link  703 at Thu Jun 13 12:27:36 2024, MaxMem=  1073741824 cpu:        31.9
 (Enter /apps/z_install_tree/linux-rocky8-ivybridge/gcc-12.2.0/gaussian-09-D.01-wczn3gur5lpur3omlkzwa2l5ecyxp5ef/g09/l716.exe)
 Dipole        = 3.12006221D-02-2.47862273D-02-1.65335856D-01
 -------------------------------------------------------------------
 Center     Atomic                   Forces (Hartrees/Bohr)
 Number     Number              X              Y              Z
 -------------------------------------------------------------------
      1        6          -0.000041518   -0.000115035   -0.000133750
      2        6          -0.000116923    0.000032713    0.000199779
      3        6           0.000029760    0.000002945    0.000022863
      4        9          -0.000060445   -0.000134327    0.000043141
      5        9           0.000170158    0.000079555   -0.000025037
      6        9          -0.000041363    0.000078608    0.000006311
      7        9           0.000018201   -0.000014724   -0.000033330
      8        1           0.000042439    0.000041553    0.000000490
      9        1           0.000019122    0.000024136   -0.000022497
     10        1           0.000002991   -0.000006910   -0.000040942
     11        1          -0.000022423    0.000011484   -0.000017027
 -------------------------------------------------------------------
 Cartesian Forces:  Max     0.000199779 RMS     0.000070842
 Leave Link  716 at Thu Jun 13 12:27:36 2024, MaxMem=  1073741824 cpu:         0.3
 (Enter /apps/z_install_tree/linux-rocky8-ivybridge/gcc-12.2.0/gaussian-09-D.01-wczn3gur5lpur3omlkzwa2l5ecyxp5ef/g09/l103.exe)

 GradGradGradGradGradGradGradGradGradGradGradGradGradGradGradGradGradGrad
 Berny optimization.
 Using GEDIIS/GDIIS optimizer.
 FormGI is forming the generalized inverse of G from B-inverse, IUseBI=4.
 Internal  Forces:  Max     0.000233359 RMS     0.000061245
 Search for a local minimum.
 Step number  11 out of a maximum of   56
 All quantities printed in internal units (Hartrees-Bohrs-Radians)
 RMS Force = .61245D-04 SwitMx=.10000D-02 MixMth= 2
 Mixed Optimization -- En-DIIS/RFO-DIIS
 Swapping is turned off.
 Update second derivatives using D2CorX and points    6    7    8    9   10
                                                     11
 DE= -5.06D-06 DEPred=-4.15D-06 R= 1.22D+00
 TightC=F SS=  1.41D+00  RLast= 2.34D-02 DXNew= 1.6584D+00 7.0340D-02
 Trust test= 1.22D+00 RLast= 2.34D-02 DXMaxT set to 9.86D-01
 ITU=  1  1  0  1  1  1  1  0  0  1  0
     Eigenvalues ---    0.00179   0.00327   0.03494   0.04726   0.05144
     Eigenvalues ---    0.05770   0.08277   0.08398   0.09228   0.12001
     Eigenvalues ---    0.15081   0.15737   0.17246   0.20876   0.22163
     Eigenvalues ---    0.24065   0.24939   0.25440   0.27071   0.28005
     Eigenvalues ---    0.32463   0.33818   0.33953   0.34043   0.34249
     Eigenvalues ---    0.36359   0.50198
 En-DIIS/RFO-DIIS IScMMF=        0 using points:    11   10    9    8    7
 RFO step:  Lambda=-3.38210801D-07.
 NNeg= 0 NP= 5 Switch=  2.50D-03 Rises=F DC=  1.57D-04 SmlDif=  1.00D-05
 RMS Error=  0.1364222315D-03 NUsed= 5 EDIIS=F
 DidBck=F Rises=F RFO-DIIS coefs:    0.99274    0.08512   -0.03160   -0.08524    0.03898
 Iteration  1 RMS(Cart)=  0.00108566 RMS(Int)=  0.00000096
 Iteration  2 RMS(Cart)=  0.00000061 RMS(Int)=  0.00000078
 ITry= 1 IFail=0 DXMaxC= 3.90D-03 DCOld= 1.00D+10 DXMaxT= 9.86D-01 DXLimC= 3.00D+00 Rises=F
 Variable       Old X    -DE/DX   Delta X   Delta X   Delta X     New X
                                 (Linear)    (Quad)   (Total)
    R1        2.84771   0.00023   0.00044   0.00047   0.00090   2.84861
    R2        2.87258   0.00005   0.00009   0.00000   0.00009   2.87267
    R3        2.05723  -0.00001   0.00000  -0.00001  -0.00001   2.05723
    R4        2.05734  -0.00002  -0.00003  -0.00007  -0.00011   2.05723
    R5        2.55707  -0.00013   0.00037  -0.00060  -0.00024   2.55683
    R6        2.54672  -0.00018  -0.00041  -0.00024  -0.00065   2.54607
    R7        2.55690  -0.00007  -0.00032   0.00031  -0.00001   2.55690
    R8        2.64056   0.00004   0.00052  -0.00041   0.00011   2.64067
    R9        2.05825  -0.00001  -0.00002  -0.00006  -0.00008   2.05818
   R10        2.05818   0.00000   0.00002  -0.00002   0.00000   2.05818
    A1        1.95900   0.00010   0.00024   0.00024   0.00048   1.95948
    A2        1.88084  -0.00003  -0.00025  -0.00011  -0.00036   1.88049
    A3        1.88009  -0.00001   0.00018   0.00021   0.00039   1.88049
    A4        1.92436  -0.00005  -0.00037  -0.00041  -0.00078   1.92358
    A5        1.92370  -0.00004   0.00010  -0.00010  -0.00001   1.92370
    A6        1.89390   0.00003   0.00011   0.00018   0.00029   1.89419
    A7        1.95224   0.00009   0.00000   0.00015   0.00015   1.95239
    A8        1.94498   0.00006   0.00001   0.00011   0.00012   1.94510
    A9        1.95213   0.00006  -0.00004   0.00030   0.00025   1.95238
   A10        1.87233  -0.00010  -0.00011  -0.00024  -0.00035   1.87198
   A11        1.86537  -0.00008  -0.00015   0.00000  -0.00015   1.86522
   A12        1.87205  -0.00005   0.00029  -0.00036  -0.00007   1.87198
   A13        1.88611   0.00002  -0.00022   0.00010  -0.00012   1.88598
   A14        1.94856   0.00004   0.00023   0.00015   0.00039   1.94895
   A15        1.94910  -0.00003   0.00008  -0.00025  -0.00017   1.94893
   A16        1.88279  -0.00004  -0.00023  -0.00009  -0.00033   1.88246
   A17        1.88261  -0.00001  -0.00018   0.00004  -0.00014   1.88246
   A18        1.91211   0.00001   0.00029   0.00006   0.00035   1.91246
    D1        1.04437   0.00000   0.00070   0.00086   0.00155   1.04593
    D2        3.14023  -0.00002   0.00057   0.00073   0.00130   3.14153
    D3       -1.04752   0.00000   0.00092   0.00054   0.00147  -1.04606
    D4       -1.07776   0.00003   0.00118   0.00129   0.00247  -1.07529
    D5        1.01810   0.00000   0.00105   0.00116   0.00221   1.02031
    D6        3.11353   0.00002   0.00140   0.00098   0.00238   3.11591
    D7       -3.11801   0.00001   0.00109   0.00103   0.00211  -3.11589
    D8       -1.02215  -0.00001   0.00096   0.00090   0.00186  -1.02029
    D9        1.07328   0.00001   0.00131   0.00071   0.00203   1.07531
   D10        3.14098   0.00001   0.00103  -0.00046   0.00057   3.14155
   D11        1.07317   0.00002   0.00132  -0.00050   0.00082   1.07399
   D12       -1.07430   0.00000   0.00071  -0.00050   0.00021  -1.07408
   D13       -1.04516   0.00000   0.00062  -0.00072  -0.00010  -1.04526
   D14       -3.11297   0.00001   0.00091  -0.00075   0.00015  -3.11282
   D15        1.02275  -0.00001   0.00030  -0.00076  -0.00045   1.02230
   D16        1.04534  -0.00002   0.00058  -0.00082  -0.00024   1.04509
   D17       -1.02248  -0.00001   0.00087  -0.00086   0.00001  -1.02247
   D18        3.11324  -0.00003   0.00026  -0.00086  -0.00060   3.11264
         Item               Value     Threshold  Converged?
 Maximum Force            0.000233     0.000450     YES
 RMS     Force            0.000061     0.000300     YES
 Maximum Displacement     0.003900     0.001800     NO 
 RMS     Displacement     0.001086     0.001200     YES
 Predicted change in Energy=-4.233251D-07
 Lowest energy point so far.  Saving SCF results.
 GradGradGradGradGradGradGradGradGradGradGradGradGradGradGradGradGradGrad

 Leave Link  103 at Thu Jun 13 12:27:37 2024, MaxMem=  1073741824 cpu:        12.3
 (Enter /apps/z_install_tree/linux-rocky8-ivybridge/gcc-12.2.0/gaussian-09-D.01-wczn3gur5lpur3omlkzwa2l5ecyxp5ef/g09/l202.exe)
                          Input orientation:                          
 ---------------------------------------------------------------------
 Center     Atomic      Atomic             Coordinates (Angstroms)
 Number     Number       Type             X           Y           Z
 ---------------------------------------------------------------------
      1          6           0       50.131028   35.358671   31.906701
      2          6           0       50.070620   35.648782   33.384708
      3          6           0       51.503485   35.644870   31.319067
      4          9           0       50.349864   36.944648   33.655647
      5          9           0       48.847985   35.389701   33.888013
      6          9           0       50.958024   34.901926   34.081463
      7          9           0       51.460930   35.347650   29.954324
      8          1           0       49.376806   35.972288   31.417053
      9          1           0       49.871304   34.311237   31.763303
     10          1           0       52.273041   35.021812   31.772727
     11          1           0       51.774912   36.694415   31.423995
 ---------------------------------------------------------------------
                    Distance matrix (angstroms):
                    1          2          3          4          5
     1  C    0.000000
     2  C    1.507421   0.000000
     3  C    1.520153   2.513960   0.000000
     4  F    2.371081   1.353017   2.912022   0.000000
     5  F    2.360668   1.347321   3.703549   2.174281   0.000000
     6  F    2.371102   1.353051   2.912100   2.173451   2.174307
     7  F    2.362316   3.713647   1.397381   4.181467   4.722621
     8  H    1.088637   2.111327   2.153966   2.627477   2.593203
     9  H    1.088640   2.111329   2.154052   3.277933   2.593194
    10  H    2.172474   2.800399   1.089140   3.307763   4.042373
    11  H    2.172457   2.800421   1.089140   2.659634   4.042346
                    6          7          8          9         10
     6  F    0.000000
     7  F    4.181490   0.000000
     8  H    3.277957   2.621702   0.000000
     9  H    2.627497   2.621730   1.767344   0.000000
    10  H    2.659681   2.017990   3.068890   2.504665   0.000000
    11  H    3.307939   2.017992   2.504481   3.068939   1.779704
                   11
    11  H    0.000000
 Symmetry turned off by external request.
 Stoichiometry    C3H4F4
 Framework group  C1[X(C3H4F4)]
 Deg. of freedom    27
 Full point group                 C1      NOp   1
 Rotational constants (GHZ):      5.0043728      1.4148961      1.3957448
 Leave Link  202 at Thu Jun 13 12:27:37 2024, MaxMem=  1073741824 cpu:         0.8
 (Enter /apps/z_install_tree/linux-rocky8-ivybridge/gcc-12.2.0/gaussian-09-D.01-wczn3gur5lpur3omlkzwa2l5ecyxp5ef/g09/l301.exe)
 Basis read from rwf:  (5D, 7F)
 No pseudopotential information found on rwf file.
   225 basis functions,   338 primitive gaussians,   239 cartesian basis functions
    29 alpha electrons       29 beta electrons
       nuclear repulsion energy       340.2611572004 Hartrees.
 IExCor=  402 DFT=T Ex+Corr=B3LYP ExCW=0 ScaHFX=  0.200000
 ScaDFX=  0.800000  0.720000  1.000000  0.810000 ScalE2=  1.000000  1.000000
 IRadAn=      5 IRanWt=     -1 IRanGd=            0 ICorTp=0 IEmpDi=131
 NAtoms=   11 NActive=   11 NUniq=   11 SFac= 1.00D+00 NAtFMM=   60 NAOKFM=F Big=F
 Integral buffers will be    131072 words long.
 Raffenetti 2 integral format.
 Two-electron integral symmetry is turned off.
 R6Disp:  Grimme-D3 Dispersion energy=       -0.0072795626 Hartrees.
 Nuclear repulsion after empirical dispersion term =      340.2538776378 Hartrees.
 No density basis found on file   724.
 Leave Link  301 at Thu Jun 13 12:27:38 2024, MaxMem=  1073741824 cpu:         0.9
 (Enter /apps/z_install_tree/linux-rocky8-ivybridge/gcc-12.2.0/gaussian-09-D.01-wczn3gur5lpur3omlkzwa2l5ecyxp5ef/g09/l302.exe)
 NPDir=0 NMtPBC=     1 NCelOv=     1 NCel=       1 NClECP=     1 NCelD=      1
         NCelK=      1 NCelE2=     1 NClLst=     1 CellRange=     0.0.
 One-electron integrals computed using PRISM.
 NBasis=   225 RedAO= T EigKep=  6.69D-05  NBF=   225
 NBsUse=   225 1.00D-06 EigRej= -1.00D+00 NBFU=   225
 Precomputing XC quadrature grid using
 IXCGrd= 4 IRadAn=           5 IRanWt=          -1 IRanGd=           0 AccXCQ= 0.00D+00.
 Generated NRdTot=       0 NPtTot=           0 NUsed=           0 NTot=          32
 NSgBfM=   239   239   239   239   239 MxSgAt=    11 MxSgA2=    11.
 Leave Link  302 at Thu Jun 13 12:27:38 2024, MaxMem=  1073741824 cpu:         2.8
 (Enter /apps/z_install_tree/linux-rocky8-ivybridge/gcc-12.2.0/gaussian-09-D.01-wczn3gur5lpur3omlkzwa2l5ecyxp5ef/g09/l303.exe)
 DipDrv:  MaxL=1.
 Leave Link  303 at Thu Jun 13 12:27:38 2024, MaxMem=  1073741824 cpu:         2.4
 (Enter /apps/z_install_tree/linux-rocky8-ivybridge/gcc-12.2.0/gaussian-09-D.01-wczn3gur5lpur3omlkzwa2l5ecyxp5ef/g09/l401.exe)
 Initial guess from the checkpoint file:  "tetrafluoropropane.chk"
 B after Tr=     0.046903   -0.088117    0.023641
         Rot=    1.000000    0.000140   -0.000023   -0.000372 Ang=   0.05 deg.
 Guess basis will be translated and rotated to current coordinates.
 JPrj=2 DoOrth=T DoCkMO=T.
 Leave Link  401 at Thu Jun 13 12:27:38 2024, MaxMem=  1073741824 cpu:         3.9
 (Enter /apps/z_install_tree/linux-rocky8-ivybridge/gcc-12.2.0/gaussian-09-D.01-wczn3gur5lpur3omlkzwa2l5ecyxp5ef/g09/l502.exe)
 Closed shell SCF:
 Using DIIS extrapolation, IDIIS=  1040.
 Two-electron integral symmetry not used.
 Keep R1 ints in memory in canonical form, NReq=330328726.
 IVT=      188821 IEndB=      188821 NGot=  1073741824 MDV=   750324979
 LenX=   750324979 LenY=   750267417
 Requested convergence on RMS density matrix=1.00D-08 within  96 cycles.
 Requested convergence on MAX density matrix=1.00D-06.
 Requested convergence on             energy=1.00D-06.
 No special actions if energy rises.
 FoFCou: FMM=F IPFlag=           0 FMFlag=           0 FMFlg1=           0
         NFxFlg=           0 DoJE=F BraDBF=F KetDBF=F FulRan=T
         wScrn=  0.000000 ICntrl=     600 IOpCl=  0 I1Cent=           0 NGrid=           0
         NMat0=    1 NMatS0=  25425 NMatT0=    0 NMatD0=    1 NMtDS0=    0 NMtDT0=    0
 Symmetry not used in FoFCou.

 Cycle   1  Pass 1  IDiag  1:
 E= -516.293475104721    
 DIIS: error= 7.77D-05 at cycle   1 NSaved=   1.
 NSaved= 1 IEnMin= 1 EnMin= -516.293475104721     IErMin= 1 ErrMin= 7.77D-05
 ErrMax= 7.77D-05  0.00D+00 EMaxC= 1.00D-01 BMatC= 1.32D-06 BMatP= 1.32D-06
 IDIUse=1 WtCom= 1.00D+00 WtEn= 0.00D+00
 Coeff-Com:  0.100D+01
 Coeff:      0.100D+01
 Gap=     0.635 Goal=   None    Shift=    0.000
 RMSDP=9.39D-06 MaxDP=3.14D-04              OVMax= 3.82D-04

 Cycle   2  Pass 1  IDiag  1:
 E= -516.293476912243     Delta-E=       -0.000001807522 Rises=F Damp=F
 DIIS: error= 8.03D-06 at cycle   2 NSaved=   2.
 NSaved= 2 IEnMin= 2 EnMin= -516.293476912243     IErMin= 2 ErrMin= 8.03D-06
 ErrMax= 8.03D-06  0.00D+00 EMaxC= 1.00D-01 BMatC= 2.28D-08 BMatP= 1.32D-06
 IDIUse=1 WtCom= 1.00D+00 WtEn= 0.00D+00
 Coeff-Com: -0.414D-01 0.104D+01
 Coeff:     -0.414D-01 0.104D+01
 Gap=     0.368 Goal=   None    Shift=    0.000
 RMSDP=9.13D-07 MaxDP=3.10D-05 DE=-1.81D-06 OVMax= 4.38D-05

 Cycle   3  Pass 1  IDiag  1:
 E= -516.293476921877     Delta-E=       -0.000000009633 Rises=F Damp=F
 DIIS: error= 1.06D-05 at cycle   3 NSaved=   3.
 NSaved= 3 IEnMin= 3 EnMin= -516.293476921877     IErMin= 2 ErrMin= 8.03D-06
 ErrMax= 1.06D-05  0.00D+00 EMaxC= 1.00D-01 BMatC= 2.35D-08 BMatP= 2.28D-08
 IDIUse=1 WtCom= 1.00D+00 WtEn= 0.00D+00
 Coeff-Com: -0.342D-01 0.546D+00 0.488D+00
 Coeff:     -0.342D-01 0.546D+00 0.488D+00
 Gap=     0.368 Goal=   None    Shift=    0.000
 RMSDP=3.91D-07 MaxDP=1.68D-05 DE=-9.63D-09 OVMax= 2.23D-05

 Cycle   4  Pass 1  IDiag  1:
 E= -516.293476935234     Delta-E=       -0.000000013357 Rises=F Damp=F
 DIIS: error= 2.51D-06 at cycle   4 NSaved=   4.
 NSaved= 4 IEnMin= 4 EnMin= -516.293476935234     IErMin= 4 ErrMin= 2.51D-06
 ErrMax= 2.51D-06  0.00D+00 EMaxC= 1.00D-01 BMatC= 1.49D-09 BMatP= 2.28D-08
 IDIUse=1 WtCom= 1.00D+00 WtEn= 0.00D+00
 Coeff-Com: -0.887D-02 0.115D+00 0.231D+00 0.663D+00
 Coeff:     -0.887D-02 0.115D+00 0.231D+00 0.663D+00
 Gap=     0.368 Goal=   None    Shift=    0.000
 RMSDP=1.10D-07 MaxDP=3.58D-06 DE=-1.34D-08 OVMax= 5.72D-06

 Cycle   5  Pass 1  IDiag  1:
 E= -516.293476936051     Delta-E=       -0.000000000818 Rises=F Damp=F
 DIIS: error= 6.37D-07 at cycle   5 NSaved=   5.
 NSaved= 5 IEnMin= 5 EnMin= -516.293476936051     IErMin= 5 ErrMin= 6.37D-07
 ErrMax= 6.37D-07  0.00D+00 EMaxC= 1.00D-01 BMatC= 8.08D-11 BMatP= 1.49D-09
 IDIUse=1 WtCom= 1.00D+00 WtEn= 0.00D+00
 Coeff-Com: -0.228D-02 0.231D-01 0.786D-01 0.299D+00 0.602D+00
 Coeff:     -0.228D-02 0.231D-01 0.786D-01 0.299D+00 0.602D+00
 Gap=     0.368 Goal=   None    Shift=    0.000
 RMSDP=3.08D-08 MaxDP=1.66D-06 DE=-8.18D-10 OVMax= 2.21D-06

 Cycle   6  Pass 1  IDiag  1:
 E= -516.293476936107     Delta-E=       -0.000000000055 Rises=F Damp=F
 DIIS: error= 1.90D-07 at cycle   6 NSaved=   6.
 NSaved= 6 IEnMin= 6 EnMin= -516.293476936107     IErMin= 6 ErrMin= 1.90D-07
 ErrMax= 1.90D-07  0.00D+00 EMaxC= 1.00D-01 BMatC= 6.66D-12 BMatP= 8.08D-11
 IDIUse=1 WtCom= 1.00D+00 WtEn= 0.00D+00
 Coeff-Com:  0.238D-04-0.386D-02 0.828D-02 0.603D-01 0.262D+00 0.674D+00
 Coeff:      0.238D-04-0.386D-02 0.828D-02 0.603D-01 0.262D+00 0.674D+00
 Gap=     0.368 Goal=   None    Shift=    0.000
 RMSDP=8.20D-09 MaxDP=4.08D-07 DE=-5.54D-11 OVMax= 4.76D-07

 SCF Done:  E(RB3LYP) =  -516.293476936     A.U. after    6 cycles
            NFock=  6  Conv=0.82D-08     -V/T= 2.0030
 KE= 5.147290155385D+02 PE=-1.904662844274D+03 EE= 5.333864741612D+02
 Leave Link  502 at Thu Jun 13 12:27:44 2024, MaxMem=  1073741824 cpu:        66.6
 (Enter /apps/z_install_tree/linux-rocky8-ivybridge/gcc-12.2.0/gaussian-09-D.01-wczn3gur5lpur3omlkzwa2l5ecyxp5ef/g09/l508.exe)
 QCSCF skips out because SCF is already converged.
 Leave Link  508 at Thu Jun 13 12:27:44 2024, MaxMem=  1073741824 cpu:         0.0
 (Enter /apps/z_install_tree/linux-rocky8-ivybridge/gcc-12.2.0/gaussian-09-D.01-wczn3gur5lpur3omlkzwa2l5ecyxp5ef/g09/l701.exe)
 Compute integral first derivatives.
 ... and contract with generalized density number  0.
 R6Disp: Adding Grimme-D3 dispersion energy 1st derivatives to the gradient.
 Leave Link  701 at Thu Jun 13 12:27:45 2024, MaxMem=  1073741824 cpu:         3.1
 (Enter /apps/z_install_tree/linux-rocky8-ivybridge/gcc-12.2.0/gaussian-09-D.01-wczn3gur5lpur3omlkzwa2l5ecyxp5ef/g09/l702.exe)
 L702 exits ... SP integral derivatives will be done elsewhere.
 Leave Link  702 at Thu Jun 13 12:27:45 2024, MaxMem=  1073741824 cpu:         0.2
 (Enter /apps/z_install_tree/linux-rocky8-ivybridge/gcc-12.2.0/gaussian-09-D.01-wczn3gur5lpur3omlkzwa2l5ecyxp5ef/g09/l703.exe)
 Compute integral first derivatives, UseDBF=F ICtDFT=           0.
 Integral derivatives from FoFJK, PRISM(SPDF).
 Calling FoFJK, ICntrl=      2127 FMM=F ISym2X=0 I1Cent= 0 IOpClX= 0 NMat=1 NMatS=1 NMatT=0.
 FoFJK:  IHMeth= 1 ICntrl=    2127 DoSepK=F KAlg= 0 I1Cent=   0 FoldK=F
 IRaf=         0 NMat=   1 IRICut=       1 DoRegI=T DoRafI=F ISym2E= 0.
 FoFCou: FMM=F IPFlag=           0 FMFlag=      100000 FMFlg1=         800
         NFxFlg=           0 DoJE=F BraDBF=F KetDBF=F FulRan=T
         wScrn=  0.000000 ICntrl=    2127 IOpCl=  0 I1Cent=           0 NGrid=           0
         NMat0=    1 NMatS0=      1 NMatT0=    0 NMatD0=    1 NMtDS0=    0 NMtDT0=    0
 Symmetry not used in FoFCou.
 Leave Link  703 at Thu Jun 13 12:27:46 2024, MaxMem=  1073741824 cpu:        31.3
 (Enter /apps/z_install_tree/linux-rocky8-ivybridge/gcc-12.2.0/gaussian-09-D.01-wczn3gur5lpur3omlkzwa2l5ecyxp5ef/g09/l716.exe)
 Dipole        = 3.13320954D-02-2.50487170D-02-1.65399224D-01
 -------------------------------------------------------------------
 Center     Atomic                   Forces (Hartrees/Bohr)
 Number     Number              X              Y              Z
 -------------------------------------------------------------------
      1        6          -0.000003202    0.000008947    0.000027686
      2        6           0.000036809   -0.000000042    0.000009358
      3        6           0.000007512    0.000002217    0.000023472
      4        9           0.000021626   -0.000016373   -0.000023637
      5        9          -0.000070696   -0.000020135    0.000003112
      6        9           0.000003302    0.000023214   -0.000040424
      7        9          -0.000002905   -0.000006398   -0.000026651
      8        1          -0.000007892    0.000001747    0.000009491
      9        1           0.000002696    0.000000203    0.000005628
     10        1           0.000005711    0.000002920    0.000007964
     11        1           0.000007038    0.000003700    0.000004002
 -------------------------------------------------------------------
 Cartesian Forces:  Max     0.000070696 RMS     0.000019803
 Leave Link  716 at Thu Jun 13 12:27:47 2024, MaxMem=  1073741824 cpu:         0.5
 (Enter /apps/z_install_tree/linux-rocky8-ivybridge/gcc-12.2.0/gaussian-09-D.01-wczn3gur5lpur3omlkzwa2l5ecyxp5ef/g09/l103.exe)

 GradGradGradGradGradGradGradGradGradGradGradGradGradGradGradGradGradGrad
 Berny optimization.
 Using GEDIIS/GDIIS optimizer.
 FormGI is forming the generalized inverse of G from B-inverse, IUseBI=4.
 Internal  Forces:  Max     0.000068884 RMS     0.000019315
 Search for a local minimum.
 Step number  12 out of a maximum of   56
 All quantities printed in internal units (Hartrees-Bohrs-Radians)
 RMS Force = .19315D-04 SwitMx=.10000D-02 MixMth= 2
 Mixed Optimization -- En-DIIS/RFO-DIIS
 Swapping is turned off.
 Update second derivatives using D2CorX and points    6    7    8    9   10
                                                     11   12
 DE= -3.10D-07 DEPred=-4.23D-07 R= 7.33D-01
 Trust test= 7.33D-01 RLast= 6.31D-03 DXMaxT set to 9.86D-01
 ITU=  0  1  1  0  1  1  1  1  0  0  1  0
     Eigenvalues ---    0.00176   0.00316   0.03486   0.04636   0.05161
     Eigenvalues ---    0.05771   0.08276   0.08616   0.09146   0.12018
     Eigenvalues ---    0.15150   0.15749   0.18036   0.21145   0.22201
     Eigenvalues ---    0.23887   0.24945   0.25398   0.27290   0.32456
     Eigenvalues ---    0.33400   0.33772   0.34008   0.34125   0.35015
     Eigenvalues ---    0.36251   0.48951
 En-DIIS/RFO-DIIS IScMMF=        0 using points:    12   11   10    9    8
 RFO step:  Lambda=-3.18765625D-08.
 NNeg= 0 NP= 5 Switch=  2.50D-03 Rises=F DC=  1.47D-05 SmlDif=  1.00D-05
 RMS Error=  0.3782681757D-04 NUsed= 5 EDIIS=F
 DidBck=F Rises=F RFO-DIIS coefs:    0.80847    0.22049   -0.03452    0.00657   -0.00101
 Iteration  1 RMS(Cart)=  0.00019381 RMS(Int)=  0.00000003
 Iteration  2 RMS(Cart)=  0.00000002 RMS(Int)=  0.00000002
 ITry= 1 IFail=0 DXMaxC= 6.01D-04 DCOld= 1.00D+10 DXMaxT= 9.86D-01 DXLimC= 3.00D+00 Rises=F
 Variable       Old X    -DE/DX   Delta X   Delta X   Delta X     New X
                                 (Linear)    (Quad)   (Total)
    R1        2.84861  -0.00005  -0.00013   0.00002  -0.00012   2.84850
    R2        2.87267   0.00001  -0.00003   0.00008   0.00005   2.87272
    R3        2.05723   0.00000   0.00000   0.00000   0.00000   2.05723
    R4        2.05723   0.00000   0.00001  -0.00001   0.00000   2.05723
    R5        2.55683  -0.00002   0.00001  -0.00006  -0.00005   2.55678
    R6        2.54607   0.00007   0.00015   0.00009   0.00024   2.54631
    R7        2.55690  -0.00003   0.00002  -0.00021  -0.00019   2.55671
    R8        2.64067   0.00003   0.00010  -0.00002   0.00008   2.64075
    R9        2.05818   0.00001   0.00001   0.00001   0.00001   2.05819
   R10        2.05818   0.00001   0.00000   0.00001   0.00001   2.05819
    A1        1.95948  -0.00001  -0.00007   0.00002  -0.00006   1.95942
    A2        1.88049   0.00000   0.00004  -0.00008  -0.00004   1.88045
    A3        1.88049   0.00000  -0.00006   0.00003  -0.00003   1.88046
    A4        1.92358   0.00001   0.00008   0.00003   0.00011   1.92369
    A5        1.92370   0.00000   0.00003  -0.00005  -0.00002   1.92368
    A6        1.89419   0.00000  -0.00002   0.00005   0.00003   1.89422
    A7        1.95239  -0.00003  -0.00008   0.00001  -0.00007   1.95231
    A8        1.94510  -0.00002  -0.00002   0.00002  -0.00001   1.94510
    A9        1.95238  -0.00004  -0.00004  -0.00009  -0.00013   1.95225
   A10        1.87198   0.00004   0.00008   0.00007   0.00014   1.87213
   A11        1.86522   0.00002   0.00004  -0.00009  -0.00006   1.86516
   A12        1.87198   0.00004   0.00004   0.00010   0.00014   1.87212
   A13        1.88598   0.00000  -0.00001   0.00001   0.00000   1.88598
   A14        1.94895   0.00000  -0.00005   0.00005   0.00001   1.94896
   A15        1.94893   0.00001   0.00001   0.00002   0.00003   1.94896
   A16        1.88246   0.00000   0.00006  -0.00005   0.00000   1.88246
   A17        1.88246   0.00000   0.00002  -0.00002   0.00000   1.88246
   A18        1.91246  -0.00001  -0.00003  -0.00002  -0.00005   1.91241
    D1        1.04593  -0.00001  -0.00016   0.00006  -0.00011   1.04582
    D2        3.14153   0.00000  -0.00014   0.00016   0.00003   3.14156
    D3       -1.04606   0.00002  -0.00013   0.00024   0.00011  -1.04595
    D4       -1.07529  -0.00002  -0.00025   0.00007  -0.00018  -1.07547
    D5        1.02031   0.00000  -0.00022   0.00018  -0.00005   1.02027
    D6        3.11591   0.00001  -0.00021   0.00025   0.00004   3.11595
    D7       -3.11589  -0.00001  -0.00022   0.00004  -0.00018  -3.11607
    D8       -1.02029   0.00000  -0.00019   0.00014  -0.00005  -1.02034
    D9        1.07531   0.00001  -0.00018   0.00021   0.00004   1.07534
   D10        3.14155   0.00000   0.00005  -0.00038  -0.00033   3.14122
   D11        1.07399   0.00000   0.00002  -0.00036  -0.00034   1.07365
   D12       -1.07408   0.00000   0.00008  -0.00039  -0.00031  -1.07439
   D13       -1.04526  -0.00001   0.00012  -0.00046  -0.00034  -1.04560
   D14       -3.11282  -0.00001   0.00008  -0.00043  -0.00035  -3.11317
   D15        1.02230   0.00000   0.00014  -0.00047  -0.00032   1.02197
   D16        1.04509   0.00000   0.00016  -0.00041  -0.00025   1.04485
   D17       -1.02247   0.00000   0.00012  -0.00038  -0.00025  -1.02272
   D18        3.11264   0.00001   0.00019  -0.00041  -0.00023   3.11242
         Item               Value     Threshold  Converged?
 Maximum Force            0.000069     0.000450     YES
 RMS     Force            0.000019     0.000300     YES
 Maximum Displacement     0.000601     0.001800     YES
 RMS     Displacement     0.000194     0.001200     YES
 Predicted change in Energy=-3.284128D-08
 Optimization completed.
    -- Stationary point found.
                           ----------------------------
                           !   Optimized Parameters   !
                           ! (Angstroms and Degrees)  !
 --------------------------                            --------------------------
 ! Name  Definition              Value          Derivative Info.                !
 --------------------------------------------------------------------------------
 ! R1    R(1,2)                  1.5074         -DE/DX =   -0.0001              !
 ! R2    R(1,3)                  1.5202         -DE/DX =    0.0                 !
 ! R3    R(1,8)                  1.0886         -DE/DX =    0.0                 !
 ! R4    R(1,9)                  1.0886         -DE/DX =    0.0                 !
 ! R5    R(2,4)                  1.353          -DE/DX =    0.0                 !
 ! R6    R(2,5)                  1.3473         -DE/DX =    0.0001              !
 ! R7    R(2,6)                  1.3531         -DE/DX =    0.0                 !
 ! R8    R(3,7)                  1.3974         -DE/DX =    0.0                 !
 ! R9    R(3,10)                 1.0891         -DE/DX =    0.0                 !
 ! R10   R(3,11)                 1.0891         -DE/DX =    0.0                 !
 ! A1    A(2,1,3)              112.2697         -DE/DX =    0.0                 !
 ! A2    A(2,1,8)              107.7439         -DE/DX =    0.0                 !
 ! A3    A(2,1,9)              107.7439         -DE/DX =    0.0                 !
 ! A4    A(3,1,8)              110.2131         -DE/DX =    0.0                 !
 ! A5    A(3,1,9)              110.2197         -DE/DX =    0.0                 !
 ! A6    A(8,1,9)              108.5291         -DE/DX =    0.0                 !
 ! A7    A(1,2,4)              111.8635         -DE/DX =    0.0                 !
 ! A8    A(1,2,5)              111.4462         -DE/DX =    0.0                 !
 ! A9    A(1,2,6)              111.863          -DE/DX =    0.0                 !
 ! A10   A(4,2,5)              107.2567         -DE/DX =    0.0                 !
 ! A11   A(4,2,6)              106.8691         -DE/DX =    0.0                 !
 ! A12   A(5,2,6)              107.2566         -DE/DX =    0.0                 !
 ! A13   A(1,3,7)              108.0589         -DE/DX =    0.0                 !
 ! A14   A(1,3,10)             111.6666         -DE/DX =    0.0                 !
 ! A15   A(1,3,11)             111.6652         -DE/DX =    0.0                 !
 ! A16   A(7,3,10)             107.857          -DE/DX =    0.0                 !
 ! A17   A(7,3,11)             107.8572         -DE/DX =    0.0                 !
 ! A18   A(10,3,11)            109.5758         -DE/DX =    0.0                 !
 ! D1    D(3,1,2,4)             59.9272         -DE/DX =    0.0                 !
 ! D2    D(3,1,2,5)            179.9965         -DE/DX =    0.0                 !
 ! D3    D(3,1,2,6)            -59.9347         -DE/DX =    0.0                 !
 ! D4    D(8,1,2,4)            -61.6097         -DE/DX =    0.0                 !
 ! D5    D(8,1,2,5)             58.4596         -DE/DX =    0.0                 !
 ! D6    D(8,1,2,6)            178.5284         -DE/DX =    0.0                 !
 ! D7    D(9,1,2,4)           -178.5276         -DE/DX =    0.0                 !
 ! D8    D(9,1,2,5)            -58.4583         -DE/DX =    0.0                 !
 ! D9    D(9,1,2,6)             61.6105         -DE/DX =    0.0                 !
 ! D10   D(2,1,3,7)            179.9976         -DE/DX =    0.0                 !
 ! D11   D(2,1,3,10)            61.535          -DE/DX =    0.0                 !
 ! D12   D(2,1,3,11)           -61.5405         -DE/DX =    0.0                 !
 ! D13   D(8,1,3,7)            -59.8887         -DE/DX =    0.0                 !
 ! D14   D(8,1,3,10)          -178.3513         -DE/DX =    0.0                 !
 ! D15   D(8,1,3,11)            58.5732         -DE/DX =    0.0                 !
 ! D16   D(9,1,3,7)             59.8794         -DE/DX =    0.0                 !
 ! D17   D(9,1,3,10)           -58.5832         -DE/DX =    0.0                 !
 ! D18   D(9,1,3,11)           178.3413         -DE/DX =    0.0                 !
 --------------------------------------------------------------------------------
 Lowest energy point so far.  Saving SCF results.
 GradGradGradGradGradGradGradGradGradGradGradGradGradGradGradGradGradGrad

 Largest change from initial coordinates is atom    6       0.255 Angstoms.
 Leave Link  103 at Thu Jun 13 12:27:47 2024, MaxMem=  1073741824 cpu:         7.6
 (Enter /apps/z_install_tree/linux-rocky8-ivybridge/gcc-12.2.0/gaussian-09-D.01-wczn3gur5lpur3omlkzwa2l5ecyxp5ef/g09/l202.exe)
                          Input orientation:                          
 ---------------------------------------------------------------------
 Center     Atomic      Atomic             Coordinates (Angstroms)
 Number     Number       Type             X           Y           Z
 ---------------------------------------------------------------------
      1          6           0       50.131028   35.358671   31.906701
      2          6           0       50.070620   35.648782   33.384708
      3          6           0       51.503485   35.644870   31.319067
      4          9           0       50.349864   36.944648   33.655647
      5          9           0       48.847985   35.389701   33.888013
      6          9           0       50.958024   34.901926   34.081463
      7          9           0       51.460930   35.347650   29.954324
      8          1           0       49.376806   35.972288   31.417053
      9          1           0       49.871304   34.311237   31.763303
     10          1           0       52.273041   35.021812   31.772727
     11          1           0       51.774912   36.694415   31.423995
 ---------------------------------------------------------------------
                    Distance matrix (angstroms):
                    1          2          3          4          5
     1  C    0.000000
     2  C    1.507421   0.000000
     3  C    1.520153   2.513960   0.000000
     4  F    2.371081   1.353017   2.912022   0.000000
     5  F    2.360668   1.347321   3.703549   2.174281   0.000000
     6  F    2.371102   1.353051   2.912100   2.173451   2.174307
     7  F    2.362316   3.713647   1.397381   4.181467   4.722621
     8  H    1.088637   2.111327   2.153966   2.627477   2.593203
     9  H    1.088640   2.111329   2.154052   3.277933   2.593194
    10  H    2.172474   2.800399   1.089140   3.307763   4.042373
    11  H    2.172457   2.800421   1.089140   2.659634   4.042346
                    6          7          8          9         10
     6  F    0.000000
     7  F    4.181490   0.000000
     8  H    3.277957   2.621702   0.000000
     9  H    2.627497   2.621730   1.767344   0.000000
    10  H    2.659681   2.017990   3.068890   2.504665   0.000000
    11  H    3.307939   2.017992   2.504481   3.068939   1.779704
                   11
    11  H    0.000000
 Symmetry turned off by external request.
 Stoichiometry    C3H4F4
 Framework group  C1[X(C3H4F4)]
 Deg. of freedom    27
 Full point group                 C1      NOp   1
 Rotational constants (GHZ):      5.0043728      1.4148961      1.3957448
 Leave Link  202 at Thu Jun 13 12:27:47 2024, MaxMem=  1073741824 cpu:         1.3
 (Enter /apps/z_install_tree/linux-rocky8-ivybridge/gcc-12.2.0/gaussian-09-D.01-wczn3gur5lpur3omlkzwa2l5ecyxp5ef/g09/l601.exe)
 Copying SCF densities to generalized density rwf, IOpCl= 0 IROHF=0.

 **********************************************************************

            Population analysis using the SCF density.

 **********************************************************************

 Alpha  occ. eigenvalues --  -24.72668 -24.72667 -24.72644 -24.68167 -10.44230
 Alpha  occ. eigenvalues --  -10.27241 -10.21810  -1.33161  -1.24443  -1.24354
 Alpha  occ. eigenvalues --   -1.21208  -0.83764  -0.72477  -0.66893  -0.61549
 Alpha  occ. eigenvalues --   -0.61318  -0.57544  -0.53090  -0.51263  -0.49186
 Alpha  occ. eigenvalues --   -0.48730  -0.47694  -0.45867  -0.44624  -0.43034
 Alpha  occ. eigenvalues --   -0.42614  -0.40950  -0.37056  -0.36546
 Alpha virt. eigenvalues --    0.00246   0.01541   0.02621   0.02929   0.04977
 Alpha virt. eigenvalues --    0.05971   0.06569   0.06909   0.07253   0.10314
 Alpha virt. eigenvalues --    0.11252   0.12725   0.13154   0.13817   0.14613
 Alpha virt. eigenvalues --    0.15135   0.18925   0.20312   0.20837   0.21456
 Alpha virt. eigenvalues --    0.22993   0.23701   0.23756   0.27689   0.27738
 Alpha virt. eigenvalues --    0.28417   0.29110   0.30224   0.31712   0.31783
 Alpha virt. eigenvalues --    0.34005   0.34114   0.35222   0.35590   0.37220
 Alpha virt. eigenvalues --    0.37409   0.38793   0.40384   0.42312   0.46678
 Alpha virt. eigenvalues --    0.48950   0.49674   0.54230   0.54302   0.55814
 Alpha virt. eigenvalues --    0.56551   0.58971   0.61775   0.61907   0.65341
 Alpha virt. eigenvalues --    0.66326   0.74389   0.74604   0.75926   0.76606
 Alpha virt. eigenvalues --    0.88455   0.90368   0.90384   0.94332   0.96143
 Alpha virt. eigenvalues --    0.99885   1.01124   1.09606   1.09841   1.13310
 Alpha virt. eigenvalues --    1.13648   1.15949   1.16302   1.22898   1.24587
 Alpha virt. eigenvalues --    1.25252   1.27672   1.31504   1.31766   1.32720
 Alpha virt. eigenvalues --    1.34951   1.35518   1.37914   1.38100   1.39635
 Alpha virt. eigenvalues --    1.40862   1.40947   1.41598   1.44421   1.44463
 Alpha virt. eigenvalues --    1.48174   1.48177   1.50772   1.53626   1.54384
 Alpha virt. eigenvalues --    1.55653   1.57456   1.63672   1.92528   1.93896
 Alpha virt. eigenvalues --    1.95836   1.96708   1.99600   2.01047   2.08386
 Alpha virt. eigenvalues --    2.08854   2.10146   2.11444   2.13062   2.14859
 Alpha virt. eigenvalues --    2.18518   2.30031   2.32407   2.41746   2.44904
 Alpha virt. eigenvalues --    2.55270   2.56027   2.58311   2.61415   2.68345
 Alpha virt. eigenvalues --    2.73597   2.82268   2.85746   2.89747   2.98503
 Alpha virt. eigenvalues --    2.98692   3.11195   3.19715   3.20787   3.27413
 Alpha virt. eigenvalues --    3.28531   3.34666   3.40772   3.41671   3.42923
 Alpha virt. eigenvalues --    3.48645   3.49341   3.50331   3.53021   3.57788
 Alpha virt. eigenvalues --    3.62297   3.63208   3.66640   3.66978   3.71605
 Alpha virt. eigenvalues --    3.78007   3.90435   3.92710   4.00024   4.01143
 Alpha virt. eigenvalues --    4.05365   4.09949   4.12146   4.21431   4.24636
 Alpha virt. eigenvalues --    4.26072   4.29635   4.42297   4.70824   4.83579
 Alpha virt. eigenvalues --    5.04060   5.08733   6.28728   6.31838   6.32756
 Alpha virt. eigenvalues --    6.34587   6.36991   6.37912   6.39225   6.40985
 Alpha virt. eigenvalues --    6.43418   6.59197   6.71245   6.74296   8.99200
 Alpha virt. eigenvalues --    9.01801   9.02049   9.10706   9.11090   9.12197
 Alpha virt. eigenvalues --    9.13025   9.13198   9.15435   9.25157   9.25841
 Alpha virt. eigenvalues --    9.33872   9.34355   9.42341   9.56822   9.60560
 Alpha virt. eigenvalues --    9.61926   9.68142   9.77885   9.79163  23.81684
 Alpha virt. eigenvalues --   23.90334  23.93656  66.81054  66.81664  66.84277
 Alpha virt. eigenvalues --   66.86109
          Condensed to atoms (all electrons):
               1          2          3          4          5          6
     1  C    5.370119   0.224695  -0.028493  -0.050422  -0.131881  -0.050413
     2  C    0.224695   4.350436   0.045120   0.211168   0.247588   0.211184
     3  C   -0.028493   0.045120   4.950477  -0.010635   0.024702  -0.010644
     4  F   -0.050422   0.211168  -0.010635   9.173771  -0.010426   0.009115
     5  F   -0.131881   0.247588   0.024702  -0.010426   9.190786  -0.010430
     6  F   -0.050413   0.211184  -0.010644   0.009115  -0.010430   9.173768
     7  F   -0.095271   0.015619   0.159848  -0.000445  -0.000154  -0.000445
     8  H    0.414848  -0.032140  -0.013499  -0.004881   0.003437   0.005058
     9  H    0.414843  -0.032144  -0.013487   0.005059   0.003438  -0.004881
    10  H   -0.026156  -0.002043   0.426233  -0.002829  -0.000147   0.003917
    11  H   -0.026129  -0.002057   0.426214   0.003915  -0.000147  -0.002828
               7          8          9         10         11
     1  C   -0.095271   0.414848   0.414843  -0.026156  -0.026129
     2  C    0.015619  -0.032140  -0.032144  -0.002043  -0.002057
     3  C    0.159848  -0.013499  -0.013487   0.426233   0.426214
     4  F   -0.000445  -0.004881   0.005059  -0.002829   0.003915
     5  F   -0.000154   0.003437   0.003438  -0.000147  -0.000147
     6  F   -0.000445   0.005058  -0.004881   0.003917  -0.002828
     7  F    9.312587   0.002279   0.002277  -0.035956  -0.035952
     8  H    0.002279   0.527914  -0.025024   0.004593  -0.007237
     9  H    0.002277  -0.025024   0.527913  -0.007233   0.004592
    10  H   -0.035956   0.004593  -0.007233   0.552847  -0.037043
    11  H   -0.035952  -0.007237   0.004592  -0.037043   0.552841
 Mulliken charges:
               1
     1  C   -0.015741
     2  C    0.762575
     3  C    0.044163
     4  F   -0.323390
     5  F   -0.316767
     6  F   -0.323401
     7  F   -0.324386
     8  H    0.124651
     9  H    0.124646
    10  H    0.123817
    11  H    0.123832
 Sum of Mulliken charges =   0.00000
 Mulliken charges with hydrogens summed into heavy atoms:
               1
     1  C    0.233557
     2  C    0.762575
     3  C    0.291812
     4  F   -0.323390
     5  F   -0.316767
     6  F   -0.323401
     7  F   -0.324386
 Electronic spatial extent (au):  <R**2>=        1011300.4795
 Charge=              0.0000 electrons
 Dipole moment (field-independent basis, Debye):
    X=              0.0796    Y=             -0.0637    Z=             -0.4204  Tot=              0.4326
 Quadrupole moment (field-independent basis, Debye-Ang):
   XX=            -30.5916   YY=            -43.1424   ZZ=            -74.6781
   XY=              0.1530   XZ=            -15.9656   YZ=            -18.0695
 Traceless Quadrupole moment (field-independent basis, Debye-Ang):
   XX=             18.8791   YY=              6.3282   ZZ=            -25.2074
   XY=              0.1530   XZ=            -15.9656   YZ=            -18.0695
 Octapole moment (field-independent basis, Debye-Ang**2):
  XXX=          -5239.5649  YYY=          -4367.2887  ZZZ=          -5935.1755  XYY=          -2039.5297
  XXY=          -1196.6193  XXZ=          -1799.1093  XZZ=          -3519.3783  YZZ=          -2789.7129
  YYZ=          -2012.5183  XYZ=           -708.6388
 Hexadecapole moment (field-independent basis, Debye-Ang**3):
 XXXX=        -549486.7572 YYYY=        -305447.8670 ZZZZ=        -356580.1546 XXXY=        -190502.6683
 XXXZ=        -204326.0820 YYYX=        -214893.2535 YYYZ=        -165275.2516 ZZZX=        -289011.5342
 ZZZY=        -216452.8527 XXYY=        -144918.2256 XXZZ=        -206145.1070 YYZZ=        -145127.4201
 XXYZ=         -70275.2579 YYXZ=         -93751.2065 ZZXY=        -131404.8926
 N-N= 3.402538776378D+02 E-N=-1.904662846394D+03  KE= 5.147290155385D+02
 No NMR shielding tensors so no spin-rotation constants.
 Leave Link  601 at Thu Jun 13 12:27:48 2024, MaxMem=  1073741824 cpu:         3.8
 (Enter /apps/z_install_tree/linux-rocky8-ivybridge/gcc-12.2.0/gaussian-09-D.01-wczn3gur5lpur3omlkzwa2l5ecyxp5ef/g09/l9999.exe)
 1\1\GINC-K139\FOpt\RB3LYP\Gen\C3H4F4\Z5112331\13-Jun-2024\0\\#p opt fr
 eq b3lyp/gen nosymm em=gd3 int=ultrafine scf=xqc scfcyc=96\\tetrafluor
 opropane\\0,1\C,50.1310277641,35.358671222,31.9067011867\C,50.07061977
 23,35.6487822317,33.3847079959\C,51.5034853923,35.6448702658,31.319066
 7018\F,50.3498642622,36.944648371,33.655647373\F,48.8479854719,35.3897
 005726,33.8880125983\F,50.9580239285,34.9019261342,34.0814627336\F,51.
 4609304652,35.3476498314,29.9543243243\H,49.3768062157,35.9722876221,3
 1.4170526207\H,49.8713039718,34.3112370042,31.7633027139\H,52.27304098
 37,35.0218118331,31.772727055\H,51.7749117723,36.6944149118,31.4239946
 967\\Version=ES64L-G09RevD.01\HF=-516.2934769\RMSD=8.204e-09\RMSF=1.98
 0e-05\Dipole=0.0313321,-0.0250487,-0.1653992\Quadrupole=14.036172,4.70
 48904,-18.7410624,0.1137651,-11.8700666,-13.4342112\PG=C01 [X(C3H4F4)]
 \\@


 IF MATHEMATICALLY YOU END UP WITH THE INCORRECT ANSWER,
 TRY MULTIPLYING BY THE PAGE NUMBER.
 Leave Link 9999 at Thu Jun 13 12:27:48 2024, MaxMem=  1073741824 cpu:         0.9
 Job cpu time:       0 days  0 hours 32 minutes 29.5 seconds.
 File lengths (MBytes):  RWF=    135 Int=      0 D2E=      0 Chk=      5 Scr=      2
 Normal termination of Gaussian 09 at Thu Jun 13 12:27:48 2024.
 (Enter /apps/z_install_tree/linux-rocky8-ivybridge/gcc-12.2.0/gaussian-09-D.01-wczn3gur5lpur3omlkzwa2l5ecyxp5ef/g09/l1.exe)
 Link1:  Proceeding to internal job step number  2.
 ------------------------------------------------------------------
 #P Geom=AllCheck Guess=TCheck SCRF=Check GenChk RB3LYP/ChkBas Freq
 ------------------------------------------------------------------
 1/10=4,29=7,30=1,38=1,40=1/1,3;
 2/12=2,15=1,40=1/2;
 3/5=7,6=2,11=2,14=-4,16=1,25=1,30=1,67=1,70=2,71=2,74=-5,75=-5,82=7,116=1,124=31,140=1/1,2,3;
 4/5=101/1;
 5/5=2,7=96,8=3,13=1,98=1/2,8;
 8/6=4,10=90,11=11/1;
 11/6=1,8=1,9=11,15=111,16=1,31=1/1,2,10;
 10/6=1,31=1/2;
 6/7=2,8=2,9=2,10=2,18=1,28=1/1;
 7/8=1,10=1,25=1,30=1/1,2,3,16;
 1/10=4,30=1/3;
 99//99;
 Leave Link    1 at Thu Jun 13 12:27:48 2024, MaxMem=  1073741824 cpu:         1.0
 (Enter /apps/z_install_tree/linux-rocky8-ivybridge/gcc-12.2.0/gaussian-09-D.01-wczn3gur5lpur3omlkzwa2l5ecyxp5ef/g09/l101.exe)
 Structure from the checkpoint file:  "tetrafluoropropane.chk"
 ------------------
 tetrafluoropropane
 ------------------
 Charge =  0 Multiplicity = 1
 Redundant internal coordinates found in file.
 C,0,50.1310277641,35.358671222,31.9067011867
 C,0,50.0706197723,35.6487822317,33.3847079959
 C,0,51.5034853923,35.6448702658,31.3190667018
 F,0,50.3498642622,36.944648371,33.655647373
 F,0,48.8479854719,35.3897005726,33.8880125983
 F,0,50.9580239285,34.9019261342,34.0814627336
 F,0,51.4609304652,35.3476498314,29.9543243243
 H,0,49.3768062157,35.9722876221,31.4170526207
 H,0,49.8713039718,34.3112370042,31.7633027139
 H,0,52.2730409837,35.0218118331,31.772727055
 H,0,51.7749117723,36.6944149118,31.4239946967
 Recover connectivity data from disk.
 NAtoms=     11 NQM=       11 NQMF=       0 NMMI=      0 NMMIF=      0
                NMic=       0 NMicF=      0.
                    Isotopes and Nuclear Properties:
 (Nuclear quadrupole moments (NQMom) in fm**2, nuclear magnetic moments (NMagM)
  in nuclear magnetons)

  Atom         1           2           3           4           5           6           7           8           9          10
 IAtWgt=          12          12          12          19          19          19          19           1           1           1
 AtmWgt=  12.0000000  12.0000000  12.0000000  18.9984033  18.9984033  18.9984033  18.9984033   1.0078250   1.0078250   1.0078250
 NucSpn=           0           0           0           1           1           1           1           1           1           1
 AtZEff=  -3.6000000  -3.6000000  -3.6000000  -6.7500000  -6.7500000  -6.7500000  -6.7500000  -1.0000000  -1.0000000  -1.0000000
 NQMom=    0.0000000   0.0000000   0.0000000   0.0000000   0.0000000   0.0000000   0.0000000   0.0000000   0.0000000   0.0000000
 NMagM=    0.0000000   0.0000000   0.0000000   2.6288670   2.6288670   2.6288670   2.6288670   2.7928460   2.7928460   2.7928460
 AtZNuc=   6.0000000   6.0000000   6.0000000   9.0000000   9.0000000   9.0000000   9.0000000   1.0000000   1.0000000   1.0000000

  Atom        11
 IAtWgt=           1
 AtmWgt=   1.0078250
 NucSpn=           1
 AtZEff=  -1.0000000
 NQMom=    0.0000000
 NMagM=    2.7928460
 AtZNuc=   1.0000000
 Leave Link  101 at Thu Jun 13 12:27:48 2024, MaxMem=  1073741824 cpu:         2.3
 (Enter /apps/z_install_tree/linux-rocky8-ivybridge/gcc-12.2.0/gaussian-09-D.01-wczn3gur5lpur3omlkzwa2l5ecyxp5ef/g09/l103.exe)

 GradGradGradGradGradGradGradGradGradGradGradGradGradGradGradGradGradGrad
 Berny optimization.
 Initialization pass.
                           ----------------------------
                           !    Initial Parameters    !
                           ! (Angstroms and Degrees)  !
 --------------------------                            --------------------------
 ! Name  Definition              Value          Derivative Info.                !
 --------------------------------------------------------------------------------
 ! R1    R(1,2)                  1.5074         calculate D2E/DX2 analytically  !
 ! R2    R(1,3)                  1.5202         calculate D2E/DX2 analytically  !
 ! R3    R(1,8)                  1.0886         calculate D2E/DX2 analytically  !
 ! R4    R(1,9)                  1.0886         calculate D2E/DX2 analytically  !
 ! R5    R(2,4)                  1.353          calculate D2E/DX2 analytically  !
 ! R6    R(2,5)                  1.3473         calculate D2E/DX2 analytically  !
 ! R7    R(2,6)                  1.3531         calculate D2E/DX2 analytically  !
 ! R8    R(3,7)                  1.3974         calculate D2E/DX2 analytically  !
 ! R9    R(3,10)                 1.0891         calculate D2E/DX2 analytically  !
 ! R10   R(3,11)                 1.0891         calculate D2E/DX2 analytically  !
 ! A1    A(2,1,3)              112.2697         calculate D2E/DX2 analytically  !
 ! A2    A(2,1,8)              107.7439         calculate D2E/DX2 analytically  !
 ! A3    A(2,1,9)              107.7439         calculate D2E/DX2 analytically  !
 ! A4    A(3,1,8)              110.2131         calculate D2E/DX2 analytically  !
 ! A5    A(3,1,9)              110.2197         calculate D2E/DX2 analytically  !
 ! A6    A(8,1,9)              108.5291         calculate D2E/DX2 analytically  !
 ! A7    A(1,2,4)              111.8635         calculate D2E/DX2 analytically  !
 ! A8    A(1,2,5)              111.4462         calculate D2E/DX2 analytically  !
 ! A9    A(1,2,6)              111.863          calculate D2E/DX2 analytically  !
 ! A10   A(4,2,5)              107.2567         calculate D2E/DX2 analytically  !
 ! A11   A(4,2,6)              106.8691         calculate D2E/DX2 analytically  !
 ! A12   A(5,2,6)              107.2566         calculate D2E/DX2 analytically  !
 ! A13   A(1,3,7)              108.0589         calculate D2E/DX2 analytically  !
 ! A14   A(1,3,10)             111.6666         calculate D2E/DX2 analytically  !
 ! A15   A(1,3,11)             111.6652         calculate D2E/DX2 analytically  !
 ! A16   A(7,3,10)             107.857          calculate D2E/DX2 analytically  !
 ! A17   A(7,3,11)             107.8572         calculate D2E/DX2 analytically  !
 ! A18   A(10,3,11)            109.5758         calculate D2E/DX2 analytically  !
 ! D1    D(3,1,2,4)             59.9272         calculate D2E/DX2 analytically  !
 ! D2    D(3,1,2,5)            179.9965         calculate D2E/DX2 analytically  !
 ! D3    D(3,1,2,6)            -59.9347         calculate D2E/DX2 analytically  !
 ! D4    D(8,1,2,4)            -61.6097         calculate D2E/DX2 analytically  !
 ! D5    D(8,1,2,5)             58.4596         calculate D2E/DX2 analytically  !
 ! D6    D(8,1,2,6)            178.5284         calculate D2E/DX2 analytically  !
 ! D7    D(9,1,2,4)           -178.5276         calculate D2E/DX2 analytically  !
 ! D8    D(9,1,2,5)            -58.4583         calculate D2E/DX2 analytically  !
 ! D9    D(9,1,2,6)             61.6105         calculate D2E/DX2 analytically  !
 ! D10   D(2,1,3,7)            179.9976         calculate D2E/DX2 analytically  !
 ! D11   D(2,1,3,10)            61.535          calculate D2E/DX2 analytically  !
 ! D12   D(2,1,3,11)           -61.5405         calculate D2E/DX2 analytically  !
 ! D13   D(8,1,3,7)            -59.8887         calculate D2E/DX2 analytically  !
 ! D14   D(8,1,3,10)          -178.3513         calculate D2E/DX2 analytically  !
 ! D15   D(8,1,3,11)            58.5732         calculate D2E/DX2 analytically  !
 ! D16   D(9,1,3,7)             59.8794         calculate D2E/DX2 analytically  !
 ! D17   D(9,1,3,10)           -58.5832         calculate D2E/DX2 analytically  !
 ! D18   D(9,1,3,11)           178.3413         calculate D2E/DX2 analytically  !
 --------------------------------------------------------------------------------
 Trust Radius=3.00D-01 FncErr=1.00D-07 GrdErr=1.00D-07
 Number of steps in this run=      2 maximum allowed number of steps=      2.
 GradGradGradGradGradGradGradGradGradGradGradGradGradGradGradGradGradGrad

 Leave Link  103 at Thu Jun 13 12:27:49 2024, MaxMem=  1073741824 cpu:         0.4
 (Enter /apps/z_install_tree/linux-rocky8-ivybridge/gcc-12.2.0/gaussian-09-D.01-wczn3gur5lpur3omlkzwa2l5ecyxp5ef/g09/l202.exe)
                          Input orientation:                          
 ---------------------------------------------------------------------
 Center     Atomic      Atomic             Coordinates (Angstroms)
 Number     Number       Type             X           Y           Z
 ---------------------------------------------------------------------
      1          6           0       50.131028   35.358671   31.906701
      2          6           0       50.070620   35.648782   33.384708
      3          6           0       51.503485   35.644870   31.319067
      4          9           0       50.349864   36.944648   33.655647
      5          9           0       48.847985   35.389701   33.888013
      6          9           0       50.958024   34.901926   34.081463
      7          9           0       51.460930   35.347650   29.954324
      8          1           0       49.376806   35.972288   31.417053
      9          1           0       49.871304   34.311237   31.763303
     10          1           0       52.273041   35.021812   31.772727
     11          1           0       51.774912   36.694415   31.423995
 ---------------------------------------------------------------------
                    Distance matrix (angstroms):
                    1          2          3          4          5
     1  C    0.000000
     2  C    1.507421   0.000000
     3  C    1.520153   2.513960   0.000000
     4  F    2.371081   1.353017   2.912022   0.000000
     5  F    2.360668   1.347321   3.703549   2.174281   0.000000
     6  F    2.371102   1.353051   2.912100   2.173451   2.174307
     7  F    2.362316   3.713647   1.397381   4.181467   4.722621
     8  H    1.088637   2.111327   2.153966   2.627477   2.593203
     9  H    1.088640   2.111329   2.154052   3.277933   2.593194
    10  H    2.172474   2.800399   1.089140   3.307763   4.042373
    11  H    2.172457   2.800421   1.089140   2.659634   4.042346
                    6          7          8          9         10
     6  F    0.000000
     7  F    4.181490   0.000000
     8  H    3.277957   2.621702   0.000000
     9  H    2.627497   2.621730   1.767344   0.000000
    10  H    2.659681   2.017990   3.068890   2.504665   0.000000
    11  H    3.307939   2.017992   2.504481   3.068939   1.779704
                   11
    11  H    0.000000
 Symmetry turned off by external request.
 Stoichiometry    C3H4F4
 Framework group  C1[X(C3H4F4)]
 Deg. of freedom    27
 Full point group                 C1      NOp   1
 Rotational constants (GHZ):      5.0043728      1.4148961      1.3957448
 Leave Link  202 at Thu Jun 13 12:27:49 2024, MaxMem=  1073741824 cpu:         1.0
 (Enter /apps/z_install_tree/linux-rocky8-ivybridge/gcc-12.2.0/gaussian-09-D.01-wczn3gur5lpur3omlkzwa2l5ecyxp5ef/g09/l301.exe)
 Basis read from chk: "tetrafluoropropane.chk" (5D, 7F)
 No pseudopotential information found on chk file.
   225 basis functions,   338 primitive gaussians,   239 cartesian basis functions
    29 alpha electrons       29 beta electrons
       nuclear repulsion energy       340.2611572004 Hartrees.
 IExCor=  402 DFT=T Ex+Corr=B3LYP ExCW=0 ScaHFX=  0.200000
 ScaDFX=  0.800000  0.720000  1.000000  0.810000 ScalE2=  1.000000  1.000000
 IRadAn=      5 IRanWt=     -1 IRanGd=            0 ICorTp=0 IEmpDi=131
 NAtoms=   11 NActive=   11 NUniq=   11 SFac= 1.00D+00 NAtFMM=   60 NAOKFM=F Big=F
 Integral buffers will be    131072 words long.
 Raffenetti 2 integral format.
 Two-electron integral symmetry is turned off.
 R6Disp:  Grimme-D3 Dispersion energy=       -0.0072795626 Hartrees.
 Nuclear repulsion after empirical dispersion term =      340.2538776378 Hartrees.
 No density basis found on file 20724.
 Leave Link  301 at Thu Jun 13 12:27:49 2024, MaxMem=  1073741824 cpu:         0.6
 (Enter /apps/z_install_tree/linux-rocky8-ivybridge/gcc-12.2.0/gaussian-09-D.01-wczn3gur5lpur3omlkzwa2l5ecyxp5ef/g09/l302.exe)
 NPDir=0 NMtPBC=     1 NCelOv=     1 NCel=       1 NClECP=     1 NCelD=      1
         NCelK=      1 NCelE2=     1 NClLst=     1 CellRange=     0.0.
 One-electron integrals computed using PRISM.
 NBasis=   225 RedAO= T EigKep=  6.69D-05  NBF=   225
 NBsUse=   225 1.00D-06 EigRej= -1.00D+00 NBFU=   225
 Precomputing XC quadrature grid using
 IXCGrd= 4 IRadAn=           5 IRanWt=          -1 IRanGd=           0 AccXCQ= 0.00D+00.
 Generated NRdTot=       0 NPtTot=           0 NUsed=           0 NTot=          32
 NSgBfM=   239   239   239   239   239 MxSgAt=    11 MxSgA2=    11.
 Leave Link  302 at Thu Jun 13 12:27:49 2024, MaxMem=  1073741824 cpu:         6.6
 (Enter /apps/z_install_tree/linux-rocky8-ivybridge/gcc-12.2.0/gaussian-09-D.01-wczn3gur5lpur3omlkzwa2l5ecyxp5ef/g09/l303.exe)
 DipDrv:  MaxL=1.
 Leave Link  303 at Thu Jun 13 12:27:49 2024, MaxMem=  1073741824 cpu:         0.7
 (Enter /apps/z_install_tree/linux-rocky8-ivybridge/gcc-12.2.0/gaussian-09-D.01-wczn3gur5lpur3omlkzwa2l5ecyxp5ef/g09/l401.exe)
 Initial guess from the checkpoint file:  "tetrafluoropropane.chk"
 B after Tr=     0.000000    0.000000    0.000000
         Rot=    1.000000    0.000000    0.000000    0.000000 Ang=   0.00 deg.
 Guess basis will be translated and rotated to current coordinates.
 JPrj=2 DoOrth=T DoCkMO=T.
 Leave Link  401 at Thu Jun 13 12:27:50 2024, MaxMem=  1073741824 cpu:         3.3
 (Enter /apps/z_install_tree/linux-rocky8-ivybridge/gcc-12.2.0/gaussian-09-D.01-wczn3gur5lpur3omlkzwa2l5ecyxp5ef/g09/l502.exe)
 Closed shell SCF:
 Using DIIS extrapolation, IDIIS=  1040.
 Two-electron integral symmetry not used.
 Keep R1 ints in memory in canonical form, NReq=330328726.
 IVT=      188821 IEndB=      188821 NGot=  1073741824 MDV=   750324979
 LenX=   750324979 LenY=   750267417
 Requested convergence on RMS density matrix=1.00D-08 within  96 cycles.
 Requested convergence on MAX density matrix=1.00D-06.
 Requested convergence on             energy=1.00D-06.
 No special actions if energy rises.
 FoFCou: FMM=F IPFlag=           0 FMFlag=           0 FMFlg1=           0
         NFxFlg=           0 DoJE=F BraDBF=F KetDBF=F FulRan=T
         wScrn=  0.000000 ICntrl=     600 IOpCl=  0 I1Cent=           0 NGrid=           0
         NMat0=    1 NMatS0=  25425 NMatT0=    0 NMatD0=    1 NMtDS0=    0 NMtDT0=    0
 Symmetry not used in FoFCou.

 Cycle   1  Pass 1  IDiag  1:
 E= -516.293476936116    
 DIIS: error= 4.96D-08 at cycle   1 NSaved=   1.
 NSaved= 1 IEnMin= 1 EnMin= -516.293476936116     IErMin= 1 ErrMin= 4.96D-08
 ErrMax= 4.96D-08  0.00D+00 EMaxC= 1.00D-01 BMatC= 5.09D-13 BMatP= 5.09D-13
 IDIUse=1 WtCom= 1.00D+00 WtEn= 0.00D+00
 Coeff-Com:  0.100D+01
 Coeff:      0.100D+01
 Gap=     0.368 Goal=   None    Shift=    0.000
 RMSDP=4.13D-09 MaxDP=1.73D-07              OVMax= 2.41D-07

 SCF Done:  E(RB3LYP) =  -516.293476936     A.U. after    1 cycles
            NFock=  1  Conv=0.41D-08     -V/T= 2.0030
 KE= 5.147290086579D+02 PE=-1.904662839514D+03 EE= 5.333864762819D+02
 Leave Link  502 at Thu Jun 13 12:27:52 2024, MaxMem=  1073741824 cpu:        26.0
 (Enter /apps/z_install_tree/linux-rocky8-ivybridge/gcc-12.2.0/gaussian-09-D.01-wczn3gur5lpur3omlkzwa2l5ecyxp5ef/g09/l508.exe)
 QCSCF skips out because SCF is already converged.
 Leave Link  508 at Thu Jun 13 12:27:52 2024, MaxMem=  1073741824 cpu:         0.0
 (Enter /apps/z_install_tree/linux-rocky8-ivybridge/gcc-12.2.0/gaussian-09-D.01-wczn3gur5lpur3omlkzwa2l5ecyxp5ef/g09/l801.exe)
 DoSCS=F DFT=T ScalE2(SS,OS)=  1.000000  1.000000
 Range of M.O.s used for correlation:     1   225
 NBasis=   225 NAE=    29 NBE=    29 NFC=     0 NFV=     0
 NROrb=    225 NOA=    29 NOB=    29 NVA=   196 NVB=   196

 **** Warning!!: The largest alpha MO coefficient is  0.34079445D+02

 Leave Link  801 at Thu Jun 13 12:27:52 2024, MaxMem=  1073741824 cpu:         0.7
 (Enter /apps/z_install_tree/linux-rocky8-ivybridge/gcc-12.2.0/gaussian-09-D.01-wczn3gur5lpur3omlkzwa2l5ecyxp5ef/g09/l1101.exe)
 Using compressed storage, NAtomX=    11.
 Will process     12 centers per pass.
 R6Disp: Adding Grimme-D3 dispersion energy 1st derivatives to the gradient.
 Leave Link 1101 at Thu Jun 13 12:27:52 2024, MaxMem=  1073741824 cpu:         3.3
 (Enter /apps/z_install_tree/linux-rocky8-ivybridge/gcc-12.2.0/gaussian-09-D.01-wczn3gur5lpur3omlkzwa2l5ecyxp5ef/g09/l1102.exe)
 Symmetrizing basis deriv contribution to polar:
 IMax=3 JMax=2 DiffMx= 0.00D+00
 Leave Link 1102 at Thu Jun 13 12:27:53 2024, MaxMem=  1073741824 cpu:         1.1
 (Enter /apps/z_install_tree/linux-rocky8-ivybridge/gcc-12.2.0/gaussian-09-D.01-wczn3gur5lpur3omlkzwa2l5ecyxp5ef/g09/l1110.exe)
 Forming Gx(P) for the SCF density, NAtomX=    11.
 Integral derivatives from FoFJK, PRISM(SPDF).
 Do as many integral derivatives as possible in FoFJK.
 G2DrvN: MDV=    1073741632.
 G2DrvN: will do    12 centers at a time, making    1 passes.
 Calling FoFCou, ICntrl=  3107 FMM=F I1Cent=   0 AccDes= 0.00D+00.
 FoFJK:  IHMeth= 1 ICntrl=    3107 DoSepK=F KAlg= 0 I1Cent=   0 FoldK=F
 IRaf=         0 NMat=   1 IRICut=       1 DoRegI=T DoRafI=F ISym2E= 0.
 FoFCou: FMM=F IPFlag=           0 FMFlag=      100000 FMFlg1=           0
         NFxFlg=           0 DoJE=F BraDBF=F KetDBF=F FulRan=T
         wScrn=  0.000000 ICntrl=    3107 IOpCl=  0 I1Cent=           0 NGrid=           0
         NMat0=    1 NMatS0=      1 NMatT0=    0 NMatD0=    1 NMtDS0=    0 NMtDT0=    0
 Symmetry not used in FoFCou.
 End of G2Drv F.D. properties file   721 does not exist.
 End of G2Drv F.D. properties file   722 does not exist.
 End of G2Drv F.D. properties file   788 does not exist.
 Leave Link 1110 at Thu Jun 13 12:28:08 2024, MaxMem=  1073741824 cpu:       312.5
 (Enter /apps/z_install_tree/linux-rocky8-ivybridge/gcc-12.2.0/gaussian-09-D.01-wczn3gur5lpur3omlkzwa2l5ecyxp5ef/g09/l1002.exe)
 Minotr:  Closed shell wavefunction.
          IDoAtm=11111111111
          Direct CPHF calculation.
          Differentiating once with respect to electric field.
                with respect to dipole field.
          Differentiating once with respect to nuclear coordinates.
          Requested convergence is 1.0D-08 RMS, and 1.0D-07 maximum.
          Secondary convergence is 1.0D-12 RMS, and 1.0D-12 maximum.
          NewPWx=T KeepS1=F KeepF1=F KeepIn=T MapXYZ=F SortEE=F KeepMc=T.
          MDV=    1073741485 using IRadAn=       1.
 Generate precomputed XC quadrature information.
 Keep R1 ints in memory in canonical form, NReq=330145180.
 FoFCou: FMM=F IPFlag=           0 FMFlag=           0 FMFlg1=           0
         NFxFlg=           0 DoJE=F BraDBF=F KetDBF=F FulRan=T
         wScrn=  0.000000 ICntrl=     600 IOpCl=  0 I1Cent=           0 NGrid=           0
         NMat0=    1 NMatS0=  25425 NMatT0=    0 NMatD0=    1 NMtDS0=    0 NMtDT0=    0
 Symmetry not used in FoFCou.
          Solving linear equations simultaneously, MaxMat=       0.
          There are    36 degrees of freedom in the 1st order CPHF.  IDoFFX=6 NUNeed=     3.
     33 vectors produced by pass  0 Test12= 1.58D-14 2.78D-09 XBig12= 2.06D+01 1.05D+00.
 AX will form    33 AO Fock derivatives at one time.
     33 vectors produced by pass  1 Test12= 1.58D-14 2.78D-09 XBig12= 3.02D+00 3.44D-01.
     33 vectors produced by pass  2 Test12= 1.58D-14 2.78D-09 XBig12= 6.03D-02 3.98D-02.
     33 vectors produced by pass  3 Test12= 1.58D-14 2.78D-09 XBig12= 5.38D-04 3.09D-03.
     33 vectors produced by pass  4 Test12= 1.58D-14 2.78D-09 XBig12= 1.03D-06 1.18D-04.
     28 vectors produced by pass  5 Test12= 1.58D-14 2.78D-09 XBig12= 1.74D-09 5.93D-06.
      9 vectors produced by pass  6 Test12= 1.58D-14 2.78D-09 XBig12= 2.54D-12 2.77D-07.
      3 vectors produced by pass  7 Test12= 1.58D-14 2.78D-09 XBig12= 3.70D-15 9.54D-09.
 InvSVY:  IOpt=1 It=  1 EMax= 3.55D-15
 Solved reduced A of dimension   205 with    36 vectors.
 FullF1:  Do perturbations    1 to     3.
 Isotropic polarizability for W=    0.000000       40.43 Bohr**3.
 End of Minotr F.D. properties file   721 does not exist.
 End of Minotr F.D. properties file   722 does not exist.
 End of Minotr F.D. properties file   788 does not exist.
 Leave Link 1002 at Thu Jun 13 12:28:28 2024, MaxMem=  1073741824 cpu:       381.7
 (Enter /apps/z_install_tree/linux-rocky8-ivybridge/gcc-12.2.0/gaussian-09-D.01-wczn3gur5lpur3omlkzwa2l5ecyxp5ef/g09/l601.exe)
 Copying SCF densities to generalized density rwf, IOpCl= 0 IROHF=0.

 **********************************************************************

            Population analysis using the SCF density.

 **********************************************************************

 Alpha  occ. eigenvalues --  -24.72668 -24.72667 -24.72644 -24.68167 -10.44230
 Alpha  occ. eigenvalues --  -10.27241 -10.21810  -1.33161  -1.24443  -1.24354
 Alpha  occ. eigenvalues --   -1.21208  -0.83764  -0.72477  -0.66893  -0.61549
 Alpha  occ. eigenvalues --   -0.61318  -0.57544  -0.53090  -0.51263  -0.49186
 Alpha  occ. eigenvalues --   -0.48730  -0.47694  -0.45867  -0.44624  -0.43033
 Alpha  occ. eigenvalues --   -0.42614  -0.40950  -0.37057  -0.36546
 Alpha virt. eigenvalues --    0.00246   0.01541   0.02621   0.02929   0.04977
 Alpha virt. eigenvalues --    0.05971   0.06569   0.06909   0.07253   0.10314
 Alpha virt. eigenvalues --    0.11252   0.12725   0.13154   0.13817   0.14613
 Alpha virt. eigenvalues --    0.15135   0.18925   0.20312   0.20837   0.21456
 Alpha virt. eigenvalues --    0.22993   0.23701   0.23756   0.27689   0.27738
 Alpha virt. eigenvalues --    0.28417   0.29110   0.30224   0.31712   0.31783
 Alpha virt. eigenvalues --    0.34005   0.34114   0.35222   0.35590   0.37220
 Alpha virt. eigenvalues --    0.37409   0.38793   0.40384   0.42312   0.46678
 Alpha virt. eigenvalues --    0.48950   0.49674   0.54230   0.54302   0.55814
 Alpha virt. eigenvalues --    0.56551   0.58971   0.61775   0.61907   0.65341
 Alpha virt. eigenvalues --    0.66326   0.74389   0.74604   0.75926   0.76606
 Alpha virt. eigenvalues --    0.88455   0.90368   0.90384   0.94332   0.96143
 Alpha virt. eigenvalues --    0.99885   1.01124   1.09606   1.09841   1.13310
 Alpha virt. eigenvalues --    1.13648   1.15949   1.16302   1.22898   1.24587
 Alpha virt. eigenvalues --    1.25252   1.27672   1.31504   1.31766   1.32720
 Alpha virt. eigenvalues --    1.34951   1.35518   1.37914   1.38100   1.39635
 Alpha virt. eigenvalues --    1.40862   1.40947   1.41598   1.44421   1.44463
 Alpha virt. eigenvalues --    1.48174   1.48177   1.50772   1.53626   1.54384
 Alpha virt. eigenvalues --    1.55653   1.57456   1.63672   1.92528   1.93896
 Alpha virt. eigenvalues --    1.95836   1.96708   1.99600   2.01047   2.08386
 Alpha virt. eigenvalues --    2.08854   2.10146   2.11444   2.13062   2.14859
 Alpha virt. eigenvalues --    2.18518   2.30031   2.32407   2.41746   2.44904
 Alpha virt. eigenvalues --    2.55270   2.56027   2.58311   2.61415   2.68345
 Alpha virt. eigenvalues --    2.73597   2.82268   2.85746   2.89747   2.98503
 Alpha virt. eigenvalues --    2.98692   3.11195   3.19715   3.20787   3.27413
 Alpha virt. eigenvalues --    3.28531   3.34666   3.40772   3.41671   3.42923
 Alpha virt. eigenvalues --    3.48645   3.49341   3.50331   3.53021   3.57788
 Alpha virt. eigenvalues --    3.62297   3.63208   3.66640   3.66978   3.71605
 Alpha virt. eigenvalues --    3.78007   3.90435   3.92710   4.00024   4.01143
 Alpha virt. eigenvalues --    4.05365   4.09949   4.12146   4.21431   4.24636
 Alpha virt. eigenvalues --    4.26072   4.29635   4.42297   4.70824   4.83579
 Alpha virt. eigenvalues --    5.04060   5.08733   6.28728   6.31838   6.32756
 Alpha virt. eigenvalues --    6.34587   6.36991   6.37912   6.39225   6.40985
 Alpha virt. eigenvalues --    6.43418   6.59197   6.71245   6.74296   8.99200
 Alpha virt. eigenvalues --    9.01801   9.02049   9.10706   9.11090   9.12197
 Alpha virt. eigenvalues --    9.13025   9.13198   9.15435   9.25157   9.25841
 Alpha virt. eigenvalues --    9.33872   9.34355   9.42341   9.56822   9.60560
 Alpha virt. eigenvalues --    9.61926   9.68142   9.77885   9.79163  23.81684
 Alpha virt. eigenvalues --   23.90334  23.93656  66.81054  66.81664  66.84277
 Alpha virt. eigenvalues --   66.86109
          Condensed to atoms (all electrons):
               1          2          3          4          5          6
     1  C    5.370119   0.224695  -0.028493  -0.050422  -0.131881  -0.050413
     2  C    0.224695   4.350437   0.045120   0.211168   0.247588   0.211184
     3  C   -0.028493   0.045120   4.950477  -0.010635   0.024702  -0.010644
     4  F   -0.050422   0.211168  -0.010635   9.173771  -0.010426   0.009115
     5  F   -0.131881   0.247588   0.024702  -0.010426   9.190786  -0.010430
     6  F   -0.050413   0.211184  -0.010644   0.009115  -0.010430   9.173767
     7  F   -0.095271   0.015619   0.159848  -0.000445  -0.000154  -0.000445
     8  H    0.414848  -0.032140  -0.013499  -0.004881   0.003437   0.005058
     9  H    0.414843  -0.032144  -0.013487   0.005059   0.003438  -0.004881
    10  H   -0.026156  -0.002043   0.426233  -0.002829  -0.000147   0.003917
    11  H   -0.026129  -0.002057   0.426214   0.003915  -0.000147  -0.002828
               7          8          9         10         11
     1  C   -0.095271   0.414848   0.414843  -0.026156  -0.026129
     2  C    0.015619  -0.032140  -0.032144  -0.002043  -0.002057
     3  C    0.159848  -0.013499  -0.013487   0.426233   0.426214
     4  F   -0.000445  -0.004881   0.005059  -0.002829   0.003915
     5  F   -0.000154   0.003437   0.003438  -0.000147  -0.000147
     6  F   -0.000445   0.005058  -0.004881   0.003917  -0.002828
     7  F    9.312587   0.002279   0.002277  -0.035956  -0.035951
     8  H    0.002279   0.527914  -0.025024   0.004593  -0.007237
     9  H    0.002277  -0.025024   0.527913  -0.007233   0.004592
    10  H   -0.035956   0.004593  -0.007233   0.552847  -0.037043
    11  H   -0.035951  -0.007237   0.004592  -0.037043   0.552840
 Mulliken charges:
               1
     1  C   -0.015741
     2  C    0.762574
     3  C    0.044163
     4  F   -0.323389
     5  F   -0.316767
     6  F   -0.323400
     7  F   -0.324386
     8  H    0.124651
     9  H    0.124646
    10  H    0.123817
    11  H    0.123832
 Sum of Mulliken charges =   0.00000
 Mulliken charges with hydrogens summed into heavy atoms:
               1
     1  C    0.233557
     2  C    0.762574
     3  C    0.291812
     4  F   -0.323389
     5  F   -0.316767
     6  F   -0.323400
     7  F   -0.324386
 APT charges:
               1
     1  C   -0.082134
     2  C    1.620604
     3  C    0.600555
     4  F   -0.542997
     5  F   -0.561011
     6  F   -0.543025
     7  F   -0.520915
     8  H    0.024802
     9  H    0.024802
    10  H   -0.010342
    11  H   -0.010339
 Sum of APT charges =   0.00000
 APT charges with hydrogens summed into heavy atoms:
               1
     1  C   -0.032530
     2  C    1.620604
     3  C    0.579873
     4  F   -0.542997
     5  F   -0.561011
     6  F   -0.543025
     7  F   -0.520915
 Electronic spatial extent (au):  <R**2>=        1011300.4790
 Charge=              0.0000 electrons
 Dipole moment (field-independent basis, Debye):
    X=              0.0796    Y=             -0.0637    Z=             -0.4204  Tot=              0.4326
 Quadrupole moment (field-independent basis, Debye-Ang):
   XX=            -30.5912   YY=            -43.1423   ZZ=            -74.6778
   XY=              0.1532   XZ=            -15.9653   YZ=            -18.0693
 Traceless Quadrupole moment (field-independent basis, Debye-Ang):
   XX=             18.8792   YY=              6.3281   ZZ=            -25.2074
   XY=              0.1532   XZ=            -15.9653   YZ=            -18.0693
 Octapole moment (field-independent basis, Debye-Ang**2):
  XXX=          -5239.5397  YYY=          -4367.2810  ZZZ=          -5935.1632  XYY=          -2039.5185
  XXY=          -1196.6027  XXZ=          -1799.0882  XZZ=          -3519.3618  YZZ=          -2789.7022
  YYZ=          -2012.5091  XYZ=           -708.6249
 Hexadecapole moment (field-independent basis, Debye-Ang**3):
 XXXX=        -549485.0445 YYYY=        -305447.4854 ZZZZ=        -356579.6252 XXXY=        -190501.5224
 XXXZ=        -204324.7274 YYYX=        -214892.7134 YYYZ=        -165274.8388 ZZZX=        -289010.7902
 ZZZY=        -216452.3640 XXYY=        -144917.4461 XXZZ=        -206144.0864 YYZZ=        -145126.9709
 XXYZ=         -70274.3583 YYXZ=         -93750.6016 ZZXY=        -131404.2188
 N-N= 3.402538776378D+02 E-N=-1.904662837245D+03  KE= 5.147290086579D+02
  Exact polarizability:  40.574   0.420  37.739  -2.344   0.438  42.974
 Approx polarizability:  53.347   0.167  52.838  -0.015   0.060  53.085
 No NMR shielding tensors so no spin-rotation constants.
 Leave Link  601 at Thu Jun 13 12:28:28 2024, MaxMem=  1073741824 cpu:         5.2
 (Enter /apps/z_install_tree/linux-rocky8-ivybridge/gcc-12.2.0/gaussian-09-D.01-wczn3gur5lpur3omlkzwa2l5ecyxp5ef/g09/l701.exe)
 Compute integral second derivatives.
 ... and contract with generalized density number  0.
 R6Disp: Adding Grimme-D3 dispersion energy 2nd derivatives to the Hessian.
 Leave Link  701 at Thu Jun 13 12:28:29 2024, MaxMem=  1073741824 cpu:         2.9
 (Enter /apps/z_install_tree/linux-rocky8-ivybridge/gcc-12.2.0/gaussian-09-D.01-wczn3gur5lpur3omlkzwa2l5ecyxp5ef/g09/l702.exe)
 L702 exits ... SP integral derivatives will be done elsewhere.
 Leave Link  702 at Thu Jun 13 12:28:29 2024, MaxMem=  1073741824 cpu:         0.2
 (Enter /apps/z_install_tree/linux-rocky8-ivybridge/gcc-12.2.0/gaussian-09-D.01-wczn3gur5lpur3omlkzwa2l5ecyxp5ef/g09/l703.exe)
 Compute integral second derivatives, UseDBF=F ICtDFT=           0.
 Integral derivatives from FoFJK, PRISM(SPDF).
 Calling FoFJK, ICntrl=    100127 FMM=F ISym2X=0 I1Cent= 0 IOpClX= 0 NMat=1 NMatS=1 NMatT=0.
 FoFJK:  IHMeth= 1 ICntrl=  100127 DoSepK=F KAlg= 0 I1Cent=   0 FoldK=F
 IRaf=         0 NMat=   1 IRICut=       1 DoRegI=T DoRafI=F ISym2E= 0.
 FoFCou: FMM=F IPFlag=           0 FMFlag=      100000 FMFlg1=         800
         NFxFlg=           0 DoJE=F BraDBF=F KetDBF=F FulRan=T
         wScrn=  0.000000 ICntrl=  100127 IOpCl=  0 I1Cent=           0 NGrid=           0
         NMat0=    1 NMatS0=      1 NMatT0=    0 NMatD0=    1 NMtDS0=    0 NMtDT0=    0
 Symmetry not used in FoFCou.
 Leave Link  703 at Thu Jun 13 12:28:49 2024, MaxMem=  1073741824 cpu:       396.8
 (Enter /apps/z_install_tree/linux-rocky8-ivybridge/gcc-12.2.0/gaussian-09-D.01-wczn3gur5lpur3omlkzwa2l5ecyxp5ef/g09/l716.exe)
 Dipole        = 3.13333600D-02-2.50479680D-02-1.65397673D-01
 Polarizability= 4.05738472D+01 4.20241429D-01 3.77387060D+01
                -2.34409192D+00 4.38254645D-01 4.29735042D+01
 Full mass-weighted force constant matrix:
 Low frequencies ---   -2.9561    0.0008    0.0009    0.0012    2.9173    4.5885
 Low frequencies ---   83.9862  101.9856  168.9218
 Diagonal vibrational polarizability:
       15.7754717      34.4813954      10.5490434
 Harmonic frequencies (cm**-1), IR intensities (KM/Mole), Raman scattering
 activities (A**4/AMU), depolarization ratios for plane and unpolarized
 incident light, reduced masses (AMU), force constants (mDyne/A),
 and normal coordinates:
                      1                      2                      3
                      A                      A                      A
 Frequencies --     83.9846               101.9844               168.9214
 Red. masses --      3.1050                 3.4393                 8.7722
 Frc consts  --      0.0129                 0.0211                 0.1475
 IR Inten    --      7.7859                 0.5632                 6.1192
  Atom  AN      X      Y      Z        X      Y      Z        X      Y      Z
     1   6    -0.03   0.09  -0.02     0.07  -0.22   0.05     0.27   0.10   0.06
     2   6     0.00   0.01   0.00     0.02  -0.06   0.01     0.10   0.04   0.07
     3   6    -0.08   0.26  -0.05    -0.04   0.14  -0.03     0.17   0.01  -0.18
     4   9     0.03  -0.02   0.08     0.11  -0.05  -0.13    -0.05   0.03   0.26
     5   9     0.00   0.00   0.00    -0.03   0.10  -0.02    -0.04  -0.08  -0.30
     6   9    -0.01  -0.06  -0.07    -0.08  -0.05   0.15    -0.05   0.05   0.25
     7   9     0.06  -0.20   0.04    -0.03   0.10  -0.02    -0.25  -0.11  -0.16
     8   1    -0.14  -0.01   0.03    -0.12  -0.49   0.00     0.25   0.08   0.07
     9   1     0.12   0.06  -0.04     0.36  -0.31   0.17     0.24   0.10   0.06
    10   1     0.06   0.61   0.18     0.16   0.36  -0.06     0.26   0.00  -0.34
    11   1    -0.35   0.37  -0.39    -0.33   0.21  -0.06     0.25   0.01  -0.34
                      4                      5                      6
                      A                      A                      A
 Frequencies --    339.7341               358.4560               390.7965
 Red. masses --     12.2702                 3.7747                 6.6275
 Frc consts  --      0.8344                 0.2858                 0.5963
 IR Inten    --      1.3122                 1.1128                 8.9286
  Atom  AN      X      Y      Z        X      Y      Z        X      Y      Z
     1   6    -0.12  -0.05  -0.07     0.06  -0.20   0.04     0.25   0.07   0.00
     2   6    -0.04   0.01   0.11    -0.02   0.08  -0.02    -0.06  -0.02   0.01
     3   6    -0.09  -0.10  -0.35     0.02  -0.06   0.01     0.30   0.08  -0.04
     4   9    -0.09   0.00   0.19    -0.08   0.04   0.20    -0.19   0.04  -0.13
     5   9     0.00   0.06   0.28    -0.04   0.13  -0.03     0.03   0.07   0.29
     6   9    -0.10   0.02   0.19     0.07  -0.01  -0.21    -0.13  -0.18  -0.08
     7   9     0.38   0.02  -0.45     0.00   0.01   0.00    -0.10  -0.03  -0.02
     8   1    -0.21  -0.06   0.06    -0.07  -0.59  -0.23     0.35   0.06  -0.16
     9   1    -0.22  -0.04   0.06     0.34  -0.33   0.42     0.34   0.07  -0.16
    10   1    -0.13  -0.09  -0.28     0.10  -0.01  -0.05     0.36   0.06  -0.17
    11   1    -0.12  -0.10  -0.28    -0.09  -0.04   0.06     0.35   0.08  -0.17
                      7                      8                      9
                      A                      A                      A
 Frequencies --    527.6891               544.5038               653.9541
 Red. masses --      7.4578                 9.9922                 8.2035
 Frc consts  --      1.2235                 1.7455                 2.0670
 IR Inten    --      0.2340                 3.1668                23.6776
  Atom  AN      X      Y      Z        X      Y      Z        X      Y      Z
     1   6     0.01  -0.04   0.01    -0.07   0.00   0.12    -0.04  -0.09  -0.37
     2   6    -0.06   0.21  -0.04     0.24   0.08   0.04     0.05  -0.04  -0.26
     3   6     0.01  -0.03   0.01    -0.21  -0.06   0.02    -0.02   0.00   0.04
     4   9     0.23   0.23   0.03    -0.24   0.29  -0.06    -0.09  -0.15   0.16
     5   9     0.10  -0.32   0.07     0.31   0.05  -0.18     0.35   0.11   0.03
     6   9    -0.31   0.04  -0.09    -0.04  -0.37   0.07    -0.17   0.13   0.10
     7   9     0.00   0.01   0.00     0.05   0.02   0.02    -0.07   0.00   0.12
     8   1    -0.09  -0.44  -0.33    -0.20   0.02   0.35     0.04  -0.07  -0.48
     9   1     0.27  -0.17   0.45    -0.20   0.00   0.35     0.05  -0.10  -0.47
    10   1     0.00  -0.05  -0.01    -0.23  -0.04   0.09    -0.07   0.00   0.13
    11   1     0.02  -0.04   0.03    -0.23  -0.06   0.09    -0.07   0.01   0.13
                     10                     11                     12
                      A                      A                      A
 Frequencies --    811.0288               839.2787               998.7353
 Red. masses --      1.2210                 5.8954                 2.1303
 Frc consts  --      0.4732                 2.4467                 1.2520
 IR Inten    --      1.4351                18.5127               108.6360
  Atom  AN      X      Y      Z        X      Y      Z        X      Y      Z
     1   6    -0.03   0.09  -0.02     0.06   0.10   0.36    -0.03   0.10  -0.02
     2   6     0.00   0.02   0.00     0.04   0.01   0.00    -0.06   0.20  -0.04
     3   6    -0.02   0.05  -0.01    -0.04  -0.01   0.01     0.02  -0.08   0.02
     4   9    -0.01  -0.04  -0.02    -0.05  -0.26  -0.05    -0.01  -0.10  -0.03
     5   9     0.00   0.01   0.00     0.16   0.04  -0.04     0.00  -0.01   0.00
     6   9     0.02  -0.02   0.03    -0.18   0.15  -0.14     0.06  -0.06   0.07
     7   9     0.00  -0.01   0.00     0.04   0.00  -0.05    -0.01   0.02   0.00
     8   1    -0.36  -0.37  -0.08    -0.07   0.09   0.56     0.15  -0.10  -0.55
     9   1     0.49  -0.06   0.16    -0.07   0.10   0.56    -0.13   0.05   0.56
    10   1    -0.35  -0.32   0.05     0.01   0.00  -0.07     0.25   0.24   0.06
    11   1     0.46  -0.08   0.03     0.02  -0.02  -0.07    -0.33   0.03  -0.12
                     13                     14                     15
                      A                      A                      A
 Frequencies --   1023.0553              1062.3507              1147.1374
 Red. masses --      8.1581                 3.7196                 6.2633
 Frc consts  --      5.0308                 2.4733                 4.8561
 IR Inten    --    146.9094                17.0842               229.3398
  Atom  AN      X      Y      Z        X      Y      Z        X      Y      Z
     1   6    -0.12  -0.03   0.04     0.31   0.08  -0.07    -0.11  -0.06  -0.12
     2   6    -0.19  -0.05   0.04     0.10   0.03   0.00     0.53   0.14  -0.11
     3   6     0.09   0.14   0.54    -0.31  -0.07   0.12     0.13   0.07   0.16
     4   9     0.02   0.03   0.01    -0.01  -0.02  -0.01    -0.05  -0.05   0.00
     5   9     0.11   0.02  -0.06    -0.07  -0.01   0.05    -0.18  -0.04   0.08
     6   9     0.03  -0.01   0.02    -0.01   0.01  -0.01    -0.06   0.01  -0.02
     7   9    -0.03  -0.09  -0.37     0.01  -0.01  -0.05    -0.03  -0.03  -0.08
     8   1     0.11   0.00  -0.26     0.41   0.09  -0.19    -0.32   0.04   0.34
     9   1     0.12  -0.04  -0.25     0.41   0.08  -0.19    -0.29  -0.07   0.37
    10   1     0.09   0.06   0.37    -0.36  -0.07   0.18     0.09   0.06   0.21
    11   1     0.07   0.14   0.35    -0.36  -0.07   0.19     0.08   0.08   0.21
                     16                     17                     18
                      A                      A                      A
 Frequencies --   1174.1131              1253.2120              1257.1686
 Red. masses --      2.3062                 3.4189                 1.3397
 Frc consts  --      1.8732                 3.1637                 1.2475
 IR Inten    --    115.5723               132.8311                38.8859
  Atom  AN      X      Y      Z        X      Y      Z        X      Y      Z
     1   6     0.04  -0.15   0.03    -0.11  -0.04  -0.05     0.02  -0.06   0.01
     2   6    -0.06   0.21  -0.04     0.11   0.11   0.39    -0.04   0.13  -0.03
     3   6    -0.05   0.17  -0.04     0.00   0.00  -0.01     0.02  -0.05   0.01
     4   9     0.00  -0.05   0.00    -0.02  -0.07  -0.04     0.00  -0.02   0.00
     5   9     0.00  -0.02   0.00     0.03   0.00  -0.05     0.00  -0.01   0.00
     6   9     0.03  -0.03   0.02    -0.05   0.02  -0.06     0.01  -0.02   0.01
     7   9     0.01  -0.04   0.01     0.00   0.01   0.02    -0.01   0.03  -0.01
     8   1     0.30   0.22   0.07     0.23  -0.04  -0.56    -0.12   0.06   0.38
     9   1    -0.36  -0.02  -0.11     0.23  -0.05  -0.55     0.11  -0.03  -0.39
    10   1    -0.26  -0.31  -0.36     0.10   0.01  -0.16    -0.14   0.11   0.54
    11   1     0.34   0.03   0.42     0.10  -0.01  -0.15     0.12  -0.04  -0.55
                     19                     20                     21
                      A                      A                      A
 Frequencies --   1324.9983              1356.8009              1438.8802
 Red. masses --      1.1458                 1.8832                 1.4100
 Frc consts  --      1.1852                 2.0426                 1.7199
 IR Inten    --     21.2766                77.8909                39.7196
  Atom  AN      X      Y      Z        X      Y      Z        X      Y      Z
     1   6     0.01  -0.04   0.01    -0.10   0.00   0.16     0.05  -0.01  -0.11
     2   6     0.02  -0.08   0.02     0.07  -0.01  -0.17    -0.03   0.00   0.04
     3   6    -0.01   0.05  -0.01    -0.06  -0.01   0.04    -0.08   0.00   0.11
     4   9     0.00   0.01   0.00     0.00   0.02   0.02     0.00   0.00   0.00
     5   9     0.00   0.01   0.00    -0.03   0.00   0.02     0.01   0.00   0.00
     6   9    -0.01   0.01  -0.01     0.01  -0.01   0.02     0.00   0.00   0.00
     7   9     0.00   0.01   0.00     0.02   0.01   0.01     0.01   0.01   0.01
     8   1     0.34   0.04  -0.37     0.32   0.07  -0.39    -0.17   0.03   0.26
     9   1    -0.35  -0.01   0.36     0.34  -0.03  -0.37    -0.15  -0.01   0.26
    10   1    -0.31  -0.03   0.39     0.19  -0.03  -0.41     0.30  -0.01  -0.55
    11   1     0.32  -0.01  -0.38     0.19  -0.03  -0.41     0.31  -0.04  -0.54
                     22                     23                     24
                      A                      A                      A
 Frequencies --   1487.9767              1525.2921              3065.1098
 Red. masses --      1.0958                 1.0869                 1.0560
 Frc consts  --      1.4295                 1.4898                 5.8453
 IR Inten    --      6.7469                 1.9344                16.5970
  Atom  AN      X      Y      Z        X      Y      Z        X      Y      Z
     1   6    -0.06  -0.03  -0.05     0.01   0.00   0.00     0.01   0.01   0.01
     2   6    -0.02   0.00   0.01     0.00   0.00   0.00     0.00   0.00   0.00
     3   6     0.01   0.00  -0.01     0.07   0.03   0.03    -0.05  -0.02  -0.03
     4   9     0.00   0.00   0.00     0.00   0.00   0.00     0.00   0.00   0.00
     5   9     0.00   0.00   0.00     0.00   0.00   0.00     0.00   0.00   0.00
     6   9     0.00   0.00   0.00     0.00   0.00   0.00     0.00   0.00   0.00
     7   9     0.00   0.00   0.00     0.00   0.00   0.01     0.00   0.00   0.00
     8   1     0.30   0.60   0.21    -0.04  -0.07  -0.02    -0.11   0.09  -0.07
     9   1     0.54  -0.22   0.38    -0.07   0.03  -0.04    -0.03  -0.16  -0.02
    10   1    -0.06  -0.07   0.01    -0.33  -0.59  -0.18     0.48  -0.41   0.28
    11   1    -0.09   0.03  -0.01    -0.57   0.21  -0.35     0.16   0.67   0.05
                     25                     26                     27
                      A                      A                      A
 Frequencies --   3081.7294              3110.1481              3136.3337
 Red. masses --      1.0585                 1.1098                 1.1080
 Frc consts  --      5.9227                 6.3252                 6.4217
 IR Inten    --      5.9643                 5.1471                10.6141
  Atom  AN      X      Y      Z        X      Y      Z        X      Y      Z
     1   6     0.05   0.02   0.03     0.01  -0.05   0.01    -0.02   0.08  -0.02
     2   6     0.00   0.00   0.00     0.00   0.00   0.00     0.00   0.00   0.00
     3   6     0.01   0.01   0.01    -0.02   0.08  -0.02    -0.01   0.05  -0.01
     4   9     0.00   0.00   0.00     0.00   0.00   0.00     0.00   0.00   0.00
     5   9     0.00   0.00   0.00     0.00   0.00   0.00     0.00   0.00   0.00
     6   9     0.00   0.00   0.00     0.00   0.00   0.00     0.00   0.00   0.00
     7   9     0.00   0.00   0.00     0.00   0.00   0.00     0.00   0.00   0.00
     8   1    -0.47   0.40  -0.31    -0.25   0.21  -0.17     0.42  -0.33   0.27
     9   1    -0.15  -0.66  -0.09     0.09   0.35   0.05    -0.15  -0.58  -0.08
    10   1    -0.11   0.10  -0.07     0.43  -0.35   0.24     0.26  -0.21   0.14
    11   1    -0.04  -0.16  -0.01    -0.15  -0.58  -0.05    -0.10  -0.35  -0.03

 -------------------
 - Thermochemistry -
 -------------------
 Temperature   298.150 Kelvin.  Pressure   1.00000 Atm.
 Atom     1 has atomic number  6 and mass  12.00000
 Atom     2 has atomic number  6 and mass  12.00000
 Atom     3 has atomic number  6 and mass  12.00000
 Atom     4 has atomic number  9 and mass  18.99840
 Atom     5 has atomic number  9 and mass  18.99840
 Atom     6 has atomic number  9 and mass  18.99840
 Atom     7 has atomic number  9 and mass  18.99840
 Atom     8 has atomic number  1 and mass   1.00783
 Atom     9 has atomic number  1 and mass   1.00783
 Atom    10 has atomic number  1 and mass   1.00783
 Atom    11 has atomic number  1 and mass   1.00783
 Molecular mass:   116.02491 amu.
 Principal axes and moments of inertia in atomic units:
                           1         2         3
     Eigenvalues --   360.632841275.529111293.03094
           X           -0.41227   0.86704  -0.27978
           Y            0.06665   0.33497   0.93987
           Z            0.90862   0.36883  -0.19589
 This molecule is an asymmetric top.
 Rotational symmetry number  1.
 Rotational temperatures (Kelvin)      0.24017     0.06790     0.06699
 Rotational constants (GHZ):           5.00437     1.41490     1.39574
 Zero-point vibrational energy     192977.8 (Joules/Mol)
                                   46.12281 (Kcal/Mol)
 Warning -- explicit consideration of   8 degrees of freedom as
           vibrations may cause significant error
 Vibrational temperatures:    120.83   146.73   243.04   488.80   515.74
          (Kelvin)            562.27   759.23   783.42   940.89  1166.89
                             1207.53  1436.96  1471.95  1528.48  1650.47
                             1689.28  1803.09  1808.78  1906.37  1952.13
                             2070.23  2140.86  2194.55  4410.00  4433.92
                             4474.80  4512.48
 
 Zero-point correction=                           0.073501 (Hartree/Particle)
 Thermal correction to Energy=                    0.080359
 Thermal correction to Enthalpy=                  0.081303
 Thermal correction to Gibbs Free Energy=         0.041665
 Sum of electronic and zero-point Energies=           -516.219976
 Sum of electronic and thermal Energies=              -516.213118
 Sum of electronic and thermal Enthalpies=            -516.212174
 Sum of electronic and thermal Free Energies=         -516.251812
 
                     E (Thermal)             CV                S
                      KCal/Mol        Cal/Mol-Kelvin    Cal/Mol-Kelvin
 Total                   50.426             23.226             83.426
 Electronic               0.000              0.000              0.000
 Translational            0.889              2.981             40.161
 Rotational               0.889              2.981             27.877
 Vibrational             48.648             17.265             15.388
 Vibration     1          0.601              1.960              3.796
 Vibration     2          0.604              1.948              3.416
 Vibration     3          0.625              1.881              2.447
 Vibration     4          0.720              1.596              1.213
 Vibration     5          0.733              1.558              1.129
 Vibration     6          0.758              1.490              0.997
 Vibration     7          0.883              1.189              0.592
 Vibration     8          0.900              1.152              0.556
                       Q            Log10(Q)             Ln(Q)
 Total Bot       0.685010D-19        -19.164303        -44.127439
 Total V=0       0.440462D+15         14.643909         33.718846
 Vib (Bot)       0.505110D-32        -32.296614        -74.365702
 Vib (Bot)    1  0.245061D+01          0.389274          0.896337
 Vib (Bot)    2  0.201157D+01          0.303534          0.698913
 Vib (Bot)    3  0.119344D+01          0.076799          0.176836
 Vib (Bot)    4  0.546652D+00         -0.262289         -0.603943
 Vib (Bot)    5  0.511859D+00         -0.290850         -0.669707
 Vib (Bot)    6  0.459136D+00         -0.338059         -0.778409
 Vib (Bot)    7  0.303726D+00         -0.517518         -1.191629
 Vib (Bot)    8  0.289730D+00         -0.538006         -1.238804
 Vib (V=0)       0.324786D+02          1.511598          3.480583
 Vib (V=0)    1  0.300110D+01          0.477280          1.098978
 Vib (V=0)    2  0.257278D+01          0.410402          0.944985
 Vib (V=0)    3  0.179394D+01          0.253809          0.584416
 Vib (V=0)    4  0.124083D+01          0.093712          0.215780
 Vib (V=0)    5  0.121554D+01          0.084770          0.195189
 Vib (V=0)    6  0.117883D+01          0.071450          0.164520
 Vib (V=0)    7  0.108502D+01          0.035438          0.081599
 Vib (V=0)    8  0.107788D+01          0.032570          0.074995
 Electronic      0.100000D+01          0.000000          0.000000
 Translational   0.491227D+08          7.691282         17.709831
 Rotational      0.276076D+06          5.441029         12.528432
 
                                                          tetrafluoropropane
                                                             IR Spectrum
 
     3333                                                              11 1   11 11  11  1 1                                         
     1100                                                              54 4   33 22  11  0 09      88     6   55     333      1 1    
     3186                                                              28 3   52 55  74  6 29      31     5   42     954      6 08   
     6025                                                              58 9   75 73  47  2 39      91     4   58     180      9 24   
 
     XXXX                                                              XX X   XX XX  XX  X XX      XX     X   XX     XXX      X XX   
                                                                          X   XX XX  XX    XX      X      X                          
                                                                          X   X  XX  XX    XX                                        
                                                                              X   X  XX    XX                                        
                                                                              X   X  XX    XX                                        
                                                                              X   X  XX    XX                                        
                                                                              X   X  XX    XX                                        
                                                                                  X  XX    XX                                        
                                                                                  X  XX    XX                                        
                                                                                  X  XX    X                                         
                                                                                  X   X    X                                         
                                                                                  X   X    X                                         
                                                                                      X    X                                         
                                                                                      X                                              
                                                                                      X                                              
                                                                                      X                                              
                                                                                      X                                              
                                                                                      X                                              
                                                                                      X                                              
                                                                                      X                                              
 
 -------------------------------------------------------------------
 Center     Atomic                   Forces (Hartrees/Bohr)
 Number     Number              X              Y              Z
 -------------------------------------------------------------------
      1        6          -0.000003215    0.000008963    0.000027563
      2        6           0.000036984   -0.000000083    0.000009443
      3        6           0.000007568    0.000002290    0.000023559
      4        9           0.000021630   -0.000016237   -0.000023645
      5        9          -0.000070887   -0.000020167    0.000003147
      6        9           0.000003342    0.000023166   -0.000040413
      7        9          -0.000002916   -0.000006404   -0.000026688
      8        1          -0.000007907    0.000001759    0.000009482
      9        1           0.000002672    0.000000145    0.000005620
     10        1           0.000005705    0.000002913    0.000007941
     11        1           0.000007023    0.000003654    0.000003992
 -------------------------------------------------------------------
 Cartesian Forces:  Max     0.000070887 RMS     0.000019830
 Force constants in Cartesian coordinates: 
                1             2             3             4             5 
      1  0.535922D+00
      2 -0.187993D-01  0.616449D+00
      3  0.367832D-01 -0.139082D-01  0.505684D+00
      4 -0.772401D-01 -0.469087D-04  0.852732D-02  0.484084D+00
      5 -0.170134D-02 -0.761715D-01 -0.218860D-01  0.166506D-02  0.474149D+00
      6  0.601755D-03 -0.242503D-01 -0.188307D+00 -0.133402D-01  0.209285D-01
      7 -0.181090D+00 -0.244584D-01  0.176703D-01  0.602794D-02  0.540726D-02
      8 -0.219198D-01 -0.916643D-01  0.696576D-02  0.807525D-02  0.318295D-02
      9  0.298517D-01  0.105965D-01 -0.783834D-01  0.310183D-01  0.471804D-02
     10  0.721554D-02 -0.566540D-02 -0.232325D-02 -0.764191D-01 -0.259604D-01
     11 -0.670857D-02 -0.294741D-01 -0.936230D-02 -0.256865D-01 -0.205480D+00
     12 -0.810092D-02 -0.420773D-01 -0.564020D-02 -0.867405D-02 -0.495615D-01
     13 -0.213901D-01 -0.574004D-02  0.132406D-01 -0.194470D+00 -0.201417D-01
     14  0.141780D-02  0.728335D-02 -0.142129D-02 -0.221895D-01 -0.752863D-01
     15  0.475676D-01  0.880142D-02 -0.185654D-01  0.694645D-01  0.969229D-02
     16 -0.458367D-02  0.114912D-01 -0.118694D-01 -0.127127D+00  0.440218D-01
     17  0.675647D-02  0.140470D-02  0.444023D-02  0.456596D-01 -0.107442D+00
     18 -0.339242D-01  0.288847D-01 -0.246781D-01 -0.574830D-01  0.439249D-01
     19  0.416549D-02  0.823348D-02  0.387473D-01 -0.746701D-02 -0.243924D-02
     20  0.113383D-02  0.436991D-02  0.186374D-02 -0.112676D-02 -0.147093D-02
     21  0.469415D-02 -0.828178D-02 -0.427812D-01  0.334705D-02  0.283686D-02
     22 -0.172263D+00  0.104371D+00 -0.834002D-01 -0.150196D-02 -0.598475D-03
     23  0.105177D+00 -0.137130D+00  0.701143D-01 -0.446210D-02  0.121482D-02
     24 -0.810107D-01  0.654678D-01 -0.104191D+00 -0.255128D-01  0.224265D-01
     25 -0.614000D-01 -0.574616D-01 -0.823903D-02 -0.184237D-02  0.112141D-02
     26 -0.578339D-01 -0.296991D+00 -0.356921D-01 -0.166903D-02 -0.101078D-01
     27 -0.855367D-02 -0.304221D-01 -0.551982D-01 -0.847776D-02 -0.343956D-01
     28 -0.214379D-01  0.182608D-01 -0.928234D-02 -0.326842D-02  0.170377D-02
     29 -0.658662D-02  0.519245D-02 -0.256441D-02  0.132189D-02 -0.156334D-03
     30  0.964581D-02 -0.835170D-02  0.853874D-02  0.602466D-03 -0.664179D-03
     31 -0.789779D-02 -0.301850D-01  0.145408D-03 -0.776360D-03 -0.307821D-02
     32 -0.935977D-03 -0.326825D-02  0.145035D-02 -0.154096D-02 -0.243237D-02
     33  0.244528D-02  0.135410D-01  0.352137D-02  0.528119D-03  0.198014D-02
                6             7             8             9            10 
      6  0.588730D+00
      7  0.181930D-01  0.528656D+00
      8  0.909509D-03 -0.200856D-01  0.617215D+00
      9 -0.210351D-01  0.459493D-01 -0.242488D-01  0.446253D+00
     10 -0.105583D-01 -0.179821D-02 -0.176141D-02 -0.249430D-03  0.878252D-01
     11 -0.605326D-01 -0.332007D-02 -0.337406D-02  0.166025D-02  0.551164D-01
     12 -0.101223D+00 -0.167752D-02 -0.788468D-03  0.104298D-02  0.109225D-01
     13  0.792691D-01  0.540365D-02  0.127199D-02  0.637159D-03 -0.295230D-01
     14  0.126199D-01 -0.489043D-03  0.127331D-02 -0.780456D-03 -0.549792D-01
     15 -0.124005D+00 -0.780668D-02 -0.329478D-02 -0.307442D-02  0.355828D-03
     16 -0.647850D-01 -0.433535D-02  0.102651D-02 -0.327626D-03  0.922074D-02
     17  0.521561D-01  0.166653D-02 -0.911707D-03 -0.552310D-03  0.312001D-01
     18 -0.148456D+00 -0.328974D-02  0.596234D-03  0.111198D-02  0.434917D-03
     19 -0.294920D-02 -0.632215D-01 -0.161214D-02 -0.107788D-01  0.778537D-03
     20  0.961584D-03 -0.203106D-02 -0.734578D-01 -0.359978D-01  0.851554D-03
     21  0.748715D-02 -0.127729D-01 -0.365918D-01 -0.222597D+00  0.156022D-03
     22 -0.727916D-03 -0.247512D-01  0.177045D-01 -0.148890D-01  0.445588D-03
     23 -0.284978D-02 -0.551198D-02  0.475585D-02 -0.409747D-02  0.235720D-04
     24 -0.135451D-01  0.108095D-01 -0.870320D-02  0.652610D-02  0.198273D-02
     25 -0.135003D-02 -0.967882D-02 -0.329033D-01 -0.473599D-02  0.146736D-02
     26  0.378266D-03 -0.251117D-02 -0.525753D-02 -0.675812D-03 -0.876944D-04
     27 -0.188263D-02  0.398953D-02  0.141760D-01  0.147870D-02 -0.460325D-03
     28 -0.292538D-02 -0.184296D+00  0.107578D+00 -0.714234D-01  0.241107D-03
     29  0.451959D-03  0.111353D+00 -0.151319D+00  0.628224D-01 -0.149077D-04
     30  0.121075D-02 -0.675644D-01  0.575165D-01 -0.835230D-01 -0.154965D-03
     31 -0.142790D-02 -0.709165D-01 -0.573735D-01 -0.505228D-02  0.546179D-03
     32 -0.773155D-03 -0.600190D-01 -0.300443D+00 -0.134446D-01  0.127726D-02
     33  0.102543D-02 -0.350038D-02 -0.653692D-02 -0.477994D-01 -0.105726D-03
               11            12            13            14            15 
     11  0.335628D+00
     12  0.536549D-01  0.837869D-01
     13 -0.450209D-01  0.610434D-02  0.317008D+00
     14 -0.319275D-01  0.149818D-01  0.513199D-01  0.863334D-01
     15  0.766979D-02  0.154268D-01 -0.985916D-01 -0.218084D-01  0.111780D+00
     16  0.231681D-01 -0.115071D-02 -0.759036D-01  0.247531D-01 -0.160309D-01
     17 -0.700642D-01  0.254866D-01  0.184787D-01  0.103363D-01 -0.194360D-02
     18  0.145415D-01  0.142037D-01 -0.410212D-02 -0.399699D-02  0.195587D-01
     19  0.106033D-02  0.640424D-03 -0.169749D-02  0.134194D-03  0.325588D-02
     20  0.149639D-02  0.633970D-05  0.290336D-03  0.191723D-03 -0.123651D-03
     21 -0.746936D-03 -0.100480D-02  0.400565D-02  0.993795D-04 -0.511269D-02
     22 -0.650822D-03  0.292697D-03  0.375733D-03 -0.395390D-03  0.433048D-03
     23  0.370915D-03  0.262526D-03 -0.104733D-02  0.663429D-04  0.444379D-03
     24 -0.383343D-03  0.223933D-02  0.839328D-03 -0.142544D-02  0.227497D-02
     25  0.575747D-03  0.118266D-02 -0.384278D-03  0.705560D-04  0.308111D-03
     26  0.143022D-02 -0.105477D-02  0.615602D-03  0.156107D-02  0.239763D-03
     27 -0.547568D-02 -0.790436D-02 -0.605157D-03  0.195667D-02  0.154850D-02
     28 -0.500610D-04  0.409360D-03  0.446240D-03 -0.246028D-03  0.698446D-03
     29  0.220887D-03 -0.334967D-03 -0.616084D-04 -0.850202D-04 -0.978364D-04
     30  0.597506D-04 -0.175813D-03 -0.446421D-03  0.117582D-03  0.978418D-04
     31  0.151626D-02  0.511975D-04  0.134056D-03  0.603506D-03  0.345809D-03
     32  0.117329D-02 -0.575107D-03  0.350023D-04  0.253372D-03  0.420657D-03
     33 -0.108539D-02 -0.751272D-03 -0.350901D-03 -0.342677D-03  0.706531D-04
               16            17            18            19            20 
     16  0.196791D+00
     17 -0.102425D+00  0.162396D+00
     18  0.948816D-01 -0.818566D-01  0.147795D+00
     19  0.177363D-02 -0.539642D-03  0.113415D-02  0.511587D-01
     20 -0.608180D-03  0.551411D-03 -0.333808D-03  0.326999D-02  0.583398D-01
     21  0.290819D-03  0.236181D-04 -0.105283D-02  0.670235D-02  0.599662D-01
     22  0.187075D-02 -0.273848D-03  0.174888D-02  0.364033D-02 -0.797060D-03
     23 -0.752019D-03  0.196150D-02 -0.247437D-02  0.482526D-03 -0.353957D-03
     24 -0.207961D-02  0.317259D-03 -0.883898D-02 -0.123224D-02  0.850186D-04
     25 -0.341037D-04  0.375783D-03 -0.724661D-05  0.257557D-02  0.209881D-02
     26  0.313768D-03  0.137056D-02  0.331847D-03  0.752265D-03  0.101805D-02
     27  0.119844D-02  0.183822D-02  0.172281D-02 -0.124922D-02 -0.335672D-03
     28  0.213392D-02 -0.102655D-02  0.430519D-03  0.500995D-02 -0.232554D-02
     29 -0.918865D-03  0.725421D-04  0.790750D-04 -0.843168D-02  0.101835D-01
     30 -0.968780D-04  0.407211D-03 -0.112848D-02 -0.249723D-01  0.147508D-01
     31  0.192953D-03  0.127822D-03  0.176247D-03  0.328388D-02 -0.755915D-03
     32 -0.705426D-04  0.324993D-03  0.303461D-03 -0.910084D-03 -0.868038D-03
     33 -0.306870D-04 -0.316681D-03 -0.237995D-03 -0.929833D-02 -0.408427D-01
               21            22            23            24            25 
     21  0.322902D+00
     22 -0.499408D-03  0.189295D+00
     23 -0.883323D-03 -0.113165D+00  0.143035D+00
     24  0.149276D-02  0.896929D-01 -0.754980D-01  0.112235D+00
     25 -0.166792D-02  0.568946D-02  0.207644D-01  0.461144D-02  0.672896D-01
     26  0.727632D-03 -0.397615D-02 -0.155767D-01 -0.290268D-02  0.653489D-01
     27  0.118433D-02  0.449453D-02  0.148106D-01  0.274592D-02  0.752495D-02
     28 -0.281426D-02 -0.385533D-02 -0.158873D-02  0.282813D-02  0.101132D-02
     29 -0.687618D-02 -0.188664D-02  0.875775D-03  0.608119D-03  0.208682D-03
     30 -0.366490D-01  0.310810D-02  0.905424D-03 -0.135631D-02 -0.665203D-03
     31 -0.144150D-02  0.105385D-02  0.792787D-04 -0.928668D-03 -0.469372D-02
     32 -0.102736D-01 -0.332238D-03  0.780135D-03  0.796514D-05 -0.199347D-03
     33 -0.238688D-01 -0.253707D-03 -0.734281D-03  0.416865D-03  0.303827D-02
               26            27            28            29            30 
     26  0.320281D+00
     27  0.385580D-01  0.569784D-01
     28 -0.342935D-03 -0.638623D-03  0.196374D+00
     29  0.884384D-03 -0.698102D-03 -0.117187D+00  0.150122D+00
     30  0.238650D-03  0.356004D-03  0.790540D-01 -0.650641D-01  0.107925D+00
     31 -0.609701D-03  0.277731D-02  0.764137D-02  0.222037D-01  0.148982D-02
     32  0.138820D-02 -0.122860D-04 -0.477581D-02 -0.159914D-01  0.840623D-04
     33 -0.148732D-03 -0.102951D-02  0.366350D-02  0.116740D-01  0.470426D-02
               31            32            33 
     31  0.714321D-01
     32  0.674717D-01  0.319083D+00
     33  0.386456D-02  0.228123D-01  0.639484D-01
 FormGI is forming the generalized inverse of G from B-inverse, IUseBI=4.
 Leave Link  716 at Thu Jun 13 12:28:49 2024, MaxMem=  1073741824 cpu:         0.5
 (Enter /apps/z_install_tree/linux-rocky8-ivybridge/gcc-12.2.0/gaussian-09-D.01-wczn3gur5lpur3omlkzwa2l5ecyxp5ef/g09/l103.exe)

 GradGradGradGradGradGradGradGradGradGradGradGradGradGradGradGradGradGrad
 Berny optimization.
 Red2BG is reusing G-inverse.
 Internal  Forces:  Max     0.000069077 RMS     0.000019327
 Search for a local minimum.
 Step number   1 out of a maximum of    2
 All quantities printed in internal units (Hartrees-Bohrs-Radians)
 Second derivative matrix not updated -- analytic derivatives used.
 ITU=  0
     Eigenvalues ---    0.00175   0.00307   0.03388   0.03788   0.04951
     Eigenvalues ---    0.06597   0.07324   0.09067   0.09883   0.11048
     Eigenvalues ---    0.13531   0.16300   0.17665   0.22270   0.23256
     Eigenvalues ---    0.24474   0.25159   0.29988   0.32666   0.33221
     Eigenvalues ---    0.33544   0.33949   0.34151   0.34689   0.36892
     Eigenvalues ---    0.39346   0.50145
 Angle between quadratic step and forces=  70.47 degrees.
 Linear search not attempted -- first point.
 Iteration  1 RMS(Cart)=  0.00022580 RMS(Int)=  0.00000003
 Iteration  2 RMS(Cart)=  0.00000003 RMS(Int)=  0.00000000
 ITry= 1 IFail=0 DXMaxC= 6.48D-04 DCOld= 1.00D+10 DXMaxT= 3.00D-01 DXLimC= 3.00D+00 Rises=F
 Variable       Old X    -DE/DX   Delta X   Delta X   Delta X     New X
                                 (Linear)    (Quad)   (Total)
    R1        2.84861  -0.00005   0.00000  -0.00014  -0.00014   2.84848
    R2        2.87267   0.00001   0.00000   0.00004   0.00004   2.87271
    R3        2.05723   0.00000   0.00000   0.00000   0.00000   2.05723
    R4        2.05723   0.00000   0.00000   0.00000   0.00000   2.05723
    R5        2.55683  -0.00002   0.00000  -0.00004  -0.00004   2.55679
    R6        2.54607   0.00007   0.00000   0.00018   0.00018   2.54625
    R7        2.55690  -0.00003   0.00000  -0.00010  -0.00010   2.55679
    R8        2.64067   0.00003   0.00000   0.00008   0.00008   2.64075
    R9        2.05818   0.00001   0.00000   0.00001   0.00001   2.05819
   R10        2.05818   0.00001   0.00000   0.00001   0.00001   2.05819
    A1        1.95948  -0.00001   0.00000  -0.00009  -0.00009   1.95939
    A2        1.88049   0.00000   0.00000  -0.00002  -0.00002   1.88046
    A3        1.88049   0.00000   0.00000  -0.00003  -0.00003   1.88046
    A4        1.92358   0.00001   0.00000   0.00015   0.00015   1.92373
    A5        1.92370   0.00000   0.00000  -0.00005  -0.00005   1.92365
    A6        1.89419   0.00000   0.00000   0.00003   0.00003   1.89422
    A7        1.95239  -0.00003   0.00000  -0.00008  -0.00008   1.95230
    A8        1.94510  -0.00002   0.00000  -0.00004  -0.00004   1.94507
    A9        1.95238  -0.00004   0.00000  -0.00008  -0.00008   1.95230
   A10        1.87198   0.00004   0.00000   0.00011   0.00011   1.87209
   A11        1.86522   0.00002   0.00000  -0.00002  -0.00002   1.86520
   A12        1.87198   0.00004   0.00000   0.00013   0.00013   1.87211
   A13        1.88598   0.00000   0.00000   0.00000   0.00000   1.88598
   A14        1.94895   0.00000   0.00000  -0.00002  -0.00002   1.94893
   A15        1.94893   0.00001   0.00000   0.00005   0.00005   1.94898
   A16        1.88246   0.00000   0.00000   0.00003   0.00003   1.88249
   A17        1.88246   0.00000   0.00000   0.00001   0.00001   1.88247
   A18        1.91246  -0.00001   0.00000  -0.00006  -0.00006   1.91240
    D1        1.04593  -0.00001   0.00000  -0.00007  -0.00007   1.04585
    D2        3.14153   0.00000   0.00000  -0.00001  -0.00001   3.14152
    D3       -1.04606   0.00002   0.00000   0.00007   0.00007  -1.04599
    D4       -1.07529  -0.00002   0.00000  -0.00019  -0.00019  -1.07548
    D5        1.02031   0.00000   0.00000  -0.00013  -0.00013   1.02018
    D6        3.11591   0.00001   0.00000  -0.00005  -0.00005   3.11586
    D7       -3.11589  -0.00001   0.00000  -0.00021  -0.00021  -3.11610
    D8       -1.02029   0.00000   0.00000  -0.00015  -0.00015  -1.02044
    D9        1.07531   0.00001   0.00000  -0.00007  -0.00007   1.07524
   D10        3.14155   0.00000   0.00000  -0.00043  -0.00043   3.14112
   D11        1.07399   0.00000   0.00000  -0.00044  -0.00044   1.07354
   D12       -1.07408   0.00000   0.00000  -0.00039  -0.00039  -1.07448
   D13       -1.04526  -0.00001   0.00000  -0.00041  -0.00041  -1.04567
   D14       -3.11282  -0.00001   0.00000  -0.00043  -0.00043  -3.11324
   D15        1.02230   0.00000   0.00000  -0.00038  -0.00038   1.02192
   D16        1.04509   0.00000   0.00000  -0.00030  -0.00030   1.04479
   D17       -1.02247   0.00000   0.00000  -0.00032  -0.00032  -1.02279
   D18        3.11264   0.00001   0.00000  -0.00027  -0.00027   3.11237
         Item               Value     Threshold  Converged?
 Maximum Force            0.000069     0.000450     YES
 RMS     Force            0.000019     0.000300     YES
 Maximum Displacement     0.000648     0.001800     YES
 RMS     Displacement     0.000226     0.001200     YES
 Predicted change in Energy=-2.759276D-08
 Optimization completed.
    -- Stationary point found.
                           ----------------------------
                           !   Optimized Parameters   !
                           ! (Angstroms and Degrees)  !
 --------------------------                            --------------------------
 ! Name  Definition              Value          Derivative Info.                !
 --------------------------------------------------------------------------------
 ! R1    R(1,2)                  1.5074         -DE/DX =   -0.0001              !
 ! R2    R(1,3)                  1.5202         -DE/DX =    0.0                 !
 ! R3    R(1,8)                  1.0886         -DE/DX =    0.0                 !
 ! R4    R(1,9)                  1.0886         -DE/DX =    0.0                 !
 ! R5    R(2,4)                  1.353          -DE/DX =    0.0                 !
 ! R6    R(2,5)                  1.3473         -DE/DX =    0.0001              !
 ! R7    R(2,6)                  1.3531         -DE/DX =    0.0                 !
 ! R8    R(3,7)                  1.3974         -DE/DX =    0.0                 !
 ! R9    R(3,10)                 1.0891         -DE/DX =    0.0                 !
 ! R10   R(3,11)                 1.0891         -DE/DX =    0.0                 !
 ! A1    A(2,1,3)              112.2697         -DE/DX =    0.0                 !
 ! A2    A(2,1,8)              107.7439         -DE/DX =    0.0                 !
 ! A3    A(2,1,9)              107.7439         -DE/DX =    0.0                 !
 ! A4    A(3,1,8)              110.2131         -DE/DX =    0.0                 !
 ! A5    A(3,1,9)              110.2197         -DE/DX =    0.0                 !
 ! A6    A(8,1,9)              108.5291         -DE/DX =    0.0                 !
 ! A7    A(1,2,4)              111.8635         -DE/DX =    0.0                 !
 ! A8    A(1,2,5)              111.4462         -DE/DX =    0.0                 !
 ! A9    A(1,2,6)              111.863          -DE/DX =    0.0                 !
 ! A10   A(4,2,5)              107.2567         -DE/DX =    0.0                 !
 ! A11   A(4,2,6)              106.8691         -DE/DX =    0.0                 !
 ! A12   A(5,2,6)              107.2566         -DE/DX =    0.0                 !
 ! A13   A(1,3,7)              108.0589         -DE/DX =    0.0                 !
 ! A14   A(1,3,10)             111.6666         -DE/DX =    0.0                 !
 ! A15   A(1,3,11)             111.6652         -DE/DX =    0.0                 !
 ! A16   A(7,3,10)             107.857          -DE/DX =    0.0                 !
 ! A17   A(7,3,11)             107.8572         -DE/DX =    0.0                 !
 ! A18   A(10,3,11)            109.5758         -DE/DX =    0.0                 !
 ! D1    D(3,1,2,4)             59.9272         -DE/DX =    0.0                 !
 ! D2    D(3,1,2,5)            179.9965         -DE/DX =    0.0                 !
 ! D3    D(3,1,2,6)            -59.9347         -DE/DX =    0.0                 !
 ! D4    D(8,1,2,4)            -61.6097         -DE/DX =    0.0                 !
 ! D5    D(8,1,2,5)             58.4596         -DE/DX =    0.0                 !
 ! D6    D(8,1,2,6)            178.5284         -DE/DX =    0.0                 !
 ! D7    D(9,1,2,4)           -178.5276         -DE/DX =    0.0                 !
 ! D8    D(9,1,2,5)            -58.4583         -DE/DX =    0.0                 !
 ! D9    D(9,1,2,6)             61.6105         -DE/DX =    0.0                 !
 ! D10   D(2,1,3,7)            179.9976         -DE/DX =    0.0                 !
 ! D11   D(2,1,3,10)            61.535          -DE/DX =    0.0                 !
 ! D12   D(2,1,3,11)           -61.5405         -DE/DX =    0.0                 !
 ! D13   D(8,1,3,7)            -59.8887         -DE/DX =    0.0                 !
 ! D14   D(8,1,3,10)          -178.3513         -DE/DX =    0.0                 !
 ! D15   D(8,1,3,11)            58.5732         -DE/DX =    0.0                 !
 ! D16   D(9,1,3,7)             59.8794         -DE/DX =    0.0                 !
 ! D17   D(9,1,3,10)           -58.5832         -DE/DX =    0.0                 !
 ! D18   D(9,1,3,11)           178.3413         -DE/DX =    0.0                 !
 --------------------------------------------------------------------------------
 GradGradGradGradGradGradGradGradGradGradGradGradGradGradGradGradGradGrad

 Leave Link  103 at Thu Jun 13 12:28:49 2024, MaxMem=  1073741824 cpu:         4.5
 (Enter /apps/z_install_tree/linux-rocky8-ivybridge/gcc-12.2.0/gaussian-09-D.01-wczn3gur5lpur3omlkzwa2l5ecyxp5ef/g09/l9999.exe)
 1\1\GINC-K139\Freq\RB3LYP\Gen\C3H4F4\Z5112331\13-Jun-2024\0\\#P Geom=A
 llCheck Guess=TCheck SCRF=Check GenChk RB3LYP/ChkBas Freq\\tetrafluoro
 propane\\0,1\C,50.1310277641,35.358671222,31.9067011867\C,50.070619772
 3,35.6487822317,33.3847079959\C,51.5034853923,35.6448702658,31.3190667
 018\F,50.3498642622,36.944648371,33.655647373\F,48.8479854719,35.38970
 05726,33.8880125983\F,50.9580239285,34.9019261342,34.0814627336\F,51.4
 609304652,35.3476498314,29.9543243243\H,49.3768062157,35.9722876221,31
 .4170526207\H,49.8713039718,34.3112370042,31.7633027139\H,52.273040983
 7,35.0218118331,31.772727055\H,51.7749117723,36.6944149118,31.42399469
 67\\Version=ES64L-G09RevD.01\HF=-516.2934769\RMSD=4.126e-09\RMSF=1.983
 e-05\ZeroPoint=0.0735014\Thermal=0.0803588\Dipole=0.0313334,-0.025048,
 -0.1653977\DipoleDeriv=-0.0751975,-0.0145059,0.0991498,-0.0300462,0.02
 95888,-0.0212868,0.0246436,-0.0434795,-0.2007932,1.6501103,-0.0035944,
 -0.0443984,-0.0174564,1.6212349,-0.0216599,-0.1107133,-0.0414275,1.590
 467,0.4293625,-0.0073285,-0.1260996,-0.0050848,0.3832667,0.0923418,-0.
 1156714,0.0955409,0.9890353,-0.3171555,-0.1155826,-0.0069475,-0.116485
 7,-0.888771,-0.1283546,-0.0104545,-0.2079072,-0.423063,-0.8652154,-0.1
 207582,0.2486479,-0.1022241,-0.310093,0.0276801,0.3376534,0.0541871,-0
 .507725,-0.5585881,0.2334034,-0.1886826,0.2242648,-0.4823442,0.152918,
 -0.2335344,0.2180603,-0.5881429,-0.3119059,-0.0068845,0.0378809,0.0098
 402,-0.2874458,-0.1348792,0.1181614,-0.1109892,-0.9633922,-0.0029025,0
 .0428101,-0.0056597,0.0562246,0.0403913,0.0346145,-0.0226122,0.0258766
 ,0.0369167,0.0526113,-0.0227774,0.0254969,-0.0423529,-0.034529,-0.0085
 054,0.0128563,-0.0085694,0.0563242,-0.035512,0.0442834,-0.0419656,0.07
 89993,0.0093313,0.0432151,-0.0167256,0.0083995,-0.0048461,0.0343928,-0
 .0290654,0.0025778,-0.0556787,-0.08063,-0.0360837,0.0163966,0.0103082,
 0.0152192\Polar=40.5738472,0.4202414,37.738706,-2.3440919,0.4382546,42
 .9735042\PG=C01 [X(C3H4F4)]\NImag=0\\0.53592154,-0.01879931,0.61644895
 ,0.03678323,-0.01390825,0.50568377,-0.07724008,-0.00004691,0.00852732,
 0.48408357,-0.00170134,-0.07617155,-0.02188605,0.00166506,0.47414929,0
 .00060175,-0.02425027,-0.18830669,-0.01334016,0.02092853,0.58873005,-0
 .18109044,-0.02445842,0.01767034,0.00602794,0.00540726,0.01819305,0.52
 865642,-0.02191982,-0.09166427,0.00696576,0.00807525,0.00318295,0.0009
 0951,-0.02008556,0.61721522,0.02985169,0.01059651,-0.07838342,0.031018
 27,0.00471804,-0.02103507,0.04594930,-0.02424882,0.44625271,0.00721554
 ,-0.00566540,-0.00232325,-0.07641907,-0.02596041,-0.01055832,-0.001798
 21,-0.00176141,-0.00024943,0.08782525,-0.00670857,-0.02947415,-0.00936
 230,-0.02568655,-0.20548000,-0.06053262,-0.00332007,-0.00337406,0.0016
 6025,0.05511645,0.33562820,-0.00810092,-0.04207733,-0.00564020,-0.0086
 7405,-0.04956149,-0.10122322,-0.00167752,-0.00078847,0.00104298,0.0109
 2252,0.05365491,0.08378691,-0.02139009,-0.00574004,0.01324061,-0.19446
 963,-0.02014165,0.07926914,0.00540365,0.00127199,0.00063716,-0.0295230
 1,-0.04502087,0.00610434,0.31700840,0.00141780,0.00728335,-0.00142129,
 -0.02218949,-0.07528634,0.01261986,-0.00048904,0.00127331,-0.00078046,
 -0.05497915,-0.03192751,0.01498179,0.05131991,0.08633336,0.04756763,0.
 00880142,-0.01856542,0.06946448,0.00969229,-0.12400515,-0.00780668,-0.
 00329478,-0.00307442,0.00035583,0.00766979,0.01542677,-0.09859162,-0.0
 2180843,0.11178021,-0.00458367,0.01149117,-0.01186938,-0.12712660,0.04
 402182,-0.06478504,-0.00433535,0.00102651,-0.00032763,0.00922074,0.023
 16814,-0.00115071,-0.07590359,0.02475314,-0.01603094,0.19679133,0.0067
 5647,0.00140470,0.00444023,0.04565959,-0.10744174,0.05215611,0.0016665
 3,-0.00091171,-0.00055231,0.03120014,-0.07006418,0.02548655,0.01847866
 ,0.01033635,-0.00194360,-0.10242495,0.16239556,-0.03392424,0.02888467,
 -0.02467810,-0.05748299,0.04392492,-0.14845554,-0.00328974,0.00059623,
 0.00111198,0.00043492,0.01454155,0.01420369,-0.00410212,-0.00399699,0.
 01955874,0.09488162,-0.08185660,0.14779471,0.00416549,0.00823348,0.038
 74727,-0.00746701,-0.00243924,-0.00294920,-0.06322154,-0.00161214,-0.0
 1077878,0.00077854,0.00106033,0.00064042,-0.00169749,0.00013419,0.0032
 5588,0.00177363,-0.00053964,0.00113415,0.05115866,0.00113383,0.0043699
 1,0.00186374,-0.00112676,-0.00147093,0.00096158,-0.00203106,-0.0734578
 0,-0.03599777,0.00085155,0.00149639,0.00000634,0.00029034,0.00019172,-
 0.00012365,-0.00060818,0.00055141,-0.00033381,0.00326999,0.05833979,0.
 00469415,-0.00828178,-0.04278120,0.00334705,0.00283686,0.00748715,-0.0
 1277295,-0.03659181,-0.22259717,0.00015602,-0.00074694,-0.00100480,0.0
 0400565,0.00009938,-0.00511269,0.00029082,0.00002362,-0.00105283,0.006
 70235,0.05996618,0.32290228,-0.17226261,0.10437116,-0.08340018,-0.0015
 0196,-0.00059848,-0.00072792,-0.02475117,0.01770447,-0.01488895,0.0004
 4559,-0.00065082,0.00029270,0.00037573,-0.00039539,0.00043305,0.001870
 75,-0.00027385,0.00174888,0.00364033,-0.00079706,-0.00049941,0.1892953
 5,0.10517740,-0.13712997,0.07011435,-0.00446210,0.00121482,-0.00284978
 ,-0.00551198,0.00475585,-0.00409747,0.00002357,0.00037092,0.00026253,-
 0.00104733,0.00006634,0.00044438,-0.00075202,0.00196150,-0.00247437,0.
 00048253,-0.00035396,-0.00088332,-0.11316501,0.14303528,-0.08101072,0.
 06546783,-0.10419069,-0.02551275,0.02242649,-0.01354507,0.01080945,-0.
 00870320,0.00652610,0.00198273,-0.00038334,0.00223933,0.00083933,-0.00
 142544,0.00227497,-0.00207961,0.00031726,-0.00883898,-0.00123224,0.000
 08502,0.00149276,0.08969292,-0.07549803,0.11223511,-0.06140004,-0.0574
 6159,-0.00823903,-0.00184237,0.00112141,-0.00135003,-0.00967882,-0.032
 90334,-0.00473599,0.00146736,0.00057575,0.00118266,-0.00038428,0.00007
 056,0.00030811,-0.00003410,0.00037578,-0.00000725,0.00257557,0.0020988
 1,-0.00166792,0.00568946,0.02076439,0.00461144,0.06728962,-0.05783385,
 -0.29699117,-0.03569213,-0.00166903,-0.01010782,0.00037827,-0.00251117
 ,-0.00525753,-0.00067581,-0.00008769,0.00143022,-0.00105477,0.00061560
 ,0.00156107,0.00023976,0.00031377,0.00137056,0.00033185,0.00075226,0.0
 0101805,0.00072763,-0.00397615,-0.01557670,-0.00290268,0.06534890,0.32
 028073,-0.00855367,-0.03042210,-0.05519816,-0.00847776,-0.03439557,-0.
 00188263,0.00398953,0.01417599,0.00147870,-0.00046033,-0.00547568,-0.0
 0790436,-0.00060516,0.00195667,0.00154850,0.00119844,0.00183822,0.0017
 2281,-0.00124922,-0.00033567,0.00118433,0.00449453,0.01481057,0.002745
 92,0.00752495,0.03855796,0.05697840,-0.02143786,0.01826084,-0.00928234
 ,-0.00326842,0.00170377,-0.00292538,-0.18429592,0.10757758,-0.07142336
 ,0.00024111,-0.00005006,0.00040936,0.00044624,-0.00024603,0.00069845,0
 .00213392,-0.00102655,0.00043052,0.00500995,-0.00232554,-0.00281426,-0
 .00385533,-0.00158873,0.00282813,0.00101132,-0.00034293,-0.00063862,0.
 19637362,-0.00658662,0.00519245,-0.00256441,0.00132189,-0.00015633,0.0
 0045196,0.11135254,-0.15131866,0.06282243,-0.00001491,0.00022089,-0.00
 033497,-0.00006161,-0.00008502,-0.00009784,-0.00091886,0.00007254,0.00
 007907,-0.00843168,0.01018345,-0.00687618,-0.00188664,0.00087577,0.000
 60812,0.00020868,0.00088438,-0.00069810,-0.11718653,0.15012193,0.00964
 581,-0.00835170,0.00853874,0.00060247,-0.00066418,0.00121075,-0.067564
 41,0.05751650,-0.08352299,-0.00015496,0.00005975,-0.00017581,-0.000446
 42,0.00011758,0.00009784,-0.00009688,0.00040721,-0.00112848,-0.0249723
 2,0.01475077,-0.03664901,0.00310810,0.00090542,-0.00135631,-0.00066520
 ,0.00023865,0.00035600,0.07905400,-0.06506407,0.10792500,-0.00789779,-
 0.03018498,0.00014541,-0.00077636,-0.00307821,-0.00142790,-0.07091655,
 -0.05737353,-0.00505228,0.00054618,0.00151626,0.00005120,0.00013406,0.
 00060351,0.00034581,0.00019295,0.00012782,0.00017625,0.00328388,-0.000
 75591,-0.00144150,0.00105385,0.00007928,-0.00092867,-0.00469372,-0.000
 60970,0.00277731,0.00764137,0.02220373,0.00148982,0.07143213,-0.000935
 98,-0.00326825,0.00145035,-0.00154096,-0.00243237,-0.00077315,-0.06001
 904,-0.30044331,-0.01344459,0.00127726,0.00117329,-0.00057511,0.000035
 00,0.00025337,0.00042066,-0.00007054,0.00032499,0.00030346,-0.00091008
 ,-0.00086804,-0.01027364,-0.00033224,0.00078014,0.00000797,-0.00019935
 ,0.00138820,-0.00001229,-0.00477581,-0.01599140,0.00008406,0.06747174,
 0.31908338,0.00244528,0.01354099,0.00352137,0.00052812,0.00198014,0.00
 102543,-0.00350038,-0.00653692,-0.04779940,-0.00010573,-0.00108539,-0.
 00075127,-0.00035090,-0.00034268,0.00007065,-0.00003069,-0.00031668,-0
 .00023799,-0.00929833,-0.04084273,-0.02386881,-0.00025371,-0.00073428,
 0.00041687,0.00303827,-0.00014873,-0.00102951,0.00366350,0.01167399,0.
 00470426,0.00386456,0.02281228,0.06394840\\0.00000322,-0.00000896,-0.0
 0002756,-0.00003698,0.00000008,-0.00000944,-0.00000757,-0.00000229,-0.
 00002356,-0.00002163,0.00001624,0.00002365,0.00007089,0.00002017,-0.00
 000315,-0.00000334,-0.00002317,0.00004041,0.00000292,0.00000640,0.0000
 2669,0.00000791,-0.00000176,-0.00000948,-0.00000267,-0.00000014,-0.000
 00562,-0.00000571,-0.00000291,-0.00000794,-0.00000702,-0.00000365,-0.0
 0000399\\\@


 THERE ARE TWO THINGS THAT EVERYBODY THINKS THEY CAN DO BETTER THAN
 ANYONE ELSE - PUNCH THE FIRE, AND EDIT A DAILY PAPER.
 -- UNCLE ESEK, "CENTURY MAGAZINE", 1885
 Job cpu time:       0 days  0 hours 19 minutes 30.2 seconds.
 File lengths (MBytes):  RWF=    135 Int=      0 D2E=      0 Chk=      5 Scr=      2
 Normal termination of Gaussian 09 at Thu Jun 13 12:28:49 2024.
