 Entering Gaussian System, Link 0=g09
 Initial command:
 /apps/z_install_tree/linux-rocky8-ivybridge/gcc-12.2.0/gaussian-09-D.01-wczn3gur5lpur3omlkzwa2l5ecyxp5ef/g09/l1.exe "/srv/scratch/z5112331/GMX/ligands/chlorotrifluoromethane/Gau-175516.inp" -scrdir="/srv/scratch/z5112331/GMX/ligands/chlorotrifluoromethane/"
 Entering Link 1 = /apps/z_install_tree/linux-rocky8-ivybridge/gcc-12.2.0/gaussian-09-D.01-wczn3gur5lpur3omlkzwa2l5ecyxp5ef/g09/l1.exe PID=    175517.
  
 Copyright (c) 1988,1990,1992,1993,1995,1998,2003,2009,2013,
            Gaussian, Inc.  All Rights Reserved.
  
 This is part of the Gaussian(R) 09 program.  It is based on
 the Gaussian(R) 03 system (copyright 2003, Gaussian, Inc.),
 the Gaussian(R) 98 system (copyright 1998, Gaussian, Inc.),
 the Gaussian(R) 94 system (copyright 1995, Gaussian, Inc.),
 the Gaussian 92(TM) system (copyright 1992, Gaussian, Inc.),
 the Gaussian 90(TM) system (copyright 1990, Gaussian, Inc.),
 the Gaussian 88(TM) system (copyright 1988, Gaussian, Inc.),
 the Gaussian 86(TM) system (copyright 1986, Carnegie Mellon
 University), and the Gaussian 82(TM) system (copyright 1983,
 Carnegie Mellon University). Gaussian is a federally registered
 trademark of Gaussian, Inc.
  
 This software contains proprietary and confidential information,
 including trade secrets, belonging to Gaussian, Inc.
  
 This software is provided under written license and may be
 used, copied, transmitted, or stored only in accord with that
 written license.
  
 The following legend is applicable only to US Government
 contracts under FAR:
  
                    RESTRICTED RIGHTS LEGEND
  
 Use, reproduction and disclosure by the US Government is
 subject to restrictions as set forth in subparagraphs (a)
 and (c) of the Commercial Computer Software - Restricted
 Rights clause in FAR 52.227-19.
  
 Gaussian, Inc.
 340 Quinnipiac St., Bldg. 40, Wallingford CT 06492
  
  
 ---------------------------------------------------------------
 Warning -- This program may not be used in any manner that
 competes with the business of Gaussian, Inc. or will provide
 assistance to any competitor of Gaussian, Inc.  The licensee
 of this program is prohibited from giving any competitor of
 Gaussian, Inc. access to this program.  By using this program,
 the user acknowledges that Gaussian, Inc. is engaged in the
 business of creating and licensing software in the field of
 computational chemistry and represents and warrants to the
 licensee that it is not a competitor of Gaussian, Inc. and that
 it will not use this program in any manner prohibited above.
 ---------------------------------------------------------------
  

 Cite this work as:
 Gaussian 09, Revision D.01,
 M. J. Frisch, G. W. Trucks, H. B. Schlegel, G. E. Scuseria, 
 M. A. Robb, J. R. Cheeseman, G. Scalmani, V. Barone, B. Mennucci, 
 G. A. Petersson, H. Nakatsuji, M. Caricato, X. Li, H. P. Hratchian, 
 A. F. Izmaylov, J. Bloino, G. Zheng, J. L. Sonnenberg, M. Hada, 
 M. Ehara, K. Toyota, R. Fukuda, J. Hasegawa, M. Ishida, T. Nakajima, 
 Y. Honda, O. Kitao, H. Nakai, T. Vreven, J. A. Montgomery, Jr., 
 J. E. Peralta, F. Ogliaro, M. Bearpark, J. J. Heyd, E. Brothers, 
 K. N. Kudin, V. N. Staroverov, T. Keith, R. Kobayashi, J. Normand, 
 K. Raghavachari, A. Rendell, J. C. Burant, S. S. Iyengar, J. Tomasi, 
 M. Cossi, N. Rega, J. M. Millam, M. Klene, J. E. Knox, J. B. Cross, 
 V. Bakken, C. Adamo, J. Jaramillo, R. Gomperts, R. E. Stratmann, 
 O. Yazyev, A. J. Austin, R. Cammi, C. Pomelli, J. W. Ochterski, 
 R. L. Martin, K. Morokuma, V. G. Zakrzewski, G. A. Voth, 
 P. Salvador, J. J. Dannenberg, S. Dapprich, A. D. Daniels, 
 O. Farkas, J. B. Foresman, J. V. Ortiz, J. Cioslowski, 
 and D. J. Fox, Gaussian, Inc., Wallingford CT, 2013.
 
 ******************************************
 Gaussian 09:  ES64L-G09RevD.01 24-Apr-2013
                13-Jun-2024 
 ******************************************
 %chk=chlorotrifluoromethane.chk
 %mem=8GB
 %nprocshared=20
 Will use up to   20 processors via shared memory.
 -------------------------------------------------------------------
 #p opt freq b3lyp/gen nosymm em=gd3 int=ultrafine scf=xqc scfcyc=96
 -------------------------------------------------------------------
 1/14=-1,18=20,19=15,26=4,38=1/1,3;
 2/9=110,12=2,15=1,17=6,18=5,40=1/2;
 3/5=7,11=2,16=1,25=1,30=1,71=1,74=-5,75=-5,124=31/1,2,3;
 4//1;
 5/5=2,7=96,8=3,13=1,38=5/2,8;
 6/7=2,8=2,9=2,10=2,28=1/1;
 7/30=1/1,2,3,16;
 1/14=-1,18=20,19=15,26=4/3(2);
 2/9=110,15=1/2;
 99//99;
 2/9=110,15=1/2;
 3/5=7,6=1,11=2,16=1,25=1,30=1,71=1,74=-5,75=-5,82=7,124=31/1,2,3;
 4/5=5,16=3,69=1/1;
 5/5=2,7=96,8=3,13=1,38=5/2,8;
 7/30=1/1,2,3,16;
 1/14=-1,18=20,19=15,26=4/3(-5);
 2/9=110,15=1/2;
 6/7=2,8=2,9=2,10=2,19=2,28=1/1;
 99/9=1/99;
 Leave Link    1 at Thu Jun 13 11:39:52 2024, MaxMem=  1073741824 cpu:         1.5
 (Enter /apps/z_install_tree/linux-rocky8-ivybridge/gcc-12.2.0/gaussian-09-D.01-wczn3gur5lpur3omlkzwa2l5ecyxp5ef/g09/l101.exe)
 ----------------------
 chlorotrifluoromethane
 ----------------------
 Symbolic Z-matrix:
 Charge =  0 Multiplicity = 1
 C                    0     50.144    35.492    32.745 
 Cl                   0     50.331    34.855    34.354 
 F                    0     48.402    35.237    32.37 
 F                    0     51.045    34.593    31.516 
 F                    0     50.458    37.31     32.739 
 
 Add virtual bond connecting atoms F4         and C1         Dist= 3.34D+00.
 Add virtual bond connecting atoms F3         and C1         Dist= 3.40D+00.
 Add virtual bond connecting atoms F5         and C1         Dist= 3.49D+00.
 NAtoms=      5 NQM=        5 NQMF=       0 NMMI=      0 NMMIF=      0
                NMic=       0 NMicF=      0.
                    Isotopes and Nuclear Properties:
 (Nuclear quadrupole moments (NQMom) in fm**2, nuclear magnetic moments (NMagM)
  in nuclear magnetons)

  Atom         1           2           3           4           5
 IAtWgt=          12          35          19          19          19
 AtmWgt=  12.0000000  34.9688527  18.9984033  18.9984033  18.9984033
 NucSpn=           0           3           1           1           1
 AtZEff=   0.0000000   0.0000000   0.0000000   0.0000000   0.0000000
 NQMom=    0.0000000  -8.1650000   0.0000000   0.0000000   0.0000000
 NMagM=    0.0000000   0.8218740   2.6288670   2.6288670   2.6288670
 AtZNuc=   6.0000000  17.0000000   9.0000000   9.0000000   9.0000000
 Leave Link  101 at Thu Jun 13 11:39:53 2024, MaxMem=  1073741824 cpu:         2.4
 (Enter /apps/z_install_tree/linux-rocky8-ivybridge/gcc-12.2.0/gaussian-09-D.01-wczn3gur5lpur3omlkzwa2l5ecyxp5ef/g09/l103.exe)

 GradGradGradGradGradGradGradGradGradGradGradGradGradGradGradGradGradGrad
 Berny optimization.
 Initialization pass.
                           ----------------------------
                           !    Initial Parameters    !
                           ! (Angstroms and Degrees)  !
 --------------------------                            --------------------------
 ! Name  Definition              Value          Derivative Info.                !
 --------------------------------------------------------------------------------
 ! R1    R(1,2)                  1.7406         estimate D2E/DX2                !
 ! R2    R(1,3)                  1.8001         estimate D2E/DX2                !
 ! R3    R(1,4)                  1.7693         estimate D2E/DX2                !
 ! R4    R(1,5)                  1.8449         estimate D2E/DX2                !
 ! A1    A(2,1,3)              104.1643         estimate D2E/DX2                !
 ! A2    A(2,1,4)              113.6688         estimate D2E/DX2                !
 ! A3    A(2,1,5)              110.2031         estimate D2E/DX2                !
 ! A4    A(3,1,4)              106.0291         estimate D2E/DX2                !
 ! A5    A(3,1,5)              107.6754         estimate D2E/DX2                !
 ! A6    A(4,1,5)              114.3156         estimate D2E/DX2                !
 ! D1    D(2,1,4,3)            113.8231         estimate D2E/DX2                !
 ! D2    D(2,1,5,3)           -113.0125         estimate D2E/DX2                !
 ! D3    D(2,1,5,4)            129.4708         estimate D2E/DX2                !
 ! D4    D(3,1,5,4)           -117.5167         estimate D2E/DX2                !
 --------------------------------------------------------------------------------
 Trust Radius=3.00D-01 FncErr=1.00D-07 GrdErr=1.00D-06
 Number of steps in this run=     24 maximum allowed number of steps=    100.
 GradGradGradGradGradGradGradGradGradGradGradGradGradGradGradGradGradGrad

 Leave Link  103 at Thu Jun 13 11:39:53 2024, MaxMem=  1073741824 cpu:         0.3
 (Enter /apps/z_install_tree/linux-rocky8-ivybridge/gcc-12.2.0/gaussian-09-D.01-wczn3gur5lpur3omlkzwa2l5ecyxp5ef/g09/l202.exe)
                          Input orientation:                          
 ---------------------------------------------------------------------
 Center     Atomic      Atomic             Coordinates (Angstroms)
 Number     Number       Type             X           Y           Z
 ---------------------------------------------------------------------
      1          6           0       50.144000   35.492000   32.745000
      2         17           0       50.331000   34.855000   34.354000
      3          9           0       48.402000   35.237000   32.370000
      4          9           0       51.045000   34.593000   31.516000
      5          9           0       50.458000   37.310000   32.739000
 ---------------------------------------------------------------------
                    Distance matrix (angstroms):
                    1          2          3          4          5
     1  C    0.000000
     2  Cl   1.740580   0.000000
     3  F    1.800059   2.793425   0.000000
     4  F    1.769306   2.938143   2.851228   0.000000
     5  F    1.844927   2.941323   2.942894   3.036838   0.000000
 Symmetry turned off by external request.
 Stoichiometry    CClF3
 Framework group  C1[X(CClF3)]
 Deg. of freedom     9
 Full point group                 C1      NOp   1
 Rotational constants (GHZ):      3.0773056      2.5794593      2.4248359
 Leave Link  202 at Thu Jun 13 11:39:53 2024, MaxMem=  1073741824 cpu:         0.1
 (Enter /apps/z_install_tree/linux-rocky8-ivybridge/gcc-12.2.0/gaussian-09-D.01-wczn3gur5lpur3omlkzwa2l5ecyxp5ef/g09/l301.exe)
 General basis read from cards:  (5D, 7F)
 Centers:       2      3      4      5      1
 6-311+g(2d,2p)
 ****
 Ernie: Thresh=  0.10000D-02 Tol=  0.10000D-05 Strict=F.
   143 basis functions,   227 primitive gaussians,   153 cartesian basis functions
    25 alpha electrons       25 beta electrons
       nuclear repulsion energy       206.3039018858 Hartrees.
 IExCor=  402 DFT=T Ex+Corr=B3LYP ExCW=0 ScaHFX=  0.200000
 ScaDFX=  0.800000  0.720000  1.000000  0.810000 ScalE2=  1.000000  1.000000
 IRadAn=      5 IRanWt=     -1 IRanGd=            0 ICorTp=0 IEmpDi=131
 NAtoms=    5 NActive=    5 NUniq=    5 SFac= 1.00D+00 NAtFMM=   60 NAOKFM=F Big=F
 Integral buffers will be    131072 words long.
 Raffenetti 2 integral format.
 Two-electron integral symmetry is turned off.
 R6Disp:  Grimme-D3 Dispersion energy=       -0.0024341302 Hartrees.
 Nuclear repulsion after empirical dispersion term =      206.3014677555 Hartrees.
 Leave Link  301 at Thu Jun 13 11:39:53 2024, MaxMem=  1073741824 cpu:         0.6
 (Enter /apps/z_install_tree/linux-rocky8-ivybridge/gcc-12.2.0/gaussian-09-D.01-wczn3gur5lpur3omlkzwa2l5ecyxp5ef/g09/l302.exe)
 NPDir=0 NMtPBC=     1 NCelOv=     1 NCel=       1 NClECP=     1 NCelD=      1
         NCelK=      1 NCelE2=     1 NClLst=     1 CellRange=     0.0.
 One-electron integrals computed using PRISM.
 NBasis=   143 RedAO= T EigKep=  9.46D-04  NBF=   143
 NBsUse=   143 1.00D-06 EigRej= -1.00D+00 NBFU=   143
 Precomputing XC quadrature grid using
 IXCGrd= 4 IRadAn=           5 IRanWt=          -1 IRanGd=           0 AccXCQ= 0.00D+00.
 Generated NRdTot=       0 NPtTot=           0 NUsed=           0 NTot=          32
 NSgBfM=   153   153   153   153   153 MxSgAt=     5 MxSgA2=     5.
 Leave Link  302 at Thu Jun 13 11:39:53 2024, MaxMem=  1073741824 cpu:         2.0
 (Enter /apps/z_install_tree/linux-rocky8-ivybridge/gcc-12.2.0/gaussian-09-D.01-wczn3gur5lpur3omlkzwa2l5ecyxp5ef/g09/l303.exe)
 DipDrv:  MaxL=1.
 Leave Link  303 at Thu Jun 13 11:39:53 2024, MaxMem=  1073741824 cpu:         0.3
 (Enter /apps/z_install_tree/linux-rocky8-ivybridge/gcc-12.2.0/gaussian-09-D.01-wczn3gur5lpur3omlkzwa2l5ecyxp5ef/g09/l401.exe)
 ExpMin= 4.38D-02 ExpMax= 1.06D+05 ExpMxC= 3.62D+03 IAcc=3 IRadAn=         5 AccDes= 0.00D+00
 Harris functional with IExCor=  402 and IRadAn=       5 diagonalized for initial guess.
 HarFok:  IExCor=  402 AccDes= 0.00D+00 IRadAn=         5 IDoV= 1 UseB2=F ITyADJ=14
 ICtDFT=  3500011 ScaDFX=  1.000000  1.000000  1.000000  1.000000
 FoFCou: FMM=F IPFlag=           0 FMFlag=      100000 FMFlg1=           0
         NFxFlg=           0 DoJE=T BraDBF=F KetDBF=T FulRan=T
         wScrn=  0.000000 ICntrl=     500 IOpCl=  0 I1Cent=   200000004 NGrid=           0
         NMat0=    1 NMatS0=      1 NMatT0=    0 NMatD0=    1 NMtDS0=    0 NMtDT0=    0
 Symmetry not used in FoFCou.
 Harris En= -797.797367407417    
 JPrj=0 DoOrth=F DoCkMO=F.
 Leave Link  401 at Thu Jun 13 11:39:53 2024, MaxMem=  1073741824 cpu:         2.9
 (Enter /apps/z_install_tree/linux-rocky8-ivybridge/gcc-12.2.0/gaussian-09-D.01-wczn3gur5lpur3omlkzwa2l5ecyxp5ef/g09/l502.exe)
 Closed shell SCF:
 Using DIIS extrapolation, IDIIS=  1040.
 Two-electron integral symmetry not used.
 Keep R1 ints in memory in canonical form, NReq=54920448.
 IVT=       85437 IEndB=       85437 NGot=  1073741824 MDV=  1020647432
 LenX=  1020647432 LenY=  1020623582
 Requested convergence on RMS density matrix=1.00D-08 within  96 cycles.
 Requested convergence on MAX density matrix=1.00D-06.
 Requested convergence on             energy=1.00D-06.
 No special actions if energy rises.
 FoFCou: FMM=F IPFlag=           0 FMFlag=           0 FMFlg1=           0
         NFxFlg=           0 DoJE=F BraDBF=F KetDBF=F FulRan=T
         wScrn=  0.000000 ICntrl=     600 IOpCl=  0 I1Cent=           0 NGrid=           0
         NMat0=    1 NMatS0=  10296 NMatT0=    0 NMatD0=    1 NMtDS0=    0 NMtDT0=    0
 Symmetry not used in FoFCou.

 Cycle   1  Pass 1  IDiag  1:
 E= -797.427072168593    
 DIIS: error= 5.01D-02 at cycle   1 NSaved=   1.
 NSaved= 1 IEnMin= 1 EnMin= -797.427072168593     IErMin= 1 ErrMin= 5.01D-02
 ErrMax= 5.01D-02  0.00D+00 EMaxC= 1.00D-01 BMatC= 3.43D-01 BMatP= 3.43D-01
 IDIUse=3 WtCom= 4.99D-01 WtEn= 5.01D-01
 Coeff-Com:  0.100D+01
 Coeff-En:   0.100D+01
 Coeff:      0.100D+01
 Gap=     0.194 Goal=   None    Shift=    0.000
 GapD=    0.194 DampG=1.000 DampE=0.500 DampFc=0.5000 IDamp=-1.
 Damping current iteration by 5.00D-01
 RMSDP=9.57D-03 MaxDP=4.07D-01              OVMax= 5.78D-01

 Cycle   2  Pass 1  IDiag  1:
 E= -796.752157551965     Delta-E=        0.674914616628 Rises=F Damp=T
 DIIS: error= 7.49D-02 at cycle   2 NSaved=   2.
 NSaved= 2 IEnMin= 1 EnMin= -797.427072168593     IErMin= 1 ErrMin= 5.01D-02
 ErrMax= 7.49D-02  0.00D+00 EMaxC= 1.00D-01 BMatC= 6.16D-01 BMatP= 3.43D-01
 IDIUse=2 WtCom= 0.00D+00 WtEn= 1.00D+00
 Coeff-En:   0.757D+00 0.243D+00
 Coeff:      0.757D+00 0.243D+00
 Gap=     0.145 Goal=   None    Shift=    0.000
 RMSDP=2.76D-03 MaxDP=4.16D-02 DE= 6.75D-01 OVMax= 3.87D-01

 Cycle   3  Pass 1  IDiag  1:
 E= -797.237639646340     Delta-E=       -0.485482094375 Rises=F Damp=F
 DIIS: error= 7.67D-02 at cycle   3 NSaved=   3.
 NSaved= 3 IEnMin= 1 EnMin= -797.427072168593     IErMin= 1 ErrMin= 5.01D-02
 ErrMax= 7.67D-02  0.00D+00 EMaxC= 1.00D-01 BMatC= 6.62D-01 BMatP= 3.43D-01
 IDIUse=2 WtCom= 0.00D+00 WtEn= 1.00D+00
 Coeff-En:   0.582D+00 0.000D+00 0.418D+00
 Coeff:      0.582D+00 0.000D+00 0.418D+00
 Gap=     0.201 Goal=   None    Shift=    0.000
 RMSDP=2.51D-03 MaxDP=1.04D-01 DE=-4.85D-01 OVMax= 1.97D-01

 Cycle   4  Pass 1  IDiag  1:
 E= -797.711157109653     Delta-E=       -0.473517463314 Rises=F Damp=F
 DIIS: error= 1.78D-02 at cycle   4 NSaved=   4.
 NSaved= 4 IEnMin= 4 EnMin= -797.711157109653     IErMin= 4 ErrMin= 1.78D-02
 ErrMax= 1.78D-02  0.00D+00 EMaxC= 1.00D-01 BMatC= 3.54D-02 BMatP= 3.43D-01
 IDIUse=3 WtCom= 8.22D-01 WtEn= 1.78D-01
 Coeff-Com:  0.291D+00-0.197D+00 0.357D+00 0.549D+00
 Coeff-En:   0.000D+00 0.000D+00 0.000D+00 0.100D+01
 Coeff:      0.239D+00-0.162D+00 0.293D+00 0.629D+00
 Gap=     0.214 Goal=   None    Shift=    0.000
 RMSDP=1.12D-03 MaxDP=2.62D-02 DE=-4.74D-01 OVMax= 8.90D-02

 Cycle   5  Pass 1  IDiag  1:
 E= -797.720304371791     Delta-E=       -0.009147262138 Rises=F Damp=F
 DIIS: error= 1.32D-02 at cycle   5 NSaved=   5.
 NSaved= 5 IEnMin= 5 EnMin= -797.720304371791     IErMin= 5 ErrMin= 1.32D-02
 ErrMax= 1.32D-02  0.00D+00 EMaxC= 1.00D-01 BMatC= 2.47D-02 BMatP= 3.54D-02
 IDIUse=3 WtCom= 8.68D-01 WtEn= 1.32D-01
 Coeff-Com:  0.397D-01-0.106D-01-0.325D-01 0.432D+00 0.572D+00
 Coeff-En:   0.000D+00 0.000D+00 0.000D+00 0.419D+00 0.581D+00
 Coeff:      0.344D-01-0.916D-02-0.282D-01 0.430D+00 0.573D+00
 Gap=     0.183 Goal=   None    Shift=    0.000
 RMSDP=5.51D-04 MaxDP=1.75D-02 DE=-9.15D-03 OVMax= 3.12D-02

 Cycle   6  Pass 1  IDiag  1:
 E= -797.737067256224     Delta-E=       -0.016762884433 Rises=F Damp=F
 DIIS: error= 3.20D-03 at cycle   6 NSaved=   6.
 NSaved= 6 IEnMin= 6 EnMin= -797.737067256224     IErMin= 6 ErrMin= 3.20D-03
 ErrMax= 3.20D-03  0.00D+00 EMaxC= 1.00D-01 BMatC= 1.08D-03 BMatP= 2.47D-02
 IDIUse=3 WtCom= 9.68D-01 WtEn= 3.20D-02
 Coeff-Com:  0.914D-02 0.995D-03-0.244D-01 0.253D+00 0.334D+00 0.427D+00
 Coeff-En:   0.000D+00 0.000D+00 0.000D+00 0.000D+00 0.000D+00 0.100D+01
 Coeff:      0.885D-02 0.963D-03-0.236D-01 0.245D+00 0.324D+00 0.445D+00
 Gap=     0.176 Goal=   None    Shift=    0.000
 RMSDP=1.61D-04 MaxDP=4.73D-03 DE=-1.68D-02 OVMax= 1.32D-02

 Cycle   7  Pass 1  IDiag  1:
 E= -797.737708548444     Delta-E=       -0.000641292220 Rises=F Damp=F
 DIIS: error= 1.99D-03 at cycle   7 NSaved=   7.
 NSaved= 7 IEnMin= 7 EnMin= -797.737708548444     IErMin= 7 ErrMin= 1.99D-03
 ErrMax= 1.99D-03  0.00D+00 EMaxC= 1.00D-01 BMatC= 2.94D-04 BMatP= 1.08D-03
 IDIUse=3 WtCom= 9.80D-01 WtEn= 1.99D-02
 Coeff-Com: -0.208D-02 0.140D-03-0.464D-02 0.913D-01 0.975D-01 0.367D+00
 Coeff-Com:  0.450D+00
 Coeff-En:   0.000D+00 0.000D+00 0.000D+00 0.000D+00 0.000D+00 0.210D+00
 Coeff-En:   0.790D+00
 Coeff:     -0.204D-02 0.138D-03-0.455D-02 0.894D-01 0.956D-01 0.364D+00
 Coeff:      0.457D+00
 Gap=     0.178 Goal=   None    Shift=    0.000
 RMSDP=6.80D-05 MaxDP=1.50D-03 DE=-6.41D-04 OVMax= 5.08D-03

 Cycle   8  Pass 1  IDiag  1:
 E= -797.737921220121     Delta-E=       -0.000212671676 Rises=F Damp=F
 DIIS: error= 1.15D-04 at cycle   8 NSaved=   8.
 NSaved= 8 IEnMin= 8 EnMin= -797.737921220121     IErMin= 8 ErrMin= 1.15D-04
 ErrMax= 1.15D-04  0.00D+00 EMaxC= 1.00D-01 BMatC= 2.75D-06 BMatP= 2.94D-04
 IDIUse=3 WtCom= 9.99D-01 WtEn= 1.15D-03
 Coeff-Com: -0.818D-03 0.381D-03-0.215D-03 0.169D-01 0.133D-01 0.102D+00
 Coeff-Com:  0.176D+00 0.693D+00
 Coeff-En:   0.000D+00 0.000D+00 0.000D+00 0.000D+00 0.000D+00 0.000D+00
 Coeff-En:   0.000D+00 0.100D+01
 Coeff:     -0.817D-03 0.381D-03-0.214D-03 0.169D-01 0.133D-01 0.102D+00
 Coeff:      0.176D+00 0.693D+00
 Gap=     0.177 Goal=   None    Shift=    0.000
 RMSDP=1.08D-05 MaxDP=4.44D-04 DE=-2.13D-04 OVMax= 5.20D-04

 Cycle   9  Pass 1  IDiag  1:
 E= -797.737922945175     Delta-E=       -0.000001725054 Rises=F Damp=F
 DIIS: error= 6.06D-05 at cycle   9 NSaved=   9.
 NSaved= 9 IEnMin= 9 EnMin= -797.737922945175     IErMin= 9 ErrMin= 6.06D-05
 ErrMax= 6.06D-05  0.00D+00 EMaxC= 1.00D-01 BMatC= 6.34D-07 BMatP= 2.75D-06
 IDIUse=1 WtCom= 1.00D+00 WtEn= 0.00D+00
 Coeff-Com: -0.434D-03 0.134D-03 0.981D-04 0.131D-02 0.165D-04 0.244D-01
 Coeff-Com:  0.597D-01 0.383D+00 0.532D+00
 Coeff:     -0.434D-03 0.134D-03 0.981D-04 0.131D-02 0.165D-04 0.244D-01
 Coeff:      0.597D-01 0.383D+00 0.532D+00
 Gap=     0.177 Goal=   None    Shift=    0.000
 RMSDP=4.65D-06 MaxDP=1.80D-04 DE=-1.73D-06 OVMax= 2.36D-04

 Cycle  10  Pass 1  IDiag  1:
 E= -797.737923454473     Delta-E=       -0.000000509298 Rises=F Damp=F
 DIIS: error= 3.17D-05 at cycle  10 NSaved=  10.
 NSaved=10 IEnMin=10 EnMin= -797.737923454473     IErMin=10 ErrMin= 3.17D-05
 ErrMax= 3.17D-05  0.00D+00 EMaxC= 1.00D-01 BMatC= 8.58D-08 BMatP= 6.34D-07
 IDIUse=1 WtCom= 1.00D+00 WtEn= 0.00D+00
 Coeff-Com: -0.937D-04 0.310D-04 0.298D-04-0.160D-02-0.986D-03-0.233D-02
 Coeff-Com:  0.566D-02 0.944D-01 0.301D+00 0.604D+00
 Coeff:     -0.937D-04 0.310D-04 0.298D-04-0.160D-02-0.986D-03-0.233D-02
 Coeff:      0.566D-02 0.944D-01 0.301D+00 0.604D+00
 Gap=     0.177 Goal=   None    Shift=    0.000
 RMSDP=1.50D-06 MaxDP=3.38D-05 DE=-5.09D-07 OVMax= 8.10D-05

 Cycle  11  Pass 1  IDiag  1:
 E= -797.737923543396     Delta-E=       -0.000000088923 Rises=F Damp=F
 DIIS: error= 3.34D-06 at cycle  11 NSaved=  11.
 NSaved=11 IEnMin=11 EnMin= -797.737923543396     IErMin=11 ErrMin= 3.34D-06
 ErrMax= 3.34D-06  0.00D+00 EMaxC= 1.00D-01 BMatC= 1.18D-09 BMatP= 8.58D-08
 IDIUse=1 WtCom= 1.00D+00 WtEn= 0.00D+00
 Coeff-Com: -0.223D-05-0.127D-04 0.173D-04-0.383D-03-0.129D-03-0.212D-02
 Coeff-Com: -0.248D-02-0.478D-03 0.419D-01 0.113D+00 0.850D+00
 Coeff:     -0.223D-05-0.127D-04 0.173D-04-0.383D-03-0.129D-03-0.212D-02
 Coeff:     -0.248D-02-0.478D-03 0.419D-01 0.113D+00 0.850D+00
 Gap=     0.177 Goal=   None    Shift=    0.000
 RMSDP=2.58D-07 MaxDP=8.04D-06 DE=-8.89D-08 OVMax= 1.65D-05

 Cycle  12  Pass 1  IDiag  1:
 E= -797.737923544777     Delta-E=       -0.000000001381 Rises=F Damp=F
 DIIS: error= 7.99D-07 at cycle  12 NSaved=  12.
 NSaved=12 IEnMin=12 EnMin= -797.737923544777     IErMin=12 ErrMin= 7.99D-07
 ErrMax= 7.99D-07  0.00D+00 EMaxC= 1.00D-01 BMatC= 1.14D-10 BMatP= 1.18D-09
 IDIUse=1 WtCom= 1.00D+00 WtEn= 0.00D+00
 Coeff-Com:  0.332D-05 0.119D-06-0.908D-07-0.827D-05-0.520D-04-0.199D-03
 Coeff-Com: -0.707D-03-0.399D-02-0.781D-02-0.153D-01 0.138D+00 0.890D+00
 Coeff:      0.332D-05 0.119D-06-0.908D-07-0.827D-05-0.520D-04-0.199D-03
 Coeff:     -0.707D-03-0.399D-02-0.781D-02-0.153D-01 0.138D+00 0.890D+00
 Gap=     0.177 Goal=   None    Shift=    0.000
 RMSDP=6.99D-08 MaxDP=1.73D-06 DE=-1.38D-09 OVMax= 4.17D-06

 Cycle  13  Pass 1  IDiag  1:
 E= -797.737923544888     Delta-E=       -0.000000000112 Rises=F Damp=F
 DIIS: error= 7.90D-08 at cycle  13 NSaved=  13.
 NSaved=13 IEnMin=13 EnMin= -797.737923544888     IErMin=13 ErrMin= 7.90D-08
 ErrMax= 7.90D-08  0.00D+00 EMaxC= 1.00D-01 BMatC= 1.57D-12 BMatP= 1.14D-10
 IDIUse=1 WtCom= 1.00D+00 WtEn= 0.00D+00
 Coeff-Com:  0.835D-06-0.257D-06-0.401D-06 0.903D-05-0.277D-05 0.294D-04
 Coeff-Com: -0.149D-04-0.598D-03-0.277D-02-0.496D-02-0.155D-01 0.115D+00
 Coeff-Com:  0.909D+00
 Coeff:      0.835D-06-0.257D-06-0.401D-06 0.903D-05-0.277D-05 0.294D-04
 Coeff:     -0.149D-04-0.598D-03-0.277D-02-0.496D-02-0.155D-01 0.115D+00
 Coeff:      0.909D+00
 Gap=     0.177 Goal=   None    Shift=    0.000
 RMSDP=1.39D-08 MaxDP=3.06D-07 DE=-1.12D-10 OVMax= 9.20D-07

 Cycle  14  Pass 1  IDiag  1:
 E= -797.737923544899     Delta-E=       -0.000000000011 Rises=F Damp=F
 DIIS: error= 2.81D-08 at cycle  14 NSaved=  14.
 NSaved=14 IEnMin=14 EnMin= -797.737923544899     IErMin=14 ErrMin= 2.81D-08
 ErrMax= 2.81D-08  0.00D+00 EMaxC= 1.00D-01 BMatC= 2.08D-13 BMatP= 1.57D-12
 IDIUse=1 WtCom= 1.00D+00 WtEn= 0.00D+00
 Coeff-Com:  0.164D-07-0.714D-08-0.210D-06 0.266D-05 0.371D-05 0.290D-04
 Coeff-Com:  0.655D-04 0.224D-03-0.558D-04 0.952D-04-0.151D-01-0.370D-01
 Coeff-Com:  0.205D+00 0.846D+00
 Coeff:      0.164D-07-0.714D-08-0.210D-06 0.266D-05 0.371D-05 0.290D-04
 Coeff:      0.655D-04 0.224D-03-0.558D-04 0.952D-04-0.151D-01-0.370D-01
 Coeff:      0.205D+00 0.846D+00
 Gap=     0.177 Goal=   None    Shift=    0.000
 RMSDP=3.80D-09 MaxDP=8.03D-08 DE=-1.07D-11 OVMax= 3.14D-07

 SCF Done:  E(RB3LYP) =  -797.737923545     A.U. after   14 cycles
            NFock= 14  Conv=0.38D-08     -V/T= 2.0041
 KE= 7.944953886512D+02 PE=-2.308656638813D+03 EE= 5.101218588617D+02
 Leave Link  502 at Thu Jun 13 11:39:56 2024, MaxMem=  1073741824 cpu:        36.3
 (Enter /apps/z_install_tree/linux-rocky8-ivybridge/gcc-12.2.0/gaussian-09-D.01-wczn3gur5lpur3omlkzwa2l5ecyxp5ef/g09/l508.exe)
 QCSCF skips out because SCF is already converged.
 Leave Link  508 at Thu Jun 13 11:39:56 2024, MaxMem=  1073741824 cpu:         0.0
 (Enter /apps/z_install_tree/linux-rocky8-ivybridge/gcc-12.2.0/gaussian-09-D.01-wczn3gur5lpur3omlkzwa2l5ecyxp5ef/g09/l601.exe)
 Copying SCF densities to generalized density rwf, IOpCl= 0 IROHF=0.

 **********************************************************************

            Population analysis using the SCF density.

 **********************************************************************

 Alpha  occ. eigenvalues -- -101.68154 -24.74341 -24.72905 -24.72368 -10.54763
 Alpha  occ. eigenvalues --   -9.59255  -7.35862  -7.34685  -7.34680  -1.19423
 Alpha  occ. eigenvalues --   -1.17521  -1.16886  -0.97319  -0.70545  -0.54359
 Alpha  occ. eigenvalues --   -0.52724  -0.52174  -0.44953  -0.44874  -0.43809
 Alpha  occ. eigenvalues --   -0.43744  -0.43476  -0.42661  -0.41605  -0.41064
 Alpha virt. eigenvalues --   -0.23343  -0.14218  -0.13351  -0.06598   0.00358
 Alpha virt. eigenvalues --    0.05112   0.05189   0.05719   0.08550   0.09051
 Alpha virt. eigenvalues --    0.09101   0.14879   0.19547   0.19880   0.23047
 Alpha virt. eigenvalues --    0.23704   0.25786   0.29513   0.30829   0.32239
 Alpha virt. eigenvalues --    0.33492   0.34061   0.34402   0.35090   0.36095
 Alpha virt. eigenvalues --    0.36741   0.37051   0.39904   0.40318   0.46056
 Alpha virt. eigenvalues --    0.46442   0.47822   0.58793   0.61984   0.66365
 Alpha virt. eigenvalues --    0.83455   0.85393   0.88946   0.96287   0.99020
 Alpha virt. eigenvalues --    1.02123   1.20243   1.26721   1.31475   1.32084
 Alpha virt. eigenvalues --    1.33332   1.34019   1.38358   1.39053   1.40771
 Alpha virt. eigenvalues --    1.42289   1.78337   1.80607   1.84517   1.96517
 Alpha virt. eigenvalues --    1.97484   1.98206   1.98566   2.00431   2.00792
 Alpha virt. eigenvalues --    2.01456   2.02535   2.03355   2.13204   2.13793
 Alpha virt. eigenvalues --    2.15172   2.16549   2.18570   2.20965   2.26782
 Alpha virt. eigenvalues --    2.27473   2.28955   2.30242   2.34836   2.45383
 Alpha virt. eigenvalues --    2.49826   2.62205   3.09225   3.10850   3.17536
 Alpha virt. eigenvalues --    3.30436   3.32888   3.36799   3.38177   3.43324
 Alpha virt. eigenvalues --    6.24270   6.26010   6.26972   6.30021   6.30438
 Alpha virt. eigenvalues --    6.34190   6.34719   6.34888   6.38885   8.98226
 Alpha virt. eigenvalues --    8.99083   8.99259   9.00135   9.00914   9.01153
 Alpha virt. eigenvalues --    9.02058   9.04597   9.06920   9.10610   9.15360
 Alpha virt. eigenvalues --    9.17504   9.21637   9.32441   9.33586   9.62645
 Alpha virt. eigenvalues --   23.12431  25.77177  25.78042  26.86405  66.69379
 Alpha virt. eigenvalues --   66.71016  66.72024 215.60573
          Condensed to atoms (all electrons):
               1          2          3          4          5
     1  C    4.788924   0.414316   0.190175   0.195731   0.186237
     2  Cl   0.414316  16.392622  -0.052191  -0.039492  -0.040879
     3  F    0.190175  -0.052191   9.079489  -0.011115  -0.010355
     4  F    0.195731  -0.039492  -0.011115   9.033815  -0.009908
     5  F    0.186237  -0.040879  -0.010355  -0.009908   9.060110
 Mulliken charges:
               1
     1  C    0.224618
     2  Cl   0.325623
     3  F   -0.196004
     4  F   -0.169031
     5  F   -0.185206
 Sum of Mulliken charges =   0.00000
 Mulliken charges with hydrogens summed into heavy atoms:
               1
     1  C    0.224618
     2  Cl   0.325623
     3  F   -0.196004
     4  F   -0.169031
     5  F   -0.185206
 Electronic spatial extent (au):  <R**2>=         866982.2019
 Charge=              0.0000 electrons
 Dipole moment (field-independent basis, Debye):
    X=              0.8356    Y=             -1.4128    Z=              3.0970  Tot=              3.5051
 Quadrupole moment (field-independent basis, Debye-Ang):
   XX=             47.5676   YY=           -135.8320   ZZ=            173.2107
   XY=            -41.6267   XZ=            183.2348   YZ=             61.0421
 Traceless Quadrupole moment (field-independent basis, Debye-Ang):
   XX=             19.2522   YY=           -164.1474   ZZ=            144.8952
   XY=            -41.6267   XZ=            183.2348   YZ=             61.0421
 Octapole moment (field-independent basis, Debye-Ang**2):
  XXX=            857.0578  YYY=          -9115.3056  ZZZ=           7033.4898  XYY=          -5789.8347
  XXY=          -1903.6224  XXZ=           9393.1288  XZZ=           9620.4119  YZZ=           4461.2936
  YYZ=           -740.6130  XYZ=           4037.3886
 Hexadecapole moment (field-independent basis, Debye-Ang**3):
 XXXX=        -124469.9056 YYYY=        -520298.2882 ZZZZ=         241629.7246 XXXY=        -150340.1213
 XXXZ=         421460.3985 YYYX=        -421387.0181 YYYZ=        -170781.4735 ZZZX=         384000.1159
 ZZZY=         191604.6659 XXYY=        -284486.3188 XXZZ=         489746.5882 YYZZ=          59754.6094
 XXYZ=         209126.1449 YYXZ=          -3017.8040 ZZXY=         256372.6889
 N-N= 2.063014677555D+02 E-N=-2.308656636625D+03  KE= 7.944953886512D+02
 No NMR shielding tensors so no spin-rotation constants.
 Leave Link  601 at Thu Jun 13 11:39:56 2024, MaxMem=  1073741824 cpu:         1.5
 (Enter /apps/z_install_tree/linux-rocky8-ivybridge/gcc-12.2.0/gaussian-09-D.01-wczn3gur5lpur3omlkzwa2l5ecyxp5ef/g09/l701.exe)
 Compute integral first derivatives.
 ... and contract with generalized density number  0.
 R6Disp: Adding Grimme-D3 dispersion energy 1st derivatives to the gradient.
 Leave Link  701 at Thu Jun 13 11:39:56 2024, MaxMem=  1073741824 cpu:         1.6
 (Enter /apps/z_install_tree/linux-rocky8-ivybridge/gcc-12.2.0/gaussian-09-D.01-wczn3gur5lpur3omlkzwa2l5ecyxp5ef/g09/l702.exe)
 L702 exits ... SP integral derivatives will be done elsewhere.
 Leave Link  702 at Thu Jun 13 11:39:56 2024, MaxMem=  1073741824 cpu:         0.2
 (Enter /apps/z_install_tree/linux-rocky8-ivybridge/gcc-12.2.0/gaussian-09-D.01-wczn3gur5lpur3omlkzwa2l5ecyxp5ef/g09/l703.exe)
 Compute integral first derivatives, UseDBF=F ICtDFT=           0.
 Integral derivatives from FoFJK, PRISM(SPDF).
 Calling FoFJK, ICntrl=      2127 FMM=F ISym2X=0 I1Cent= 0 IOpClX= 0 NMat=1 NMatS=1 NMatT=0.
 FoFJK:  IHMeth= 1 ICntrl=    2127 DoSepK=F KAlg= 0 I1Cent=   0 FoldK=F
 IRaf=         0 NMat=   1 IRICut=       1 DoRegI=T DoRafI=F ISym2E= 0.
 FoFCou: FMM=F IPFlag=           0 FMFlag=      100000 FMFlg1=         800
         NFxFlg=           0 DoJE=F BraDBF=F KetDBF=F FulRan=T
         wScrn=  0.000000 ICntrl=    2127 IOpCl=  0 I1Cent=           0 NGrid=           0
         NMat0=    1 NMatS0=      1 NMatT0=    0 NMatD0=    1 NMtDS0=    0 NMtDT0=    0
 Symmetry not used in FoFCou.
 Leave Link  703 at Thu Jun 13 11:39:57 2024, MaxMem=  1073741824 cpu:         8.9
 (Enter /apps/z_install_tree/linux-rocky8-ivybridge/gcc-12.2.0/gaussian-09-D.01-wczn3gur5lpur3omlkzwa2l5ecyxp5ef/g09/l716.exe)
 Dipole        = 3.28743148D-01-5.55843222D-01 1.21846380D+00
 -------------------------------------------------------------------
 Center     Atomic                   Forces (Hartrees/Bohr)
 Number     Number              X              Y              Z
 -------------------------------------------------------------------
      1        6          -0.032099211    0.001829556   -0.032947646
      2       17           0.002591347    0.019384120   -0.046952004
      3        9           0.099936260    0.019333707    0.012465964
      4        9          -0.054588831    0.061200756    0.073607996
      5        9          -0.015839566   -0.101748138   -0.006174311
 -------------------------------------------------------------------
 Cartesian Forces:  Max     0.101748138 RMS     0.050337501
 Leave Link  716 at Thu Jun 13 11:39:57 2024, MaxMem=  1073741824 cpu:         0.4
 (Enter /apps/z_install_tree/linux-rocky8-ivybridge/gcc-12.2.0/gaussian-09-D.01-wczn3gur5lpur3omlkzwa2l5ecyxp5ef/g09/l103.exe)

 GradGradGradGradGradGradGradGradGradGradGradGradGradGradGradGradGradGrad
 Berny optimization.
 FormGI is forming the generalized inverse of G from B-inverse, IUseBI=4.
 Internal  Forces:  Max     0.110025185 RMS     0.050815468
 Search for a local minimum.
 Step number   1 out of a maximum of   24
 All quantities printed in internal units (Hartrees-Bohrs-Radians)
 RMS Force = .50815D-01 SwitMx=.10000D-02 MixMth= 1
 Mixed Optimization -- RFO/linear search
 Second derivative matrix not updated -- first step.
 The second derivative matrix:
                          R1        R2        R3        R4        A1
           R1           0.31418
           R2           0.00000   0.13947
           R3           0.00000   0.00000   0.15052
           R4           0.00000   0.00000   0.00000   0.12521
           A1           0.00000   0.00000   0.00000   0.00000   0.25000
           A2           0.00000   0.00000   0.00000   0.00000   0.00000
           A3           0.00000   0.00000   0.00000   0.00000   0.00000
           A4           0.00000   0.00000   0.00000   0.00000   0.00000
           A5           0.00000   0.00000   0.00000   0.00000   0.00000
           A6           0.00000   0.00000   0.00000   0.00000   0.00000
           D1           0.00000   0.00000   0.00000   0.00000   0.00000
           D2           0.00000   0.00000   0.00000   0.00000   0.00000
           D3           0.00000   0.00000   0.00000   0.00000   0.00000
           D4           0.00000   0.00000   0.00000   0.00000   0.00000
                          A2        A3        A4        A5        A6
           A2           0.25000
           A3           0.00000   0.25000
           A4           0.00000   0.00000   0.25000
           A5           0.00000   0.00000   0.00000   0.25000
           A6           0.00000   0.00000   0.00000   0.00000   0.25000
           D1           0.00000   0.00000   0.00000   0.00000   0.00000
           D2           0.00000   0.00000   0.00000   0.00000   0.00000
           D3           0.00000   0.00000   0.00000   0.00000   0.00000
           D4           0.00000   0.00000   0.00000   0.00000   0.00000
                          D1        D2        D3        D4
           D1           0.00230
           D2           0.00000   0.00230
           D3           0.00000   0.00000   0.00230
           D4           0.00000   0.00000   0.00000   0.00230
 ITU=  0
     Eigenvalues ---    0.06975   0.08337   0.12521   0.13947   0.14930
     Eigenvalues ---    0.15052   0.25000   0.25000   0.31418
 RFO step:  Lambda=-1.30805314D-01 EMin= 6.97460176D-02
 Linear search not attempted -- first point.
 Maximum step size (   0.300) exceeded in Quadratic search.
    -- Step size scaled by   0.436
 Iteration  1 RMS(Cart)=  0.08086923 RMS(Int)=  0.00049173
 Iteration  2 RMS(Cart)=  0.00049941 RMS(Int)=  0.00005831
 Iteration  3 RMS(Cart)=  0.00000022 RMS(Int)=  0.00005831
 ITry= 1 IFail=0 DXMaxC= 1.74D-01 DCOld= 1.00D+10 DXMaxT= 3.00D-01 DXLimC= 3.00D+00 Rises=F
 Variable       Old X    -DE/DX   Delta X   Delta X   Delta X     New X
                                 (Linear)    (Quad)   (Total)
    R1        3.28922  -0.05022   0.00000  -0.04920  -0.04920   3.24002
    R2        3.40162  -0.10205   0.00000  -0.16460  -0.16460   3.23702
    R3        3.34350  -0.11003   0.00000  -0.17049  -0.17049   3.17301
    R4        3.48641  -0.10294   0.00000  -0.17528  -0.17528   3.31113
    A1        1.81801   0.00752   0.00000   0.01756   0.01756   1.83557
    A2        1.98390   0.00202   0.00000   0.00263   0.00263   1.98653
    A3        1.92341   0.00553   0.00000   0.00621   0.00620   1.92961
    A4        1.85056   0.00163   0.00000  -0.00066  -0.00081   1.84975
    A5        1.87929  -0.00400   0.00000  -0.00620  -0.00629   1.87300
    A6        1.99518  -0.01145   0.00000  -0.01707  -0.01715   1.97804
    D1        1.98659   0.01106   0.00000   0.02208   0.02207   2.00866
    D2       -1.97244  -0.00949   0.00000  -0.02049  -0.02046  -1.99290
    D3        2.25969  -0.00201   0.00000  -0.00533  -0.00538   2.25431
    D4       -2.05105   0.00748   0.00000   0.01516   0.01508  -2.03598
         Item               Value     Threshold  Converged?
 Maximum Force            0.110025     0.000450     NO 
 RMS     Force            0.050815     0.000300     NO 
 Maximum Displacement     0.174235     0.001800     NO 
 RMS     Displacement     0.080800     0.001200     NO 
 Predicted change in Energy=-5.055492D-02
 Lowest energy point so far.  Saving SCF results.
 GradGradGradGradGradGradGradGradGradGradGradGradGradGradGradGradGradGrad

 Leave Link  103 at Thu Jun 13 11:39:57 2024, MaxMem=  1073741824 cpu:         0.7
 (Enter /apps/z_install_tree/linux-rocky8-ivybridge/gcc-12.2.0/gaussian-09-D.01-wczn3gur5lpur3omlkzwa2l5ecyxp5ef/g09/l202.exe)
                          Input orientation:                          
 ---------------------------------------------------------------------
 Center     Atomic      Atomic             Coordinates (Angstroms)
 Number     Number       Type             X           Y           Z
 ---------------------------------------------------------------------
      1          6           0       50.135611   35.491958   32.741105
      2         17           0       50.332662   34.865732   34.324987
      3          9           0       48.479586   35.259459   32.369960
      4          9           0       50.994650   34.652052   31.568103
      5          9           0       50.437491   37.217799   32.719846
 ---------------------------------------------------------------------
                    Distance matrix (angstroms):
                    1          2          3          4          5
     1  C    0.000000
     2  Cl   1.714546   0.000000
     3  F    1.712958   2.722322   0.000000
     4  F    1.679084   2.843290   2.708775   0.000000
     5  F    1.752173   2.849506   2.791220   2.867053   0.000000
 Symmetry turned off by external request.
 Stoichiometry    CClF3
 Framework group  C1[X(CClF3)]
 Deg. of freedom     9
 Full point group                 C1      NOp   1
 Rotational constants (GHZ):      3.4253504      2.7405206      2.5995712
 Leave Link  202 at Thu Jun 13 11:39:57 2024, MaxMem=  1073741824 cpu:         0.0
 (Enter /apps/z_install_tree/linux-rocky8-ivybridge/gcc-12.2.0/gaussian-09-D.01-wczn3gur5lpur3omlkzwa2l5ecyxp5ef/g09/l301.exe)
 Basis read from rwf:  (5D, 7F)
 No pseudopotential information found on rwf file.
   143 basis functions,   227 primitive gaussians,   153 cartesian basis functions
    25 alpha electrons       25 beta electrons
       nuclear repulsion energy       214.2508743309 Hartrees.
 IExCor=  402 DFT=T Ex+Corr=B3LYP ExCW=0 ScaHFX=  0.200000
 ScaDFX=  0.800000  0.720000  1.000000  0.810000 ScalE2=  1.000000  1.000000
 IRadAn=      5 IRanWt=     -1 IRanGd=            0 ICorTp=0 IEmpDi=131
 NAtoms=    5 NActive=    5 NUniq=    5 SFac= 1.00D+00 NAtFMM=   60 NAOKFM=F Big=F
 Integral buffers will be    131072 words long.
 Raffenetti 2 integral format.
 Two-electron integral symmetry is turned off.
 R6Disp:  Grimme-D3 Dispersion energy=       -0.0023324051 Hartrees.
 Nuclear repulsion after empirical dispersion term =      214.2485419258 Hartrees.
 No density basis found on file   724.
 Leave Link  301 at Thu Jun 13 11:39:57 2024, MaxMem=  1073741824 cpu:         0.7
 (Enter /apps/z_install_tree/linux-rocky8-ivybridge/gcc-12.2.0/gaussian-09-D.01-wczn3gur5lpur3omlkzwa2l5ecyxp5ef/g09/l302.exe)
 NPDir=0 NMtPBC=     1 NCelOv=     1 NCel=       1 NClECP=     1 NCelD=      1
         NCelK=      1 NCelE2=     1 NClLst=     1 CellRange=     0.0.
 One-electron integrals computed using PRISM.
 NBasis=   143 RedAO= T EigKep=  9.11D-04  NBF=   143
 NBsUse=   143 1.00D-06 EigRej= -1.00D+00 NBFU=   143
 Precomputing XC quadrature grid using
 IXCGrd= 4 IRadAn=           5 IRanWt=          -1 IRanGd=           0 AccXCQ= 0.00D+00.
 Generated NRdTot=       0 NPtTot=           0 NUsed=           0 NTot=          32
 NSgBfM=   153   153   153   153   153 MxSgAt=     5 MxSgA2=     5.
 Leave Link  302 at Thu Jun 13 11:39:57 2024, MaxMem=  1073741824 cpu:         1.9
 (Enter /apps/z_install_tree/linux-rocky8-ivybridge/gcc-12.2.0/gaussian-09-D.01-wczn3gur5lpur3omlkzwa2l5ecyxp5ef/g09/l303.exe)
 DipDrv:  MaxL=1.
 Leave Link  303 at Thu Jun 13 11:39:57 2024, MaxMem=  1073741824 cpu:         0.3
 (Enter /apps/z_install_tree/linux-rocky8-ivybridge/gcc-12.2.0/gaussian-09-D.01-wczn3gur5lpur3omlkzwa2l5ecyxp5ef/g09/l401.exe)
 Initial guess from the checkpoint file:  "chlorotrifluoromethane.chk"
 B after Tr=    -0.023718   -0.014274    0.048720
         Rot=    1.000000   -0.000055   -0.000340   -0.000129 Ang=  -0.04 deg.
 Guess basis will be translated and rotated to current coordinates.
 JPrj=2 DoOrth=T DoCkMO=T.
 Generating alternative initial guess.
 ExpMin= 4.38D-02 ExpMax= 1.06D+05 ExpMxC= 3.62D+03 IAcc=2 IRadAn=         4 AccDes= 0.00D+00
 Harris functional with IExCor=  402 and IRadAn=       4 diagonalized for initial guess.
 HarFok:  IExCor=  402 AccDes= 0.00D+00 IRadAn=         4 IDoV= 1 UseB2=F ITyADJ=14
 ICtDFT=  3500011 ScaDFX=  1.000000  1.000000  1.000000  1.000000
 FoFCou: FMM=F IPFlag=           0 FMFlag=      100000 FMFlg1=           0
         NFxFlg=           0 DoJE=T BraDBF=F KetDBF=T FulRan=T
         wScrn=  0.000000 ICntrl=     500 IOpCl=  0 I1Cent=   200000004 NGrid=           0
         NMat0=    1 NMatS0=      1 NMatT0=    0 NMatD0=    1 NMtDS0=    0 NMtDT0=    0
 Symmetry not used in FoFCou.
 Harris En= -797.832559212858    
 Leave Link  401 at Thu Jun 13 11:39:57 2024, MaxMem=  1073741824 cpu:         2.9
 (Enter /apps/z_install_tree/linux-rocky8-ivybridge/gcc-12.2.0/gaussian-09-D.01-wczn3gur5lpur3omlkzwa2l5ecyxp5ef/g09/l502.exe)
 Closed shell SCF:
 Using DIIS extrapolation, IDIIS=  1040.
 Two-electron integral symmetry not used.
 Keep R1 ints in memory in canonical form, NReq=54920448.
 IVT=       85437 IEndB=       85437 NGot=  1073741824 MDV=  1020647432
 LenX=  1020647432 LenY=  1020623582
 Requested convergence on RMS density matrix=1.00D-08 within  96 cycles.
 Requested convergence on MAX density matrix=1.00D-06.
 Requested convergence on             energy=1.00D-06.
 No special actions if energy rises.
 FoFCou: FMM=F IPFlag=           0 FMFlag=           0 FMFlg1=           0
         NFxFlg=           0 DoJE=F BraDBF=F KetDBF=F FulRan=T
         wScrn=  0.000000 ICntrl=     600 IOpCl=  0 I1Cent=           0 NGrid=           0
         NMat0=    1 NMatS0=  10296 NMatT0=    0 NMatD0=    1 NMtDS0=    0 NMtDT0=    0
 Symmetry not used in FoFCou.

 Cycle   1  Pass 1  IDiag  1:
 E= -797.791886056178    
 DIIS: error= 4.04D-03 at cycle   1 NSaved=   1.
 NSaved= 1 IEnMin= 1 EnMin= -797.791886056178     IErMin= 1 ErrMin= 4.04D-03
 ErrMax= 4.04D-03  0.00D+00 EMaxC= 1.00D-01 BMatC= 2.59D-03 BMatP= 2.59D-03
 IDIUse=3 WtCom= 9.60D-01 WtEn= 4.04D-02
 Coeff-Com:  0.100D+01
 Coeff-En:   0.100D+01
 Coeff:      0.100D+01
 Gap=     0.669 Goal=   None    Shift=    0.000
 GapD=    0.669 DampG=2.000 DampE=1.000 DampFc=2.0000 IDamp=-1.
 RMSDP=5.00D-04 MaxDP=1.80D-02              OVMax= 3.23D-02

 Cycle   2  Pass 1  IDiag  1:
 E= -797.795297038802     Delta-E=       -0.003410982624 Rises=F Damp=F
 DIIS: error= 2.60D-03 at cycle   2 NSaved=   2.
 NSaved= 2 IEnMin= 2 EnMin= -797.795297038802     IErMin= 2 ErrMin= 2.60D-03
 ErrMax= 2.60D-03  0.00D+00 EMaxC= 1.00D-01 BMatC= 5.77D-04 BMatP= 2.59D-03
 IDIUse=3 WtCom= 9.74D-01 WtEn= 2.60D-02
 Coeff-Com:  0.199D+00 0.801D+00
 Coeff-En:   0.000D+00 0.100D+01
 Coeff:      0.194D+00 0.806D+00
 Gap=     0.214 Goal=   None    Shift=    0.000
 RMSDP=1.71D-04 MaxDP=4.70D-03 DE=-3.41D-03 OVMax= 1.16D-02

 Cycle   3  Pass 1  IDiag  1:
 E= -797.794609367775     Delta-E=        0.000687671027 Rises=F Damp=F
 DIIS: error= 3.78D-03 at cycle   3 NSaved=   3.
 NSaved= 3 IEnMin= 2 EnMin= -797.795297038802     IErMin= 2 ErrMin= 2.60D-03
 ErrMax= 3.78D-03  0.00D+00 EMaxC= 1.00D-01 BMatC= 1.55D-03 BMatP= 5.77D-04
 IDIUse=3 WtCom= 1.40D-01 WtEn= 8.60D-01
 Coeff-Com:  0.289D-02 0.623D+00 0.375D+00
 Coeff-En:   0.000D+00 0.692D+00 0.308D+00
 Coeff:      0.404D-03 0.682D+00 0.317D+00
 Gap=     0.215 Goal=   None    Shift=    0.000
 RMSDP=1.09D-04 MaxDP=5.10D-03 DE= 6.88D-04 OVMax= 7.40D-03

 Cycle   4  Pass 1  IDiag  1:
 E= -797.795648147164     Delta-E=       -0.001038779389 Rises=F Damp=F
 DIIS: error= 7.07D-04 at cycle   4 NSaved=   4.
 NSaved= 4 IEnMin= 4 EnMin= -797.795648147164     IErMin= 4 ErrMin= 7.07D-04
 ErrMax= 7.07D-04  0.00D+00 EMaxC= 1.00D-01 BMatC= 3.79D-05 BMatP= 5.77D-04
 IDIUse=3 WtCom= 9.93D-01 WtEn= 7.07D-03
 Coeff-Com: -0.174D-01 0.281D+00 0.848D-01 0.651D+00
 Coeff-En:   0.000D+00 0.000D+00 0.000D+00 0.100D+01
 Coeff:     -0.173D-01 0.279D+00 0.842D-01 0.654D+00
 Gap=     0.214 Goal=   None    Shift=    0.000
 RMSDP=2.12D-05 MaxDP=6.09D-04 DE=-1.04D-03 OVMax= 1.17D-03

 Cycle   5  Pass 1  IDiag  1:
 E= -797.795666535154     Delta-E=       -0.000018387990 Rises=F Damp=F
 DIIS: error= 1.39D-04 at cycle   5 NSaved=   5.
 NSaved= 5 IEnMin= 5 EnMin= -797.795666535154     IErMin= 5 ErrMin= 1.39D-04
 ErrMax= 1.39D-04  0.00D+00 EMaxC= 1.00D-01 BMatC= 3.01D-06 BMatP= 3.79D-05
 IDIUse=3 WtCom= 9.99D-01 WtEn= 1.39D-03
 Coeff-Com: -0.797D-02 0.100D+00 0.999D-02 0.371D+00 0.527D+00
 Coeff-En:   0.000D+00 0.000D+00 0.000D+00 0.000D+00 0.100D+01
 Coeff:     -0.796D-02 0.100D+00 0.998D-02 0.371D+00 0.527D+00
 Gap=     0.214 Goal=   None    Shift=    0.000
 RMSDP=1.08D-05 MaxDP=2.48D-04 DE=-1.84D-05 OVMax= 5.23D-04

 Cycle   6  Pass 1  IDiag  1:
 E= -797.795668592693     Delta-E=       -0.000002057538 Rises=F Damp=F
 DIIS: error= 8.32D-05 at cycle   6 NSaved=   6.
 NSaved= 6 IEnMin= 6 EnMin= -797.795668592693     IErMin= 6 ErrMin= 8.32D-05
 ErrMax= 8.32D-05  0.00D+00 EMaxC= 1.00D-01 BMatC= 9.39D-07 BMatP= 3.01D-06
 IDIUse=1 WtCom= 1.00D+00 WtEn= 0.00D+00
 Coeff-Com: -0.186D-02 0.149D-01-0.101D-01 0.116D+00 0.375D+00 0.506D+00
 Coeff:     -0.186D-02 0.149D-01-0.101D-01 0.116D+00 0.375D+00 0.506D+00
 Gap=     0.214 Goal=   None    Shift=    0.000
 RMSDP=4.10D-06 MaxDP=8.85D-05 DE=-2.06D-06 OVMax= 2.42D-04

 Cycle   7  Pass 1  IDiag  1:
 E= -797.795669149473     Delta-E=       -0.000000556780 Rises=F Damp=F
 DIIS: error= 3.03D-05 at cycle   7 NSaved=   7.
 NSaved= 7 IEnMin= 7 EnMin= -797.795669149473     IErMin= 7 ErrMin= 3.03D-05
 ErrMax= 3.03D-05  0.00D+00 EMaxC= 1.00D-01 BMatC= 1.34D-07 BMatP= 9.39D-07
 IDIUse=1 WtCom= 1.00D+00 WtEn= 0.00D+00
 Coeff-Com: -0.652D-03 0.626D-03-0.679D-02 0.364D-01 0.201D+00 0.343D+00
 Coeff-Com:  0.427D+00
 Coeff:     -0.652D-03 0.626D-03-0.679D-02 0.364D-01 0.201D+00 0.343D+00
 Coeff:      0.427D+00
 Gap=     0.214 Goal=   None    Shift=    0.000
 RMSDP=1.91D-06 MaxDP=4.69D-05 DE=-5.57D-07 OVMax= 9.36D-05

 Cycle   8  Pass 1  IDiag  1:
 E= -797.795669266136     Delta-E=       -0.000000116663 Rises=F Damp=F
 DIIS: error= 3.20D-06 at cycle   8 NSaved=   8.
 NSaved= 8 IEnMin= 8 EnMin= -797.795669266136     IErMin= 8 ErrMin= 3.20D-06
 ErrMax= 3.20D-06  0.00D+00 EMaxC= 1.00D-01 BMatC= 3.65D-09 BMatP= 1.34D-07
 IDIUse=1 WtCom= 1.00D+00 WtEn= 0.00D+00
 Coeff-Com:  0.877D-04-0.275D-02-0.120D-02-0.472D-02 0.340D-01 0.661D-01
 Coeff-Com:  0.163D+00 0.745D+00
 Coeff:      0.877D-04-0.275D-02-0.120D-02-0.472D-02 0.340D-01 0.661D-01
 Coeff:      0.163D+00 0.745D+00
 Gap=     0.214 Goal=   None    Shift=    0.000
 RMSDP=3.69D-07 MaxDP=1.47D-05 DE=-1.17D-07 OVMax= 1.78D-05

 Cycle   9  Pass 1  IDiag  1:
 E= -797.795669268902     Delta-E=       -0.000000002766 Rises=F Damp=F
 DIIS: error= 2.36D-06 at cycle   9 NSaved=   9.
 NSaved= 9 IEnMin= 9 EnMin= -797.795669268902     IErMin= 9 ErrMin= 2.36D-06
 ErrMax= 2.36D-06  0.00D+00 EMaxC= 1.00D-01 BMatC= 4.62D-10 BMatP= 3.65D-09
 IDIUse=1 WtCom= 1.00D+00 WtEn= 0.00D+00
 Coeff-Com:  0.688D-04-0.160D-02-0.379D-03-0.417D-02 0.104D-01 0.223D-01
 Coeff-Com:  0.726D-01 0.404D+00 0.497D+00
 Coeff:      0.688D-04-0.160D-02-0.379D-03-0.417D-02 0.104D-01 0.223D-01
 Coeff:      0.726D-01 0.404D+00 0.497D+00
 Gap=     0.214 Goal=   None    Shift=    0.000
 RMSDP=1.17D-07 MaxDP=2.98D-06 DE=-2.77D-09 OVMax= 7.66D-06

 Cycle  10  Pass 1  IDiag  1:
 E= -797.795669269103     Delta-E=       -0.000000000201 Rises=F Damp=F
 DIIS: error= 1.62D-06 at cycle  10 NSaved=  10.
 NSaved=10 IEnMin=10 EnMin= -797.795669269103     IErMin=10 ErrMin= 1.62D-06
 ErrMax= 1.62D-06  0.00D+00 EMaxC= 1.00D-01 BMatC= 2.05D-10 BMatP= 4.62D-10
 IDIUse=1 WtCom= 1.00D+00 WtEn= 0.00D+00
 Coeff-Com:  0.282D-04-0.402D-03 0.101D-03-0.191D-02-0.329D-02-0.440D-02
 Coeff-Com:  0.483D-02 0.791D-01 0.401D+00 0.525D+00
 Coeff:      0.282D-04-0.402D-03 0.101D-03-0.191D-02-0.329D-02-0.440D-02
 Coeff:      0.483D-02 0.791D-01 0.401D+00 0.525D+00
 Gap=     0.214 Goal=   None    Shift=    0.000
 RMSDP=5.84D-08 MaxDP=1.26D-06 DE=-2.01D-10 OVMax= 4.53D-06

 Cycle  11  Pass 1  IDiag  1:
 E= -797.795669269242     Delta-E=       -0.000000000138 Rises=F Damp=F
 DIIS: error= 1.59D-07 at cycle  11 NSaved=  11.
 NSaved=11 IEnMin=11 EnMin= -797.795669269242     IErMin=11 ErrMin= 1.59D-07
 ErrMax= 1.59D-07  0.00D+00 EMaxC= 1.00D-01 BMatC= 3.32D-12 BMatP= 2.05D-10
 IDIUse=1 WtCom= 1.00D+00 WtEn= 0.00D+00
 Coeff-Com:  0.155D-05 0.732D-04 0.511D-04 0.304D-04-0.195D-02-0.327D-02
 Coeff-Com: -0.579D-02-0.224D-01 0.624D-01 0.150D+00 0.821D+00
 Coeff:      0.155D-05 0.732D-04 0.511D-04 0.304D-04-0.195D-02-0.327D-02
 Coeff:     -0.579D-02-0.224D-01 0.624D-01 0.150D+00 0.821D+00
 Gap=     0.214 Goal=   None    Shift=    0.000
 RMSDP=1.40D-08 MaxDP=2.89D-07 DE=-1.38D-10 OVMax= 9.24D-07

 Cycle  12  Pass 1  IDiag  1:
 E= -797.795669269252     Delta-E=       -0.000000000010 Rises=F Damp=F
 DIIS: error= 2.78D-08 at cycle  12 NSaved=  12.
 NSaved=12 IEnMin=12 EnMin= -797.795669269252     IErMin=12 ErrMin= 2.78D-08
 ErrMax= 2.78D-08  0.00D+00 EMaxC= 1.00D-01 BMatC= 1.07D-13 BMatP= 3.32D-12
 IDIUse=1 WtCom= 1.00D+00 WtEn= 0.00D+00
 Coeff-Com: -0.665D-06 0.244D-04-0.495D-06 0.902D-04-0.172D-03-0.304D-03
 Coeff-Com: -0.958D-03-0.629D-02-0.641D-02 0.662D-02 0.191D+00 0.817D+00
 Coeff:     -0.665D-06 0.244D-04-0.495D-06 0.902D-04-0.172D-03-0.304D-03
 Coeff:     -0.958D-03-0.629D-02-0.641D-02 0.662D-02 0.191D+00 0.817D+00
 Gap=     0.214 Goal=   None    Shift=    0.000
 RMSDP=2.63D-09 MaxDP=6.14D-08 DE=-1.01D-11 OVMax= 1.64D-07

 SCF Done:  E(RB3LYP) =  -797.795669269     A.U. after   12 cycles
            NFock= 12  Conv=0.26D-08     -V/T= 2.0040
 KE= 7.946311347240D+02 PE=-2.324684058149D+03 EE= 5.180087122301D+02
 Leave Link  502 at Thu Jun 13 11:40:00 2024, MaxMem=  1073741824 cpu:        33.0
 (Enter /apps/z_install_tree/linux-rocky8-ivybridge/gcc-12.2.0/gaussian-09-D.01-wczn3gur5lpur3omlkzwa2l5ecyxp5ef/g09/l508.exe)
 QCSCF skips out because SCF is already converged.
 Leave Link  508 at Thu Jun 13 11:40:00 2024, MaxMem=  1073741824 cpu:         0.0
 (Enter /apps/z_install_tree/linux-rocky8-ivybridge/gcc-12.2.0/gaussian-09-D.01-wczn3gur5lpur3omlkzwa2l5ecyxp5ef/g09/l701.exe)
 Compute integral first derivatives.
 ... and contract with generalized density number  0.
 R6Disp: Adding Grimme-D3 dispersion energy 1st derivatives to the gradient.
 Leave Link  701 at Thu Jun 13 11:40:00 2024, MaxMem=  1073741824 cpu:         1.6
 (Enter /apps/z_install_tree/linux-rocky8-ivybridge/gcc-12.2.0/gaussian-09-D.01-wczn3gur5lpur3omlkzwa2l5ecyxp5ef/g09/l702.exe)
 L702 exits ... SP integral derivatives will be done elsewhere.
 Leave Link  702 at Thu Jun 13 11:40:00 2024, MaxMem=  1073741824 cpu:         0.2
 (Enter /apps/z_install_tree/linux-rocky8-ivybridge/gcc-12.2.0/gaussian-09-D.01-wczn3gur5lpur3omlkzwa2l5ecyxp5ef/g09/l703.exe)
 Compute integral first derivatives, UseDBF=F ICtDFT=           0.
 Integral derivatives from FoFJK, PRISM(SPDF).
 Calling FoFJK, ICntrl=      2127 FMM=F ISym2X=0 I1Cent= 0 IOpClX= 0 NMat=1 NMatS=1 NMatT=0.
 FoFJK:  IHMeth= 1 ICntrl=    2127 DoSepK=F KAlg= 0 I1Cent=   0 FoldK=F
 IRaf=         0 NMat=   1 IRICut=       1 DoRegI=T DoRafI=F ISym2E= 0.
 FoFCou: FMM=F IPFlag=           0 FMFlag=      100000 FMFlg1=         800
         NFxFlg=           0 DoJE=F BraDBF=F KetDBF=F FulRan=T
         wScrn=  0.000000 ICntrl=    2127 IOpCl=  0 I1Cent=           0 NGrid=           0
         NMat0=    1 NMatS0=      1 NMatT0=    0 NMatD0=    1 NMtDS0=    0 NMtDT0=    0
 Symmetry not used in FoFCou.
 Leave Link  703 at Thu Jun 13 11:40:01 2024, MaxMem=  1073741824 cpu:         9.1
 (Enter /apps/z_install_tree/linux-rocky8-ivybridge/gcc-12.2.0/gaussian-09-D.01-wczn3gur5lpur3omlkzwa2l5ecyxp5ef/g09/l716.exe)
 Dipole        = 3.02081490D-01-5.11564773D-01 1.08816737D+00
 -------------------------------------------------------------------
 Center     Atomic                   Forces (Hartrees/Bohr)
 Number     Number              X              Y              Z
 -------------------------------------------------------------------
      1        6          -0.033849907    0.010473082   -0.050412325
      2       17           0.004403187    0.013377697   -0.031556997
      3        9           0.102401185    0.019780059    0.012918914
      4        9          -0.056223940    0.062940910    0.075473550
      5        9          -0.016730525   -0.106571747   -0.006423142
 -------------------------------------------------------------------
 Cartesian Forces:  Max     0.106571747 RMS     0.051982626
 Leave Link  716 at Thu Jun 13 11:40:01 2024, MaxMem=  1073741824 cpu:         0.3
 (Enter /apps/z_install_tree/linux-rocky8-ivybridge/gcc-12.2.0/gaussian-09-D.01-wczn3gur5lpur3omlkzwa2l5ecyxp5ef/g09/l103.exe)

 GradGradGradGradGradGradGradGradGradGradGradGradGradGradGradGradGradGrad
 Berny optimization.
 Using GEDIIS/GDIIS optimizer.
 FormGI is forming the generalized inverse of G from B-inverse, IUseBI=4.
 Internal  Forces:  Max     0.112974435 RMS     0.051436463
 Search for a local minimum.
 Step number   2 out of a maximum of   24
 All quantities printed in internal units (Hartrees-Bohrs-Radians)
 RMS Force = .51436D-01 SwitMx=.10000D-02 MixMth= 1
 Mixed Optimization -- RFO/linear search
 Update second derivatives using D2CorX and points    1    2
 DE= -5.77D-02 DEPred=-5.06D-02 R= 1.14D+00
 TightC=F SS=  1.41D+00  RLast= 3.02D-01 DXNew= 5.0454D-01 9.0575D-01
 Trust test= 1.14D+00 RLast= 3.02D-01 DXMaxT set to 5.05D-01
 The second derivative matrix:
                          R1        R2        R3        R4        A1
           R1           0.02114
           R2           0.01260   0.09289
           R3           0.01787  -0.05262   0.09103
           R4           0.05335  -0.05055  -0.05760   0.06492
           A1           0.00110   0.00839   0.00944   0.00865   0.24845
           A2          -0.01051   0.00281   0.00330   0.00439  -0.00039
           A3          -0.01327   0.00495   0.00575   0.00701  -0.00075
           A4          -0.00435   0.00024   0.00032   0.00085   0.00001
           A5           0.00900  -0.00438  -0.00504  -0.00582   0.00070
           A6           0.02387  -0.01183  -0.01363  -0.01568   0.00189
           D1          -0.01530   0.00233   0.00282   0.00454  -0.00025
           D2           0.00689  -0.00110  -0.00132  -0.00209   0.00012
           D3          -0.00401   0.00056   0.00068   0.00114  -0.00006
           D4          -0.01090   0.00166   0.00200   0.00323  -0.00018
                          A2        A3        A4        A5        A6
           A2           0.24950
           A3          -0.00070   0.24898
           A4          -0.00016  -0.00020   0.24994
           A5           0.00053   0.00079   0.00014   0.24938
           A6           0.00141   0.00211   0.00037  -0.00167   0.24552
           D1          -0.00063  -0.00085  -0.00023   0.00061   0.00164
           D2           0.00029   0.00039   0.00010  -0.00028  -0.00075
           D3          -0.00016  -0.00022  -0.00006   0.00016   0.00042
           D4          -0.00045  -0.00061  -0.00016   0.00044   0.00117
                          D1        D2        D3        D4
           D1           0.00144
           D2           0.00039   0.00212
           D3          -0.00022   0.00010   0.00224
           D4          -0.00061   0.00028  -0.00016   0.00186
 ITU=  1  0
 Use linear search instead of GDIIS.
     Eigenvalues ---   -0.06874   0.04576   0.07064   0.08828   0.13593
     Eigenvalues ---    0.14532   0.14718   0.24987   0.25004
 Eigenvalue     1 is  -6.87D-02 should be greater than     0.000000 Eigenvector:
                          R4        R1        R3        R2        A6
   1                   -0.57356   0.55752  -0.41405  -0.37571  -0.11205
                          D1        D4        D2        A1        A3
   1                    0.10156   0.08976  -0.07117   0.06057   0.05243
 RFO step:  Lambda=-2.06312754D-01 EMin=-6.87445324D-02
 Skip linear search -- no minimum in search direction.
 Maximum step size (   0.505) exceeded in Quadratic search.
    -- Step size scaled by   0.446
 Iteration  1 RMS(Cart)=  0.09829725 RMS(Int)=  0.04136047
 Iteration  2 RMS(Cart)=  0.03925740 RMS(Int)=  0.00034214
 Iteration  3 RMS(Cart)=  0.00004577 RMS(Int)=  0.00034006
 Iteration  4 RMS(Cart)=  0.00000003 RMS(Int)=  0.00034006
 ITry= 1 IFail=0 DXMaxC= 2.97D-01 DCOld= 1.00D+10 DXMaxT= 5.05D-01 DXLimC= 3.00D+00 Rises=F
 Variable       Old X    -DE/DX   Delta X   Delta X   Delta X     New X
                                 (Linear)    (Quad)   (Total)
    R1        3.24002  -0.03353   0.00000   0.05918   0.05918   3.29920
    R2        3.23702  -0.10448   0.00000  -0.26617  -0.26617   2.97085
    R3        3.17301  -0.11297   0.00000  -0.28617  -0.28617   2.88684
    R4        3.31113  -0.10777   0.00000  -0.30800  -0.30800   3.00312
    A1        1.83557   0.00777   0.00000   0.02599   0.02596   1.86153
    A2        1.98653   0.00270   0.00000   0.01305   0.01317   1.99970
    A3        1.92961   0.00645   0.00000   0.01994   0.02006   1.94967
    A4        1.84975   0.00187   0.00000   0.00380   0.00286   1.85261
    A5        1.87300  -0.00467   0.00000  -0.01687  -0.01726   1.85574
    A6        1.97804  -0.01321   0.00000  -0.04328  -0.04356   1.93448
    D1        2.00866   0.01199   0.00000   0.04068   0.04075   2.04940
    D2       -1.99290  -0.00991   0.00000  -0.03163  -0.03139  -2.02429
    D3        2.25431  -0.00176   0.00000  -0.00105  -0.00137   2.25295
    D4       -2.03598   0.00815   0.00000   0.03058   0.03002  -2.00595
         Item               Value     Threshold  Converged?
 Maximum Force            0.112974     0.000450     NO 
 RMS     Force            0.051436     0.000300     NO 
 Maximum Displacement     0.297423     0.001800     NO 
 RMS     Displacement     0.135426     0.001200     NO 
 Predicted change in Energy=-9.889444D-02
 Lowest energy point so far.  Saving SCF results.
 GradGradGradGradGradGradGradGradGradGradGradGradGradGradGradGradGradGrad

 Leave Link  103 at Thu Jun 13 11:40:01 2024, MaxMem=  1073741824 cpu:         0.8
 (Enter /apps/z_install_tree/linux-rocky8-ivybridge/gcc-12.2.0/gaussian-09-D.01-wczn3gur5lpur3omlkzwa2l5ecyxp5ef/g09/l202.exe)
                          Input orientation:                          
 ---------------------------------------------------------------------
 Center     Atomic      Atomic             Coordinates (Angstroms)
 Number     Number       Type             X           Y           Z
 ---------------------------------------------------------------------
      1          6           0       50.122780   35.496796   32.722664
      2         17           0       50.338606   34.859692   34.333738
      3          9           0       48.604708   35.305008   32.361834
      4          9           0       50.912753   34.765095   31.639027
      5          9           0       50.401153   37.060410   32.666736
 ---------------------------------------------------------------------
                    Distance matrix (angstroms):
                    1          2          3          4          5
     1  C    0.000000
     2  Cl   1.745864   0.000000
     3  F    1.572108   2.663290   0.000000
     4  F    1.527650   2.756821   2.478110   0.000000
     5  F    1.589184   2.761515   2.530142   2.566396   0.000000
 Symmetry turned off by external request.
 Stoichiometry    CClF3
 Framework group  C1[X(CClF3)]
 Deg. of freedom     9
 Full point group                 C1      NOp   1
 Rotational constants (GHZ):      4.1782068      2.8978819      2.8158639
 Leave Link  202 at Thu Jun 13 11:40:01 2024, MaxMem=  1073741824 cpu:         0.1
 (Enter /apps/z_install_tree/linux-rocky8-ivybridge/gcc-12.2.0/gaussian-09-D.01-wczn3gur5lpur3omlkzwa2l5ecyxp5ef/g09/l301.exe)
 Basis read from rwf:  (5D, 7F)
 No pseudopotential information found on rwf file.
   143 basis functions,   227 primitive gaussians,   153 cartesian basis functions
    25 alpha electrons       25 beta electrons
       nuclear repulsion energy       225.8070540189 Hartrees.
 IExCor=  402 DFT=T Ex+Corr=B3LYP ExCW=0 ScaHFX=  0.200000
 ScaDFX=  0.800000  0.720000  1.000000  0.810000 ScalE2=  1.000000  1.000000
 IRadAn=      5 IRanWt=     -1 IRanGd=            0 ICorTp=0 IEmpDi=131
 NAtoms=    5 NActive=    5 NUniq=    5 SFac= 1.00D+00 NAtFMM=   60 NAOKFM=F Big=F
 Integral buffers will be    131072 words long.
 Raffenetti 2 integral format.
 Two-electron integral symmetry is turned off.
 R6Disp:  Grimme-D3 Dispersion energy=       -0.0022268208 Hartrees.
 Nuclear repulsion after empirical dispersion term =      225.8048271981 Hartrees.
 No density basis found on file   724.
 Leave Link  301 at Thu Jun 13 11:40:01 2024, MaxMem=  1073741824 cpu:         0.7
 (Enter /apps/z_install_tree/linux-rocky8-ivybridge/gcc-12.2.0/gaussian-09-D.01-wczn3gur5lpur3omlkzwa2l5ecyxp5ef/g09/l302.exe)
 NPDir=0 NMtPBC=     1 NCelOv=     1 NCel=       1 NClECP=     1 NCelD=      1
         NCelK=      1 NCelE2=     1 NClLst=     1 CellRange=     0.0.
 One-electron integrals computed using PRISM.
 NBasis=   143 RedAO= T EigKep=  9.82D-04  NBF=   143
 NBsUse=   143 1.00D-06 EigRej= -1.00D+00 NBFU=   143
 Precomputing XC quadrature grid using
 IXCGrd= 4 IRadAn=           5 IRanWt=          -1 IRanGd=           0 AccXCQ= 0.00D+00.
 Generated NRdTot=       0 NPtTot=           0 NUsed=           0 NTot=          32
 NSgBfM=   153   153   153   153   153 MxSgAt=     5 MxSgA2=     5.
 Leave Link  302 at Thu Jun 13 11:40:01 2024, MaxMem=  1073741824 cpu:         1.9
 (Enter /apps/z_install_tree/linux-rocky8-ivybridge/gcc-12.2.0/gaussian-09-D.01-wczn3gur5lpur3omlkzwa2l5ecyxp5ef/g09/l303.exe)
 DipDrv:  MaxL=1.
 Leave Link  303 at Thu Jun 13 11:40:01 2024, MaxMem=  1073741824 cpu:         0.3
 (Enter /apps/z_install_tree/linux-rocky8-ivybridge/gcc-12.2.0/gaussian-09-D.01-wczn3gur5lpur3omlkzwa2l5ecyxp5ef/g09/l401.exe)
 Initial guess from the checkpoint file:  "chlorotrifluoromethane.chk"
 B after Tr=    -0.015785    0.014671    0.015369
         Rot=    1.000000   -0.000206   -0.000201   -0.000045 Ang=  -0.03 deg.
 Guess basis will be translated and rotated to current coordinates.
 JPrj=2 DoOrth=T DoCkMO=T.
 Generating alternative initial guess.
 ExpMin= 4.38D-02 ExpMax= 1.06D+05 ExpMxC= 3.62D+03 IAcc=2 IRadAn=         4 AccDes= 0.00D+00
 Harris functional with IExCor=  402 and IRadAn=       4 diagonalized for initial guess.
 HarFok:  IExCor=  402 AccDes= 0.00D+00 IRadAn=         4 IDoV= 1 UseB2=F ITyADJ=14
 ICtDFT=  3500011 ScaDFX=  1.000000  1.000000  1.000000  1.000000
 FoFCou: FMM=F IPFlag=           0 FMFlag=      100000 FMFlg1=           0
         NFxFlg=           0 DoJE=T BraDBF=F KetDBF=T FulRan=T
         wScrn=  0.000000 ICntrl=     500 IOpCl=  0 I1Cent=   200000004 NGrid=           0
         NMat0=    1 NMatS0=      1 NMatT0=    0 NMatD0=    1 NMtDS0=    0 NMtDT0=    0
 Symmetry not used in FoFCou.
 Harris En= -797.883623047932    
 Leave Link  401 at Thu Jun 13 11:40:01 2024, MaxMem=  1073741824 cpu:         2.8
 (Enter /apps/z_install_tree/linux-rocky8-ivybridge/gcc-12.2.0/gaussian-09-D.01-wczn3gur5lpur3omlkzwa2l5ecyxp5ef/g09/l502.exe)
 Closed shell SCF:
 Using DIIS extrapolation, IDIIS=  1040.
 Two-electron integral symmetry not used.
 Keep R1 ints in memory in canonical form, NReq=54920448.
 IVT=       85437 IEndB=       85437 NGot=  1073741824 MDV=  1020647432
 LenX=  1020647432 LenY=  1020623582
 Requested convergence on RMS density matrix=1.00D-08 within  96 cycles.
 Requested convergence on MAX density matrix=1.00D-06.
 Requested convergence on             energy=1.00D-06.
 No special actions if energy rises.
 FoFCou: FMM=F IPFlag=           0 FMFlag=           0 FMFlg1=           0
         NFxFlg=           0 DoJE=F BraDBF=F KetDBF=F FulRan=T
         wScrn=  0.000000 ICntrl=     600 IOpCl=  0 I1Cent=           0 NGrid=           0
         NMat0=    1 NMatS0=  10296 NMatT0=    0 NMatD0=    1 NMtDS0=    0 NMtDT0=    0
 Symmetry not used in FoFCou.

 Cycle   1  Pass 1  IDiag  1:
 E= -797.871754142904    
 DIIS: error= 7.24D-03 at cycle   1 NSaved=   1.
 NSaved= 1 IEnMin= 1 EnMin= -797.871754142904     IErMin= 1 ErrMin= 7.24D-03
 ErrMax= 7.24D-03  0.00D+00 EMaxC= 1.00D-01 BMatC= 1.23D-02 BMatP= 1.23D-02
 IDIUse=3 WtCom= 9.28D-01 WtEn= 7.24D-02
 Coeff-Com:  0.100D+01
 Coeff-En:   0.100D+01
 Coeff:      0.100D+01
 Gap=     0.666 Goal=   None    Shift=    0.000
 GapD=    0.666 DampG=2.000 DampE=1.000 DampFc=2.0000 IDamp=-1.
 RMSDP=1.08D-03 MaxDP=3.23D-02              OVMax= 5.25D-02

 Cycle   2  Pass 1  IDiag  1:
 E= -797.887058392100     Delta-E=       -0.015304249196 Rises=F Damp=F
 DIIS: error= 4.17D-03 at cycle   2 NSaved=   2.
 NSaved= 2 IEnMin= 2 EnMin= -797.887058392100     IErMin= 2 ErrMin= 4.17D-03
 ErrMax= 4.17D-03  0.00D+00 EMaxC= 1.00D-01 BMatC= 1.55D-03 BMatP= 1.23D-02
 IDIUse=3 WtCom= 9.58D-01 WtEn= 4.17D-02
 Coeff-Com:  0.122D+00 0.878D+00
 Coeff-En:   0.000D+00 0.100D+01
 Coeff:      0.117D+00 0.883D+00
 Gap=     0.281 Goal=   None    Shift=    0.000
 RMSDP=2.97D-04 MaxDP=9.60D-03 DE=-1.53D-02 OVMax= 1.68D-02

 Cycle   3  Pass 1  IDiag  1:
 E= -797.885714792352     Delta-E=        0.001343599748 Rises=F Damp=F
 DIIS: error= 5.83D-03 at cycle   3 NSaved=   3.
 NSaved= 3 IEnMin= 2 EnMin= -797.887058392100     IErMin= 2 ErrMin= 4.17D-03
 ErrMax= 5.83D-03  0.00D+00 EMaxC= 1.00D-01 BMatC= 3.59D-03 BMatP= 1.55D-03
 IDIUse=3 WtCom= 1.16D-01 WtEn= 8.84D-01
 Coeff-Com:  0.312D-03 0.607D+00 0.393D+00
 Coeff-En:   0.000D+00 0.668D+00 0.332D+00
 Coeff:      0.361D-04 0.661D+00 0.339D+00
 Gap=     0.283 Goal=   None    Shift=    0.000
 RMSDP=1.68D-04 MaxDP=8.52D-03 DE= 1.34D-03 OVMax= 1.12D-02

 Cycle   4  Pass 1  IDiag  1:
 E= -797.888078262783     Delta-E=       -0.002363470432 Rises=F Damp=F
 DIIS: error= 6.55D-04 at cycle   4 NSaved=   4.
 NSaved= 4 IEnMin= 4 EnMin= -797.888078262783     IErMin= 4 ErrMin= 6.55D-04
 ErrMax= 6.55D-04  0.00D+00 EMaxC= 1.00D-01 BMatC= 4.46D-05 BMatP= 1.55D-03
 IDIUse=3 WtCom= 9.93D-01 WtEn= 6.55D-03
 Coeff-Com: -0.136D-01 0.207D+00 0.757D-01 0.730D+00
 Coeff-En:   0.000D+00 0.000D+00 0.000D+00 0.100D+01
 Coeff:     -0.135D-01 0.206D+00 0.752D-01 0.732D+00
 Gap=     0.283 Goal=   None    Shift=    0.000
 RMSDP=3.17D-05 MaxDP=9.30D-04 DE=-2.36D-03 OVMax= 1.28D-03

 Cycle   5  Pass 1  IDiag  1:
 E= -797.888104520336     Delta-E=       -0.000026257552 Rises=F Damp=F
 DIIS: error= 1.03D-04 at cycle   5 NSaved=   5.
 NSaved= 5 IEnMin= 5 EnMin= -797.888104520336     IErMin= 5 ErrMin= 1.03D-04
 ErrMax= 1.03D-04  0.00D+00 EMaxC= 1.00D-01 BMatC= 2.09D-06 BMatP= 4.46D-05
 IDIUse=3 WtCom= 9.99D-01 WtEn= 1.03D-03
 Coeff-Com: -0.439D-02 0.484D-01 0.817D-02 0.258D+00 0.690D+00
 Coeff-En:   0.000D+00 0.000D+00 0.000D+00 0.000D+00 0.100D+01
 Coeff:     -0.438D-02 0.483D-01 0.816D-02 0.257D+00 0.690D+00
 Gap=     0.283 Goal=   None    Shift=    0.000
 RMSDP=9.43D-06 MaxDP=2.07D-04 DE=-2.63D-05 OVMax= 5.16D-04

 Cycle   6  Pass 1  IDiag  1:
 E= -797.888104963976     Delta-E=       -0.000000443640 Rises=F Damp=F
 DIIS: error= 1.11D-04 at cycle   6 NSaved=   6.
 NSaved= 6 IEnMin= 6 EnMin= -797.888104963976     IErMin= 5 ErrMin= 1.03D-04
 ErrMax= 1.11D-04  0.00D+00 EMaxC= 1.00D-01 BMatC= 1.72D-06 BMatP= 2.09D-06
 IDIUse=3 WtCom= 9.99D-01 WtEn= 1.03D-03
 Coeff-Com: -0.104D-02 0.531D-02-0.455D-02 0.760D-01 0.486D+00 0.438D+00
 Coeff-En:   0.000D+00 0.000D+00 0.000D+00 0.000D+00 0.423D+00 0.577D+00
 Coeff:     -0.104D-02 0.530D-02-0.455D-02 0.759D-01 0.486D+00 0.438D+00
 Gap=     0.283 Goal=   None    Shift=    0.000
 RMSDP=4.56D-06 MaxDP=9.90D-05 DE=-4.44D-07 OVMax= 2.71D-04

 Cycle   7  Pass 1  IDiag  1:
 E= -797.888106024659     Delta-E=       -0.000001060683 Rises=F Damp=F
 DIIS: error= 1.09D-05 at cycle   7 NSaved=   7.
 NSaved= 7 IEnMin= 7 EnMin= -797.888106024659     IErMin= 7 ErrMin= 1.09D-05
 ErrMax= 1.09D-05  0.00D+00 EMaxC= 1.00D-01 BMatC= 2.90D-08 BMatP= 1.72D-06
 IDIUse=1 WtCom= 1.00D+00 WtEn= 0.00D+00
 Coeff-Com:  0.111D-03-0.368D-02-0.188D-02-0.443D-02 0.939D-01 0.157D+00
 Coeff-Com:  0.759D+00
 Coeff:      0.111D-03-0.368D-02-0.188D-02-0.443D-02 0.939D-01 0.157D+00
 Coeff:      0.759D+00
 Gap=     0.283 Goal=   None    Shift=    0.000
 RMSDP=9.75D-07 MaxDP=3.85D-05 DE=-1.06D-06 OVMax= 4.17D-05

 Cycle   8  Pass 1  IDiag  1:
 E= -797.888106043715     Delta-E=       -0.000000019056 Rises=F Damp=F
 DIIS: error= 3.09D-06 at cycle   8 NSaved=   8.
 NSaved= 8 IEnMin= 8 EnMin= -797.888106043715     IErMin= 8 ErrMin= 3.09D-06
 ErrMax= 3.09D-06  0.00D+00 EMaxC= 1.00D-01 BMatC= 2.15D-09 BMatP= 2.90D-08
 IDIUse=1 WtCom= 1.00D+00 WtEn= 0.00D+00
 Coeff-Com:  0.582D-04-0.177D-02-0.627D-03-0.493D-02 0.270D-01 0.605D-01
 Coeff-Com:  0.372D+00 0.548D+00
 Coeff:      0.582D-04-0.177D-02-0.627D-03-0.493D-02 0.270D-01 0.605D-01
 Coeff:      0.372D+00 0.548D+00
 Gap=     0.283 Goal=   None    Shift=    0.000
 RMSDP=3.09D-07 MaxDP=8.96D-06 DE=-1.91D-08 OVMax= 1.39D-05

 Cycle   9  Pass 1  IDiag  1:
 E= -797.888106045264     Delta-E=       -0.000000001549 Rises=F Damp=F
 DIIS: error= 1.68D-06 at cycle   9 NSaved=   9.
 NSaved= 9 IEnMin= 9 EnMin= -797.888106045264     IErMin= 9 ErrMin= 1.68D-06
 ErrMax= 1.68D-06  0.00D+00 EMaxC= 1.00D-01 BMatC= 4.22D-10 BMatP= 2.15D-09
 IDIUse=1 WtCom= 1.00D+00 WtEn= 0.00D+00
 Coeff-Com:  0.228D-04-0.446D-03-0.104D-03-0.200D-02-0.618D-03 0.767D-02
 Coeff-Com:  0.832D-01 0.326D+00 0.586D+00
 Coeff:      0.228D-04-0.446D-03-0.104D-03-0.200D-02-0.618D-03 0.767D-02
 Coeff:      0.832D-01 0.326D+00 0.586D+00
 Gap=     0.283 Goal=   None    Shift=    0.000
 RMSDP=8.85D-08 MaxDP=2.22D-06 DE=-1.55D-09 OVMax= 4.44D-06

 Cycle  10  Pass 1  IDiag  1:
 E= -797.888106045545     Delta-E=       -0.000000000281 Rises=F Damp=F
 DIIS: error= 6.59D-07 at cycle  10 NSaved=  10.
 NSaved=10 IEnMin=10 EnMin= -797.888106045545     IErMin=10 ErrMin= 6.59D-07
 ErrMax= 6.59D-07  0.00D+00 EMaxC= 1.00D-01 BMatC= 5.20D-11 BMatP= 4.22D-10
 IDIUse=1 WtCom= 1.00D+00 WtEn= 0.00D+00
 Coeff-Com:  0.106D-04-0.111D-03-0.189D-04-0.642D-03-0.245D-02-0.101D-02
 Coeff-Com:  0.121D-01 0.138D+00 0.333D+00 0.521D+00
 Coeff:      0.106D-04-0.111D-03-0.189D-04-0.642D-03-0.245D-02-0.101D-02
 Coeff:      0.121D-01 0.138D+00 0.333D+00 0.521D+00
 Gap=     0.283 Goal=   None    Shift=    0.000
 RMSDP=3.84D-08 MaxDP=1.02D-06 DE=-2.81D-10 OVMax= 1.82D-06

 Cycle  11  Pass 1  IDiag  1:
 E= -797.888106045589     Delta-E=       -0.000000000044 Rises=F Damp=F
 DIIS: error= 2.26D-07 at cycle  11 NSaved=  11.
 NSaved=11 IEnMin=11 EnMin= -797.888106045589     IErMin=11 ErrMin= 2.26D-07
 ErrMax= 2.26D-07  0.00D+00 EMaxC= 1.00D-01 BMatC= 6.98D-12 BMatP= 5.20D-11
 IDIUse=1 WtCom= 1.00D+00 WtEn= 0.00D+00
 Coeff-Com:  0.141D-05 0.140D-04 0.171D-04-0.839D-04-0.155D-02-0.203D-02
 Coeff-Com: -0.653D-02 0.295D-01 0.874D-01 0.289D+00 0.605D+00
 Coeff:      0.141D-05 0.140D-04 0.171D-04-0.839D-04-0.155D-02-0.203D-02
 Coeff:     -0.653D-02 0.295D-01 0.874D-01 0.289D+00 0.605D+00
 Gap=     0.283 Goal=   None    Shift=    0.000
 RMSDP=1.40D-08 MaxDP=3.38D-07 DE=-4.37D-11 OVMax= 6.27D-07

 Cycle  12  Pass 1  IDiag  1:
 E= -797.888106045583     Delta-E=        0.000000000005 Rises=F Damp=F
 DIIS: error= 4.42D-08 at cycle  12 NSaved=  12.
 NSaved=12 IEnMin=11 EnMin= -797.888106045589     IErMin=12 ErrMin= 4.42D-08
 ErrMax= 4.42D-08  0.00D+00 EMaxC= 1.00D-01 BMatC= 3.60D-13 BMatP= 6.98D-12
 IDIUse=1 WtCom= 1.00D+00 WtEn= 0.00D+00
 Coeff-Com: -0.335D-07 0.828D-05 0.304D-05 0.293D-04-0.191D-03-0.406D-03
 Coeff-Com: -0.227D-02-0.299D-03 0.384D-04 0.576D-01 0.244D+00 0.702D+00
 Coeff:     -0.335D-07 0.828D-05 0.304D-05 0.293D-04-0.191D-03-0.406D-03
 Coeff:     -0.227D-02-0.299D-03 0.384D-04 0.576D-01 0.244D+00 0.702D+00
 Gap=     0.283 Goal=   None    Shift=    0.000
 RMSDP=3.41D-09 MaxDP=5.80D-08 DE= 5.23D-12 OVMax= 1.78D-07

 SCF Done:  E(RB3LYP) =  -797.888106046     A.U. after   12 cycles
            NFock= 12  Conv=0.34D-08     -V/T= 2.0038
 KE= 7.948826001913D+02 PE=-2.348005786923D+03 EE= 5.294302534876D+02
 Leave Link  502 at Thu Jun 13 11:40:04 2024, MaxMem=  1073741824 cpu:        32.8
 (Enter /apps/z_install_tree/linux-rocky8-ivybridge/gcc-12.2.0/gaussian-09-D.01-wczn3gur5lpur3omlkzwa2l5ecyxp5ef/g09/l508.exe)
 QCSCF skips out because SCF is already converged.
 Leave Link  508 at Thu Jun 13 11:40:04 2024, MaxMem=  1073741824 cpu:         0.0
 (Enter /apps/z_install_tree/linux-rocky8-ivybridge/gcc-12.2.0/gaussian-09-D.01-wczn3gur5lpur3omlkzwa2l5ecyxp5ef/g09/l701.exe)
 Compute integral first derivatives.
 ... and contract with generalized density number  0.
 R6Disp: Adding Grimme-D3 dispersion energy 1st derivatives to the gradient.
 Leave Link  701 at Thu Jun 13 11:40:04 2024, MaxMem=  1073741824 cpu:         1.5
 (Enter /apps/z_install_tree/linux-rocky8-ivybridge/gcc-12.2.0/gaussian-09-D.01-wczn3gur5lpur3omlkzwa2l5ecyxp5ef/g09/l702.exe)
 L702 exits ... SP integral derivatives will be done elsewhere.
 Leave Link  702 at Thu Jun 13 11:40:04 2024, MaxMem=  1073741824 cpu:         0.2
 (Enter /apps/z_install_tree/linux-rocky8-ivybridge/gcc-12.2.0/gaussian-09-D.01-wczn3gur5lpur3omlkzwa2l5ecyxp5ef/g09/l703.exe)
 Compute integral first derivatives, UseDBF=F ICtDFT=           0.
 Integral derivatives from FoFJK, PRISM(SPDF).
 Calling FoFJK, ICntrl=      2127 FMM=F ISym2X=0 I1Cent= 0 IOpClX= 0 NMat=1 NMatS=1 NMatT=0.
 FoFJK:  IHMeth= 1 ICntrl=    2127 DoSepK=F KAlg= 0 I1Cent=   0 FoldK=F
 IRaf=         0 NMat=   1 IRICut=       1 DoRegI=T DoRafI=F ISym2E= 0.
 FoFCou: FMM=F IPFlag=           0 FMFlag=      100000 FMFlg1=         800
         NFxFlg=           0 DoJE=F BraDBF=F KetDBF=F FulRan=T
         wScrn=  0.000000 ICntrl=    2127 IOpCl=  0 I1Cent=           0 NGrid=           0
         NMat0=    1 NMatS0=      1 NMatT0=    0 NMatD0=    1 NMtDS0=    0 NMtDT0=    0
 Symmetry not used in FoFCou.
 Leave Link  703 at Thu Jun 13 11:40:04 2024, MaxMem=  1073741824 cpu:         9.6
 (Enter /apps/z_install_tree/linux-rocky8-ivybridge/gcc-12.2.0/gaussian-09-D.01-wczn3gur5lpur3omlkzwa2l5ecyxp5ef/g09/l716.exe)
 Dipole        = 2.47140970D-01-3.82100123D-01 7.65443862D-01
 -------------------------------------------------------------------
 Center     Atomic                   Forces (Hartrees/Bohr)
 Number     Number              X              Y              Z
 -------------------------------------------------------------------
      1        6          -0.033645931    0.021056706   -0.056825801
      2       17           0.004216125    0.011288010   -0.026962602
      3        9           0.095397823    0.016457062    0.014505377
      4        9          -0.050612652    0.055059866    0.071599238
      5        9          -0.015355366   -0.103861644   -0.002316212
 -------------------------------------------------------------------
 Cartesian Forces:  Max     0.103861644 RMS     0.049670139
 Leave Link  716 at Thu Jun 13 11:40:04 2024, MaxMem=  1073741824 cpu:         0.3
 (Enter /apps/z_install_tree/linux-rocky8-ivybridge/gcc-12.2.0/gaussian-09-D.01-wczn3gur5lpur3omlkzwa2l5ecyxp5ef/g09/l103.exe)

 GradGradGradGradGradGradGradGradGradGradGradGradGradGradGradGradGradGrad
 Berny optimization.
 Using GEDIIS/GDIIS optimizer.
 FormGI is forming the generalized inverse of G from B-inverse, IUseBI=4.
 Internal  Forces:  Max     0.104798649 RMS     0.048079572
 Search for a local minimum.
 Step number   3 out of a maximum of   24
 All quantities printed in internal units (Hartrees-Bohrs-Radians)
 RMS Force = .48080D-01 SwitMx=.10000D-02 MixMth= 1
 Mixed Optimization -- RFO/linear search
 Update second derivatives using D2CorX and points    2    3
 DE= -9.24D-02 DEPred=-9.89D-02 R= 9.35D-01
 TightC=F SS=  1.41D+00  RLast= 5.08D-01 DXNew= 8.4853D-01 1.5241D+00
 Trust test= 9.35D-01 RLast= 5.08D-01 DXMaxT set to 8.49D-01
 The second derivative matrix:
                          R1        R2        R3        R4        A1
           R1           0.08928
           R2           0.00006   0.10705
           R3           0.00695  -0.03505   0.11321
           R4           0.02062  -0.03648  -0.04179   0.08610
           A1           0.00286   0.00588   0.00628   0.00632   0.24890
           A2          -0.01050   0.00070   0.00052   0.00295   0.00000
           A3          -0.01256   0.00141   0.00114   0.00435  -0.00010
           A4          -0.00439   0.00017   0.00023   0.00082   0.00002
           A5           0.00910  -0.00103  -0.00064  -0.00358   0.00008
           A6           0.01900  -0.00698  -0.00765  -0.01065   0.00103
           D1          -0.00797  -0.00299  -0.00357  -0.00168   0.00068
           D2           0.00400   0.00192   0.00241   0.00098  -0.00041
           D3          -0.00346  -0.00266  -0.00351  -0.00125   0.00054
           D4          -0.00745  -0.00458  -0.00591  -0.00223   0.00095
                          A2        A3        A4        A5        A6
           A2           0.24988
           A3          -0.00009   0.24998
           A4          -0.00015  -0.00018   0.24994
           A5          -0.00007  -0.00018   0.00012   0.25033
           A6           0.00070   0.00092   0.00034  -0.00055   0.24719
           D1           0.00008   0.00037  -0.00021  -0.00050  -0.00021
           D2          -0.00016  -0.00036   0.00009   0.00042   0.00029
           D3           0.00039   0.00069  -0.00004  -0.00073  -0.00066
           D4           0.00055   0.00105  -0.00013  -0.00115  -0.00095
                          D1        D2        D3        D4
           D1           0.00356
           D2          -0.00075   0.00277
           D3           0.00088  -0.00058   0.00307
           D4           0.00164  -0.00105   0.00135   0.00469
 ITU=  1  1  0
 Use linear search instead of GDIIS.
     Eigenvalues ---    0.01832   0.07118   0.07683   0.10474   0.13733
     Eigenvalues ---    0.14167   0.14754   0.25007   0.25190
 RFO step:  Lambda=-1.65894873D-01 EMin= 1.83170534D-02
 Skip linear search -- no minimum in search direction.
 Maximum step size (   0.849) exceeded in Quadratic search.
    -- Step size scaled by   0.916
 Iteration  1 RMS(Cart)=  0.09611065 RMS(Int)=  0.13400294
 Iteration  2 RMS(Cart)=  0.08845264 RMS(Int)=  0.04282601
 Iteration  3 RMS(Cart)=  0.04067894 RMS(Int)=  0.00017025
 Iteration  4 RMS(Cart)=  0.00000580 RMS(Int)=  0.00017017
 Iteration  5 RMS(Cart)=  0.00000000 RMS(Int)=  0.00017017
 ITry= 1 IFail=0 DXMaxC= 4.96D-01 DCOld= 1.00D+10 DXMaxT= 8.49D-01 DXLimC= 3.00D+00 Rises=F
 Variable       Old X    -DE/DX   Delta X   Delta X   Delta X     New X
                                 (Linear)    (Quad)   (Total)
    R1        3.29920  -0.02848   0.00000  -0.04045  -0.04045   3.25875
    R2        2.97085  -0.09746   0.00000  -0.45988  -0.45988   2.51097
    R3        2.88684  -0.10333   0.00000  -0.47603  -0.47603   2.41081
    R4        3.00312  -0.10480   0.00000  -0.52596  -0.52596   2.47716
    A1        1.86153   0.00642   0.00000   0.02764   0.02748   1.88901
    A2        1.99970   0.00128   0.00000  -0.00041  -0.00065   1.99904
    A3        1.94967   0.00420   0.00000   0.01409   0.01389   1.96355
    A4        1.85261   0.00182   0.00000   0.01517   0.01481   1.86742
    A5        1.85574  -0.00240   0.00000  -0.00422  -0.00445   1.85128
    A6        1.93448  -0.01091   0.00000  -0.04869  -0.04898   1.88550
    D1        2.04940   0.00987   0.00000   0.04402   0.04402   2.09343
    D2       -2.02429  -0.00846   0.00000  -0.03790  -0.03782  -2.06210
    D3        2.25295  -0.00382   0.00000  -0.02912  -0.02914   2.22380
    D4       -2.00595   0.00464   0.00000   0.00878   0.00867  -1.99728
         Item               Value     Threshold  Converged?
 Maximum Force            0.104799     0.000450     NO 
 RMS     Force            0.048080     0.000300     NO 
 Maximum Displacement     0.495790     0.001800     NO 
 RMS     Displacement     0.222439     0.001200     NO 
 Predicted change in Energy=-1.424415D-01
 Lowest energy point so far.  Saving SCF results.
 GradGradGradGradGradGradGradGradGradGradGradGradGradGradGradGradGradGrad

 Leave Link  103 at Thu Jun 13 11:40:04 2024, MaxMem=  1073741824 cpu:         0.6
 (Enter /apps/z_install_tree/linux-rocky8-ivybridge/gcc-12.2.0/gaussian-09-D.01-wczn3gur5lpur3omlkzwa2l5ecyxp5ef/g09/l202.exe)
                          Input orientation:                          
 ---------------------------------------------------------------------
 Center     Atomic      Atomic             Coordinates (Angstroms)
 Number     Number       Type             X           Y           Z
 ---------------------------------------------------------------------
      1          6           0       50.099661   35.512464   32.686986
      2         17           0       50.338440   34.882355   34.274342
      3          9           0       48.817846   35.364888   32.369588
      4          9           0       50.778479   34.929244   31.777819
      5          9           0       50.345574   36.798049   32.615266
 ---------------------------------------------------------------------
                    Distance matrix (angstroms):
                    1          2          3          4          5
     1  C    0.000000
     2  Cl   1.724457   0.000000
     3  F    1.328747   2.484579   0.000000
     4  F    1.275744   2.535441   2.093813   0.000000
     5  F    1.310857   2.534259   2.109090   2.093121   0.000000
 Symmetry turned off by external request.
 Stoichiometry    CClF3
 Framework group  C1[X(CClF3)]
 Deg. of freedom     9
 Full point group                 C1      NOp   1
 Rotational constants (GHZ):      6.0440872      3.4044641      3.3862233
 Leave Link  202 at Thu Jun 13 11:40:05 2024, MaxMem=  1073741824 cpu:         0.1
 (Enter /apps/z_install_tree/linux-rocky8-ivybridge/gcc-12.2.0/gaussian-09-D.01-wczn3gur5lpur3omlkzwa2l5ecyxp5ef/g09/l301.exe)
 Basis read from rwf:  (5D, 7F)
 No pseudopotential information found on rwf file.
   143 basis functions,   227 primitive gaussians,   153 cartesian basis functions
    25 alpha electrons       25 beta electrons
       nuclear repulsion energy       254.7445073593 Hartrees.
 IExCor=  402 DFT=T Ex+Corr=B3LYP ExCW=0 ScaHFX=  0.200000
 ScaDFX=  0.800000  0.720000  1.000000  0.810000 ScalE2=  1.000000  1.000000
 IRadAn=      5 IRanWt=     -1 IRanGd=            0 ICorTp=0 IEmpDi=131
 NAtoms=    5 NActive=    5 NUniq=    5 SFac= 1.00D+00 NAtFMM=   60 NAOKFM=F Big=F
 Integral buffers will be    131072 words long.
 Raffenetti 2 integral format.
 Two-electron integral symmetry is turned off.
 R6Disp:  Grimme-D3 Dispersion energy=       -0.0011019973 Hartrees.
 Nuclear repulsion after empirical dispersion term =      254.7434053619 Hartrees.
 No density basis found on file   724.
 Leave Link  301 at Thu Jun 13 11:40:05 2024, MaxMem=  1073741824 cpu:         0.7
 (Enter /apps/z_install_tree/linux-rocky8-ivybridge/gcc-12.2.0/gaussian-09-D.01-wczn3gur5lpur3omlkzwa2l5ecyxp5ef/g09/l302.exe)
 NPDir=0 NMtPBC=     1 NCelOv=     1 NCel=       1 NClECP=     1 NCelD=      1
         NCelK=      1 NCelE2=     1 NClLst=     1 CellRange=     0.0.
 One-electron integrals computed using PRISM.
 NBasis=   143 RedAO= T EigKep=  9.87D-04  NBF=   143
 NBsUse=   143 1.00D-06 EigRej= -1.00D+00 NBFU=   143
 Precomputing XC quadrature grid using
 IXCGrd= 4 IRadAn=           5 IRanWt=          -1 IRanGd=           0 AccXCQ= 0.00D+00.
 Generated NRdTot=       0 NPtTot=           0 NUsed=           0 NTot=          32
 NSgBfM=   153   153   153   153   153 MxSgAt=     5 MxSgA2=     5.
 Leave Link  302 at Thu Jun 13 11:40:05 2024, MaxMem=  1073741824 cpu:         1.9
 (Enter /apps/z_install_tree/linux-rocky8-ivybridge/gcc-12.2.0/gaussian-09-D.01-wczn3gur5lpur3omlkzwa2l5ecyxp5ef/g09/l303.exe)
 DipDrv:  MaxL=1.
 Leave Link  303 at Thu Jun 13 11:40:05 2024, MaxMem=  1073741824 cpu:         0.3
 (Enter /apps/z_install_tree/linux-rocky8-ivybridge/gcc-12.2.0/gaussian-09-D.01-wczn3gur5lpur3omlkzwa2l5ecyxp5ef/g09/l401.exe)
 Initial guess from the checkpoint file:  "chlorotrifluoromethane.chk"
 B after Tr=    -0.041716   -0.008414    0.067882
         Rot=    1.000000   -0.000221   -0.000588   -0.000216 Ang=  -0.08 deg.
 Guess basis will be translated and rotated to current coordinates.
 JPrj=2 DoOrth=T DoCkMO=T.
 Generating alternative initial guess.
 ExpMin= 4.38D-02 ExpMax= 1.06D+05 ExpMxC= 3.62D+03 IAcc=2 IRadAn=         4 AccDes= 0.00D+00
 Harris functional with IExCor=  402 and IRadAn=       4 diagonalized for initial guess.
 HarFok:  IExCor=  402 AccDes= 0.00D+00 IRadAn=         4 IDoV= 1 UseB2=F ITyADJ=14
 ICtDFT=  3500011 ScaDFX=  1.000000  1.000000  1.000000  1.000000
 FoFCou: FMM=F IPFlag=           0 FMFlag=      100000 FMFlg1=           0
         NFxFlg=           0 DoJE=T BraDBF=F KetDBF=T FulRan=T
         wScrn=  0.000000 ICntrl=     500 IOpCl=  0 I1Cent=   200000004 NGrid=           0
         NMat0=    1 NMatS0=      1 NMatT0=    0 NMatD0=    1 NMtDS0=    0 NMtDT0=    0
 Symmetry not used in FoFCou.
 Harris En= -797.895772701137    
 Leave Link  401 at Thu Jun 13 11:40:05 2024, MaxMem=  1073741824 cpu:         3.2
 (Enter /apps/z_install_tree/linux-rocky8-ivybridge/gcc-12.2.0/gaussian-09-D.01-wczn3gur5lpur3omlkzwa2l5ecyxp5ef/g09/l502.exe)
 Closed shell SCF:
 Using DIIS extrapolation, IDIIS=  1040.
 Two-electron integral symmetry not used.
 Keep R1 ints in memory in canonical form, NReq=54920448.
 IVT=       85437 IEndB=       85437 NGot=  1073741824 MDV=  1020647432
 LenX=  1020647432 LenY=  1020623582
 Requested convergence on RMS density matrix=1.00D-08 within  96 cycles.
 Requested convergence on MAX density matrix=1.00D-06.
 Requested convergence on             energy=1.00D-06.
 No special actions if energy rises.
 FoFCou: FMM=F IPFlag=           0 FMFlag=           0 FMFlg1=           0
         NFxFlg=           0 DoJE=F BraDBF=F KetDBF=F FulRan=T
         wScrn=  0.000000 ICntrl=     600 IOpCl=  0 I1Cent=           0 NGrid=           0
         NMat0=    1 NMatS0=  10296 NMatT0=    0 NMatD0=    1 NMtDS0=    0 NMtDT0=    0
 Symmetry not used in FoFCou.

 Cycle   1  Pass 1  IDiag  1:
 E= -797.893659789636    
 DIIS: error= 1.91D-02 at cycle   1 NSaved=   1.
 NSaved= 1 IEnMin= 1 EnMin= -797.893659789636     IErMin= 1 ErrMin= 1.91D-02
 ErrMax= 1.91D-02  0.00D+00 EMaxC= 1.00D-01 BMatC= 8.13D-02 BMatP= 8.13D-02
 IDIUse=3 WtCom= 8.09D-01 WtEn= 1.91D-01
 Coeff-Com:  0.100D+01
 Coeff-En:   0.100D+01
 Coeff:      0.100D+01
 Recover alternate guess density for next cycle.
 RMSDP=2.73D-03 MaxDP=1.01D-01              OVMax= 0.00D+00

 Cycle   2  Pass 1  IDiag  1:
 E= -797.886666240554     Delta-E=        0.006993549081 Rises=F Damp=F
 Switch densities from cycles 1 and 2 for lowest energy.
 DIIS: error= 2.91D-02 at cycle   2 NSaved=   2.
 NSaved= 2 IEnMin= 1 EnMin= -797.893659789636     IErMin= 1 ErrMin= 1.91D-02
 ErrMax= 2.91D-02  0.00D+00 EMaxC= 1.00D+00 BMatC= 1.63D-01 BMatP= 8.13D-02
 IDIUse=1 WtCom= 1.00D+00 WtEn= 0.00D+00
 Coeff-Com:  0.696D+00 0.304D+00
 Coeff:      0.696D+00 0.304D+00
 Gap=     0.375 Goal=   None    Shift=    0.000
 RMSDP=2.37D-03 MaxDP=9.11D-02 DE= 6.99D-03 OVMax= 8.91D-02

 Cycle   3  Pass 1  IDiag  1:
 E= -797.945459976056     Delta-E=       -0.058793735501 Rises=F Damp=F
 DIIS: error= 1.60D-02 at cycle   3 NSaved=   3.
 NSaved= 3 IEnMin= 3 EnMin= -797.945459976056     IErMin= 3 ErrMin= 1.60D-02
 ErrMax= 1.60D-02  0.00D+00 EMaxC= 1.00D+00 BMatC= 3.63D-02 BMatP= 8.13D-02
 IDIUse=1 WtCom= 1.00D+00 WtEn= 0.00D+00
 Coeff-Com:  0.845D-01 0.276D+00 0.639D+00
 Coeff:      0.845D-01 0.276D+00 0.639D+00
 Gap=     0.354 Goal=   None    Shift=    0.000
 RMSDP=7.85D-04 MaxDP=4.64D-02 DE=-5.88D-02 OVMax= 4.04D-02

 Cycle   4  Pass 1  IDiag  1:
 E= -797.967535914819     Delta-E=       -0.022075938763 Rises=F Damp=F
 DIIS: error= 3.25D-03 at cycle   4 NSaved=   4.
 NSaved= 4 IEnMin= 4 EnMin= -797.967535914819     IErMin= 4 ErrMin= 3.25D-03
 ErrMax= 3.25D-03  0.00D+00 EMaxC= 1.00D+00 BMatC= 1.46D-03 BMatP= 3.63D-02
 IDIUse=1 WtCom= 1.00D+00 WtEn= 0.00D+00
 Coeff-Com: -0.657D-02 0.401D-01 0.208D+00 0.758D+00
 Coeff:     -0.657D-02 0.401D-01 0.208D+00 0.758D+00
 Gap=     0.345 Goal=   None    Shift=    0.000
 RMSDP=2.17D-04 MaxDP=8.64D-03 DE=-2.21D-02 OVMax= 1.20D-02

 Cycle   5  Pass 1  IDiag  1:
 E= -797.968431297100     Delta-E=       -0.000895382281 Rises=F Damp=F
 DIIS: error= 1.27D-03 at cycle   5 NSaved=   5.
 NSaved= 5 IEnMin= 5 EnMin= -797.968431297100     IErMin= 5 ErrMin= 1.27D-03
 ErrMax= 1.27D-03  0.00D+00 EMaxC= 1.00D+00 BMatC= 2.23D-04 BMatP= 1.46D-03
 IDIUse=1 WtCom= 1.00D+00 WtEn= 0.00D+00
 Coeff-Com: -0.288D-02 0.364D-03 0.707D-01 0.413D+00 0.519D+00
 Coeff:     -0.288D-02 0.364D-03 0.707D-01 0.413D+00 0.519D+00
 Gap=     0.347 Goal=   None    Shift=    0.000
 RMSDP=9.10D-05 MaxDP=2.55D-03 DE=-8.95D-04 OVMax= 5.11D-03

 Cycle   6  Pass 1  IDiag  1:
 E= -797.968629221990     Delta-E=       -0.000197924890 Rises=F Damp=F
 DIIS: error= 9.78D-05 at cycle   6 NSaved=   6.
 NSaved= 6 IEnMin= 6 EnMin= -797.968629221990     IErMin= 6 ErrMin= 9.78D-05
 ErrMax= 9.78D-05  0.00D+00 EMaxC= 1.00D+00 BMatC= 1.89D-06 BMatP= 2.23D-04
 IDIUse=1 WtCom= 1.00D+00 WtEn= 0.00D+00
 Coeff-Com: -0.113D-02-0.140D-03 0.123D-01 0.813D-01 0.149D+00 0.759D+00
 Coeff:     -0.113D-02-0.140D-03 0.123D-01 0.813D-01 0.149D+00 0.759D+00
 Gap=     0.347 Goal=   None    Shift=    0.000
 RMSDP=5.77D-06 MaxDP=2.00D-04 DE=-1.98D-04 OVMax= 2.30D-04

 Cycle   7  Pass 1  IDiag  1:
 E= -797.968630029504     Delta-E=       -0.000000807514 Rises=F Damp=F
 DIIS: error= 5.05D-05 at cycle   7 NSaved=   7.
 NSaved= 7 IEnMin= 7 EnMin= -797.968630029504     IErMin= 7 ErrMin= 5.05D-05
 ErrMax= 5.05D-05  0.00D+00 EMaxC= 1.00D+00 BMatC= 5.28D-07 BMatP= 1.89D-06
 IDIUse=1 WtCom= 1.00D+00 WtEn= 0.00D+00
 Coeff-Com: -0.453D-03-0.720D-04 0.210D-02 0.168D-01 0.500D-01 0.434D+00
 Coeff-Com:  0.498D+00
 Coeff:     -0.453D-03-0.720D-04 0.210D-02 0.168D-01 0.500D-01 0.434D+00
 Coeff:      0.498D+00
 Gap=     0.347 Goal=   None    Shift=    0.000
 RMSDP=3.05D-06 MaxDP=6.68D-05 DE=-8.08D-07 OVMax= 1.18D-04

 Cycle   8  Pass 1  IDiag  1:
 E= -797.968630348184     Delta-E=       -0.000000318680 Rises=F Damp=F
 DIIS: error= 1.11D-05 at cycle   8 NSaved=   8.
 NSaved= 8 IEnMin= 8 EnMin= -797.968630348184     IErMin= 8 ErrMin= 1.11D-05
 ErrMax= 1.11D-05  0.00D+00 EMaxC= 1.00D+00 BMatC= 1.82D-08 BMatP= 5.28D-07
 IDIUse=1 WtCom= 1.00D+00 WtEn= 0.00D+00
 Coeff-Com: -0.125D-04-0.819D-04-0.183D-03-0.338D-03 0.706D-02 0.995D-01
 Coeff-Com:  0.199D+00 0.695D+00
 Coeff:     -0.125D-04-0.819D-04-0.183D-03-0.338D-03 0.706D-02 0.995D-01
 Coeff:      0.199D+00 0.695D+00
 Gap=     0.347 Goal=   None    Shift=    0.000
 RMSDP=4.70D-07 MaxDP=1.78D-05 DE=-3.19D-07 OVMax= 1.76D-05

 Cycle   9  Pass 1  IDiag  1:
 E= -797.968630357607     Delta-E=       -0.000000009424 Rises=F Damp=F
 DIIS: error= 1.41D-06 at cycle   9 NSaved=   9.
 NSaved= 9 IEnMin= 9 EnMin= -797.968630357607     IErMin= 9 ErrMin= 1.41D-06
 ErrMax= 1.41D-06  0.00D+00 EMaxC= 1.00D+00 BMatC= 3.92D-10 BMatP= 1.82D-08
 IDIUse=1 WtCom= 1.00D+00 WtEn= 0.00D+00
 Coeff-Com:  0.125D-05-0.732D-05-0.796D-04-0.660D-03-0.112D-03 0.898D-02
 Coeff-Com:  0.361D-01 0.204D+00 0.752D+00
 Coeff:      0.125D-05-0.732D-05-0.796D-04-0.660D-03-0.112D-03 0.898D-02
 Coeff:      0.361D-01 0.204D+00 0.752D+00
 Gap=     0.347 Goal=   None    Shift=    0.000
 RMSDP=1.28D-07 MaxDP=4.98D-06 DE=-9.42D-09 OVMax= 4.14D-06

 Cycle  10  Pass 1  IDiag  1:
 E= -797.968630357867     Delta-E=       -0.000000000260 Rises=F Damp=F
 DIIS: error= 2.74D-07 at cycle  10 NSaved=  10.
 NSaved=10 IEnMin=10 EnMin= -797.968630357867     IErMin=10 ErrMin= 2.74D-07
 ErrMax= 2.74D-07  0.00D+00 EMaxC= 1.00D+00 BMatC= 2.21D-11 BMatP= 3.92D-10
 IDIUse=1 WtCom= 1.00D+00 WtEn= 0.00D+00
 Coeff-Com:  0.107D-05 0.384D-06-0.338D-04-0.307D-03-0.338D-03 0.693D-03
 Coeff-Com:  0.902D-02 0.623D-01 0.305D+00 0.623D+00
 Coeff:      0.107D-05 0.384D-06-0.338D-04-0.307D-03-0.338D-03 0.693D-03
 Coeff:      0.902D-02 0.623D-01 0.305D+00 0.623D+00
 Gap=     0.347 Goal=   None    Shift=    0.000
 RMSDP=2.28D-08 MaxDP=6.48D-07 DE=-2.60D-10 OVMax= 8.40D-07

 Cycle  11  Pass 1  IDiag  1:
 E= -797.968630357885     Delta-E=       -0.000000000017 Rises=F Damp=F
 DIIS: error= 1.53D-07 at cycle  11 NSaved=  11.
 NSaved=11 IEnMin=11 EnMin= -797.968630357885     IErMin=11 ErrMin= 1.53D-07
 ErrMax= 1.53D-07  0.00D+00 EMaxC= 1.00D+00 BMatC= 4.83D-12 BMatP= 2.21D-11
 IDIUse=1 WtCom= 1.00D+00 WtEn= 0.00D+00
 Coeff-Com:  0.710D-06 0.839D-06-0.124D-04-0.119D-03-0.203D-03-0.564D-03
 Coeff-Com:  0.160D-02 0.160D-01 0.108D+00 0.359D+00 0.516D+00
 Coeff:      0.710D-06 0.839D-06-0.124D-04-0.119D-03-0.203D-03-0.564D-03
 Coeff:      0.160D-02 0.160D-01 0.108D+00 0.359D+00 0.516D+00
 Gap=     0.347 Goal=   None    Shift=    0.000
 RMSDP=7.62D-09 MaxDP=2.73D-07 DE=-1.73D-11 OVMax= 3.08D-07

 SCF Done:  E(RB3LYP) =  -797.968630358     A.U. after   11 cycles
            NFock= 11  Conv=0.76D-08     -V/T= 2.0021
 KE= 7.963126683095D+02 PE=-2.406727929809D+03 EE= 5.577032257800D+02
 Leave Link  502 at Thu Jun 13 11:40:07 2024, MaxMem=  1073741824 cpu:        31.3
 (Enter /apps/z_install_tree/linux-rocky8-ivybridge/gcc-12.2.0/gaussian-09-D.01-wczn3gur5lpur3omlkzwa2l5ecyxp5ef/g09/l508.exe)
 QCSCF skips out because SCF is already converged.
 Leave Link  508 at Thu Jun 13 11:40:07 2024, MaxMem=  1073741824 cpu:         0.0
 (Enter /apps/z_install_tree/linux-rocky8-ivybridge/gcc-12.2.0/gaussian-09-D.01-wczn3gur5lpur3omlkzwa2l5ecyxp5ef/g09/l701.exe)
 Compute integral first derivatives.
 ... and contract with generalized density number  0.
 R6Disp: Adding Grimme-D3 dispersion energy 1st derivatives to the gradient.
 Leave Link  701 at Thu Jun 13 11:40:07 2024, MaxMem=  1073741824 cpu:         1.7
 (Enter /apps/z_install_tree/linux-rocky8-ivybridge/gcc-12.2.0/gaussian-09-D.01-wczn3gur5lpur3omlkzwa2l5ecyxp5ef/g09/l702.exe)
 L702 exits ... SP integral derivatives will be done elsewhere.
 Leave Link  702 at Thu Jun 13 11:40:08 2024, MaxMem=  1073741824 cpu:         0.2
 (Enter /apps/z_install_tree/linux-rocky8-ivybridge/gcc-12.2.0/gaussian-09-D.01-wczn3gur5lpur3omlkzwa2l5ecyxp5ef/g09/l703.exe)
 Compute integral first derivatives, UseDBF=F ICtDFT=           0.
 Integral derivatives from FoFJK, PRISM(SPDF).
 Calling FoFJK, ICntrl=      2127 FMM=F ISym2X=0 I1Cent= 0 IOpClX= 0 NMat=1 NMatS=1 NMatT=0.
 FoFJK:  IHMeth= 1 ICntrl=    2127 DoSepK=F KAlg= 0 I1Cent=   0 FoldK=F
 IRaf=         0 NMat=   1 IRICut=       1 DoRegI=T DoRafI=F ISym2E= 0.
 FoFCou: FMM=F IPFlag=           0 FMFlag=      100000 FMFlg1=         800
         NFxFlg=           0 DoJE=F BraDBF=F KetDBF=F FulRan=T
         wScrn=  0.000000 ICntrl=    2127 IOpCl=  0 I1Cent=           0 NGrid=           0
         NMat0=    1 NMatS0=      1 NMatT0=    0 NMatD0=    1 NMtDS0=    0 NMtDT0=    0
 Symmetry not used in FoFCou.
 Leave Link  703 at Thu Jun 13 11:40:08 2024, MaxMem=  1073741824 cpu:         9.9
 (Enter /apps/z_install_tree/linux-rocky8-ivybridge/gcc-12.2.0/gaussian-09-D.01-wczn3gur5lpur3omlkzwa2l5ecyxp5ef/g09/l716.exe)
 Dipole        = 1.43877975D-01-1.28493676D-01 2.05243832D-01
 -------------------------------------------------------------------
 Center     Atomic                   Forces (Hartrees/Bohr)
 Number     Number              X              Y              Z
 -------------------------------------------------------------------
      1        6          -0.035045504    0.015981624    0.003143558
      2       17           0.010673478   -0.008781506    0.022157603
      3        9          -0.023870032   -0.004902379   -0.002789590
      4        9           0.036591875   -0.030454669   -0.029841557
      5        9           0.011650183    0.028156931    0.007329987
 -------------------------------------------------------------------
 Cartesian Forces:  Max     0.036591875 RMS     0.021472946
 Leave Link  716 at Thu Jun 13 11:40:08 2024, MaxMem=  1073741824 cpu:         0.3
 (Enter /apps/z_install_tree/linux-rocky8-ivybridge/gcc-12.2.0/gaussian-09-D.01-wczn3gur5lpur3omlkzwa2l5ecyxp5ef/g09/l103.exe)

 GradGradGradGradGradGradGradGradGradGradGradGradGradGradGradGradGradGrad
 Berny optimization.
 Using GEDIIS/GDIIS optimizer.
 FormGI is forming the generalized inverse of G from B-inverse, IUseBI=4.
 Internal  Forces:  Max     0.054659784 RMS     0.019935612
 Search for a local minimum.
 Step number   4 out of a maximum of   24
 All quantities printed in internal units (Hartrees-Bohrs-Radians)
 RMS Force = .19936D-01 SwitMx=.10000D-02 MixMth= 1
 Mixed Optimization -- RFO/linear search
 Update second derivatives using D2CorX and points    3    4
 DE= -8.05D-02 DEPred=-1.42D-01 R= 5.65D-01
 TightC=F SS=  1.41D+00  RLast= 8.51D-01 DXNew= 1.4270D+00 2.5531D+00
 Trust test= 5.65D-01 RLast= 8.51D-01 DXMaxT set to 1.43D+00
 The second derivative matrix:
                          R1        R2        R3        R4        A1
           R1           0.08356
           R2           0.01855   0.17018
           R3           0.03215   0.04772   0.22163
           R4           0.04666   0.03693   0.05405   0.16961
           A1          -0.00055   0.00188   0.00123   0.00258   0.24870
           A2          -0.01471  -0.00581  -0.00781  -0.00367  -0.00005
           A3          -0.01575  -0.00659  -0.00927  -0.00461   0.00023
           A4          -0.00114   0.00232   0.00283   0.00225   0.00041
           A5           0.01295   0.00580   0.00816   0.00361   0.00002
           A6           0.02333   0.00348   0.00596   0.00100   0.00063
           D1          -0.00612  -0.00607  -0.00784  -0.00638   0.00142
           D2           0.00270   0.00363   0.00480   0.00371  -0.00088
           D3          -0.00166  -0.00463  -0.00629  -0.00450   0.00114
           D4          -0.00435  -0.00826  -0.01109  -0.00821   0.00202
                          A2        A3        A4        A5        A6
           A2           0.25007
           A3           0.00056   0.25093
           A4           0.00018  -0.00025   0.24939
           A5          -0.00039  -0.00091  -0.00009   0.25076
           A6          -0.00011  -0.00031   0.00040   0.00037   0.24878
           D1           0.00096   0.00097  -0.00096  -0.00129  -0.00103
           D2          -0.00071  -0.00071   0.00057   0.00090   0.00078
           D3           0.00109   0.00112  -0.00067  -0.00134  -0.00126
           D4           0.00180   0.00183  -0.00124  -0.00224  -0.00204
                          D1        D2        D3        D4
           D1           0.00303
           D2          -0.00039   0.00252
           D3           0.00039  -0.00025   0.00262
           D4           0.00078  -0.00047   0.00057   0.00334
 ITU=  1  1  1  0
 Use linear search instead of GDIIS.
     Eigenvalues ---    0.05678   0.07332   0.09868   0.13267   0.13768
     Eigenvalues ---    0.14399   0.24648   0.25009   0.31197
 RFO step:  Lambda=-9.26013228D-03 EMin= 5.67754616D-02
 Quartic linear search produced a step of -0.13876.
 Iteration  1 RMS(Cart)=  0.06288469 RMS(Int)=  0.00431111
 Iteration  2 RMS(Cart)=  0.00368837 RMS(Int)=  0.00126770
 Iteration  3 RMS(Cart)=  0.00000633 RMS(Int)=  0.00126769
 Iteration  4 RMS(Cart)=  0.00000000 RMS(Int)=  0.00126769
 ITry= 1 IFail=0 DXMaxC= 1.44D-01 DCOld= 1.00D+10 DXMaxT= 1.43D+00 DXLimC= 3.00D+00 Rises=F
 Variable       Old X    -DE/DX   Delta X   Delta X   Delta X     New X
                                 (Linear)    (Quad)   (Total)
    R1        3.25875   0.02508   0.00561   0.20786   0.21347   3.47222
    R2        2.51097   0.02424   0.06381  -0.07421  -0.01040   2.50057
    R3        2.41081   0.05466   0.06606   0.07485   0.14090   2.55171
    R4        2.47716   0.02940   0.07298  -0.10961  -0.03663   2.44053
    A1        1.88901   0.00232  -0.00381   0.04952   0.04695   1.93597
    A2        1.99904  -0.00753   0.00009  -0.05586  -0.05823   1.94081
    A3        1.96355  -0.00987  -0.00193  -0.03480  -0.03874   1.92482
    A4        1.86742   0.00175  -0.00205   0.04427   0.04263   1.91005
    A5        1.85128   0.00780   0.00062   0.03515   0.03511   1.88640
    A6        1.88550   0.00722   0.00680  -0.02661  -0.02187   1.86363
    D1        2.09343  -0.00049  -0.00611   0.05911   0.05145   2.14488
    D2       -2.06210  -0.00227   0.00525  -0.06293  -0.05692  -2.11902
    D3        2.22380  -0.01143   0.00404  -0.11863  -0.11304   2.11077
    D4       -1.99728  -0.00917  -0.00120  -0.05570  -0.05612  -2.05340
         Item               Value     Threshold  Converged?
 Maximum Force            0.054660     0.000450     NO 
 RMS     Force            0.019936     0.000300     NO 
 Maximum Displacement     0.144344     0.001800     NO 
 RMS     Displacement     0.065358     0.001200     NO 
 Predicted change in Energy=-8.460073D-03
 Lowest energy point so far.  Saving SCF results.
 GradGradGradGradGradGradGradGradGradGradGradGradGradGradGradGradGradGrad

 Leave Link  103 at Thu Jun 13 11:40:08 2024, MaxMem=  1073741824 cpu:         0.6
 (Enter /apps/z_install_tree/linux-rocky8-ivybridge/gcc-12.2.0/gaussian-09-D.01-wczn3gur5lpur3omlkzwa2l5ecyxp5ef/g09/l202.exe)
                          Input orientation:                          
 ---------------------------------------------------------------------
 Center     Atomic      Atomic             Coordinates (Angstroms)
 Number     Number       Type             X           Y           Z
 ---------------------------------------------------------------------
      1          6           0       50.054114   35.529449   32.667983
      2         17           0       50.377523   34.866197   34.350726
      3          9           0       48.779421   35.389181   32.341704
      4          9           0       50.824523   34.915255   31.744639
      5          9           0       50.344419   36.786918   32.618948
 ---------------------------------------------------------------------
                    Distance matrix (angstroms):
                    1          2          3          4          5
     1  C    0.000000
     2  Cl   1.837421   0.000000
     3  F    1.323244   2.619849   0.000000
     4  F    1.350307   2.644599   2.182552   0.000000
     5  F    1.291475   2.586372   2.116542   2.120857   0.000000
 Symmetry turned off by external request.
 Stoichiometry    CClF3
 Framework group  C1[X(CClF3)]
 Deg. of freedom     9
 Full point group                 C1      NOp   1
 Rotational constants (GHZ):      5.8095510      3.1807736      3.1123451
 Leave Link  202 at Thu Jun 13 11:40:08 2024, MaxMem=  1073741824 cpu:         0.1
 (Enter /apps/z_install_tree/linux-rocky8-ivybridge/gcc-12.2.0/gaussian-09-D.01-wczn3gur5lpur3omlkzwa2l5ecyxp5ef/g09/l301.exe)
 Basis read from rwf:  (5D, 7F)
 No pseudopotential information found on rwf file.
   143 basis functions,   227 primitive gaussians,   153 cartesian basis functions
    25 alpha electrons       25 beta electrons
       nuclear repulsion energy       247.1838736022 Hartrees.
 IExCor=  402 DFT=T Ex+Corr=B3LYP ExCW=0 ScaHFX=  0.200000
 ScaDFX=  0.800000  0.720000  1.000000  0.810000 ScalE2=  1.000000  1.000000
 IRadAn=      5 IRanWt=     -1 IRanGd=            0 ICorTp=0 IEmpDi=131
 NAtoms=    5 NActive=    5 NUniq=    5 SFac= 1.00D+00 NAtFMM=   60 NAOKFM=F Big=F
 Integral buffers will be    131072 words long.
 Raffenetti 2 integral format.
 Two-electron integral symmetry is turned off.
 R6Disp:  Grimme-D3 Dispersion energy=       -0.0013795462 Hartrees.
 Nuclear repulsion after empirical dispersion term =      247.1824940560 Hartrees.
 No density basis found on file   724.
 Leave Link  301 at Thu Jun 13 11:40:08 2024, MaxMem=  1073741824 cpu:         0.7
 (Enter /apps/z_install_tree/linux-rocky8-ivybridge/gcc-12.2.0/gaussian-09-D.01-wczn3gur5lpur3omlkzwa2l5ecyxp5ef/g09/l302.exe)
 NPDir=0 NMtPBC=     1 NCelOv=     1 NCel=       1 NClECP=     1 NCelD=      1
         NCelK=      1 NCelE2=     1 NClLst=     1 CellRange=     0.0.
 One-electron integrals computed using PRISM.
 NBasis=   143 RedAO= T EigKep=  1.19D-03  NBF=   143
 NBsUse=   143 1.00D-06 EigRej= -1.00D+00 NBFU=   143
 Precomputing XC quadrature grid using
 IXCGrd= 4 IRadAn=           5 IRanWt=          -1 IRanGd=           0 AccXCQ= 0.00D+00.
 Generated NRdTot=       0 NPtTot=           0 NUsed=           0 NTot=          32
 NSgBfM=   153   153   153   153   153 MxSgAt=     5 MxSgA2=     5.
 Leave Link  302 at Thu Jun 13 11:40:09 2024, MaxMem=  1073741824 cpu:         1.9
 (Enter /apps/z_install_tree/linux-rocky8-ivybridge/gcc-12.2.0/gaussian-09-D.01-wczn3gur5lpur3omlkzwa2l5ecyxp5ef/g09/l303.exe)
 DipDrv:  MaxL=1.
 Leave Link  303 at Thu Jun 13 11:40:09 2024, MaxMem=  1073741824 cpu:         0.3
 (Enter /apps/z_install_tree/linux-rocky8-ivybridge/gcc-12.2.0/gaussian-09-D.01-wczn3gur5lpur3omlkzwa2l5ecyxp5ef/g09/l401.exe)
 Initial guess from the checkpoint file:  "chlorotrifluoromethane.chk"
 B after Tr=    -0.060891   -0.295328    0.455286
         Rot=    0.999998    0.001080   -0.001505   -0.000814 Ang=   0.23 deg.
 Guess basis will be translated and rotated to current coordinates.
 JPrj=2 DoOrth=T DoCkMO=T.
 Generating alternative initial guess.
 ExpMin= 4.38D-02 ExpMax= 1.06D+05 ExpMxC= 3.62D+03 IAcc=2 IRadAn=         4 AccDes= 0.00D+00
 Harris functional with IExCor=  402 and IRadAn=       4 diagonalized for initial guess.
 HarFok:  IExCor=  402 AccDes= 0.00D+00 IRadAn=         4 IDoV= 1 UseB2=F ITyADJ=14
 ICtDFT=  3500011 ScaDFX=  1.000000  1.000000  1.000000  1.000000
 FoFCou: FMM=F IPFlag=           0 FMFlag=      100000 FMFlg1=           0
         NFxFlg=           0 DoJE=T BraDBF=F KetDBF=T FulRan=T
         wScrn=  0.000000 ICntrl=     500 IOpCl=  0 I1Cent=   200000004 NGrid=           0
         NMat0=    1 NMatS0=      1 NMatT0=    0 NMatD0=    1 NMtDS0=    0 NMtDT0=    0
 Symmetry not used in FoFCou.
 Harris En= -797.905706699612    
 Leave Link  401 at Thu Jun 13 11:40:09 2024, MaxMem=  1073741824 cpu:         2.9
 (Enter /apps/z_install_tree/linux-rocky8-ivybridge/gcc-12.2.0/gaussian-09-D.01-wczn3gur5lpur3omlkzwa2l5ecyxp5ef/g09/l502.exe)
 Closed shell SCF:
 Using DIIS extrapolation, IDIIS=  1040.
 Two-electron integral symmetry not used.
 Keep R1 ints in memory in canonical form, NReq=54920448.
 IVT=       85437 IEndB=       85437 NGot=  1073741824 MDV=  1020647432
 LenX=  1020647432 LenY=  1020623582
 Requested convergence on RMS density matrix=1.00D-08 within  96 cycles.
 Requested convergence on MAX density matrix=1.00D-06.
 Requested convergence on             energy=1.00D-06.
 No special actions if energy rises.
 FoFCou: FMM=F IPFlag=           0 FMFlag=           0 FMFlg1=           0
         NFxFlg=           0 DoJE=F BraDBF=F KetDBF=F FulRan=T
         wScrn=  0.000000 ICntrl=     600 IOpCl=  0 I1Cent=           0 NGrid=           0
         NMat0=    1 NMatS0=  10296 NMatT0=    0 NMatD0=    1 NMtDS0=    0 NMtDT0=    0
 Symmetry not used in FoFCou.

 Cycle   1  Pass 1  IDiag  1:
 E= -797.962643735538    
 DIIS: error= 5.05D-03 at cycle   1 NSaved=   1.
 NSaved= 1 IEnMin= 1 EnMin= -797.962643735538     IErMin= 1 ErrMin= 5.05D-03
 ErrMax= 5.05D-03  0.00D+00 EMaxC= 1.00D-01 BMatC= 8.46D-03 BMatP= 8.46D-03
 IDIUse=3 WtCom= 9.50D-01 WtEn= 5.05D-02
 Coeff-Com:  0.100D+01
 Coeff-En:   0.100D+01
 Coeff:      0.100D+01
 Gap=     0.667 Goal=   None    Shift=    0.000
 GapD=    0.667 DampG=2.000 DampE=1.000 DampFc=2.0000 IDamp=-1.
 RMSDP=8.07D-04 MaxDP=1.56D-02              OVMax= 2.88D-02

 Cycle   2  Pass 1  IDiag  1:
 E= -797.970755672538     Delta-E=       -0.008111937000 Rises=F Damp=F
 DIIS: error= 2.37D-03 at cycle   2 NSaved=   2.
 NSaved= 2 IEnMin= 2 EnMin= -797.970755672538     IErMin= 2 ErrMin= 2.37D-03
 ErrMax= 2.37D-03  0.00D+00 EMaxC= 1.00D-01 BMatC= 1.35D-03 BMatP= 8.46D-03
 IDIUse=3 WtCom= 9.76D-01 WtEn= 2.37D-02
 Coeff-Com:  0.186D+00 0.814D+00
 Coeff-En:   0.000D+00 0.100D+01
 Coeff:      0.181D+00 0.819D+00
 Gap=     0.305 Goal=   None    Shift=    0.000
 RMSDP=2.92D-04 MaxDP=1.13D-02 DE=-8.11D-03 OVMax= 1.56D-02

 Cycle   3  Pass 1  IDiag  1:
 E= -797.970658128254     Delta-E=        0.000097544284 Rises=F Damp=F
 DIIS: error= 2.74D-03 at cycle   3 NSaved=   3.
 NSaved= 3 IEnMin= 2 EnMin= -797.970755672538     IErMin= 2 ErrMin= 2.37D-03
 ErrMax= 2.74D-03  0.00D+00 EMaxC= 1.00D-01 BMatC= 1.49D-03 BMatP= 1.35D-03
 IDIUse=3 WtCom= 1.60D-01 WtEn= 8.40D-01
 Coeff-Com: -0.125D-01 0.515D+00 0.498D+00
 Coeff-En:   0.000D+00 0.521D+00 0.479D+00
 Coeff:     -0.201D-02 0.520D+00 0.482D+00
 Gap=     0.309 Goal=   None    Shift=    0.000
 RMSDP=1.59D-04 MaxDP=5.32D-03 DE= 9.75D-05 OVMax= 8.74D-03

 Cycle   4  Pass 1  IDiag  1:
 E= -797.971725382534     Delta-E=       -0.001067254280 Rises=F Damp=F
 DIIS: error= 1.82D-04 at cycle   4 NSaved=   4.
 NSaved= 4 IEnMin= 4 EnMin= -797.971725382534     IErMin= 4 ErrMin= 1.82D-04
 ErrMax= 1.82D-04  0.00D+00 EMaxC= 1.00D-01 BMatC= 1.11D-05 BMatP= 1.35D-03
 IDIUse=3 WtCom= 9.98D-01 WtEn= 1.82D-03
 Coeff-Com: -0.893D-02 0.148D+00 0.169D+00 0.693D+00
 Coeff-En:   0.000D+00 0.000D+00 0.000D+00 0.100D+01
 Coeff:     -0.891D-02 0.147D+00 0.168D+00 0.693D+00
 Gap=     0.309 Goal=   None    Shift=    0.000
 RMSDP=1.82D-05 MaxDP=5.19D-04 DE=-1.07D-03 OVMax= 7.13D-04

 Cycle   5  Pass 1  IDiag  1:
 E= -797.971731233762     Delta-E=       -0.000005851228 Rises=F Damp=F
 DIIS: error= 8.10D-05 at cycle   5 NSaved=   5.
 NSaved= 5 IEnMin= 5 EnMin= -797.971731233762     IErMin= 5 ErrMin= 8.10D-05
 ErrMax= 8.10D-05  0.00D+00 EMaxC= 1.00D-01 BMatC= 1.62D-06 BMatP= 1.11D-05
 IDIUse=1 WtCom= 1.00D+00 WtEn= 0.00D+00
 Coeff-Com: -0.373D-02 0.406D-01 0.542D-01 0.320D+00 0.589D+00
 Coeff:     -0.373D-02 0.406D-01 0.542D-01 0.320D+00 0.589D+00
 Gap=     0.309 Goal=   None    Shift=    0.000
 RMSDP=7.22D-06 MaxDP=1.64D-04 DE=-5.85D-06 OVMax= 4.48D-04

 Cycle   6  Pass 1  IDiag  1:
 E= -797.971732355426     Delta-E=       -0.000001121664 Rises=F Damp=F
 DIIS: error= 2.98D-05 at cycle   6 NSaved=   6.
 NSaved= 6 IEnMin= 6 EnMin= -797.971732355426     IErMin= 6 ErrMin= 2.98D-05
 ErrMax= 2.98D-05  0.00D+00 EMaxC= 1.00D-01 BMatC= 1.65D-07 BMatP= 1.62D-06
 IDIUse=1 WtCom= 1.00D+00 WtEn= 0.00D+00
 Coeff-Com: -0.644D-03 0.168D-02 0.629D-02 0.787D-01 0.281D+00 0.633D+00
 Coeff:     -0.644D-03 0.168D-02 0.629D-02 0.787D-01 0.281D+00 0.633D+00
 Gap=     0.309 Goal=   None    Shift=    0.000
 RMSDP=2.54D-06 MaxDP=8.44D-05 DE=-1.12D-06 OVMax= 1.56D-04

 Cycle   7  Pass 1  IDiag  1:
 E= -797.971732473704     Delta-E=       -0.000000118279 Rises=F Damp=F
 DIIS: error= 8.79D-06 at cycle   7 NSaved=   7.
 NSaved= 7 IEnMin= 7 EnMin= -797.971732473704     IErMin= 7 ErrMin= 8.79D-06
 ErrMax= 8.79D-06  0.00D+00 EMaxC= 1.00D-01 BMatC= 1.64D-08 BMatP= 1.65D-07
 IDIUse=1 WtCom= 1.00D+00 WtEn= 0.00D+00
 Coeff-Com:  0.228D-04-0.261D-02-0.209D-02 0.593D-02 0.678D-01 0.307D+00
 Coeff-Com:  0.624D+00
 Coeff:      0.228D-04-0.261D-02-0.209D-02 0.593D-02 0.678D-01 0.307D+00
 Coeff:      0.624D+00
 Gap=     0.309 Goal=   None    Shift=    0.000
 RMSDP=6.00D-07 MaxDP=1.80D-05 DE=-1.18D-07 OVMax= 2.46D-05

 Cycle   8  Pass 1  IDiag  1:
 E= -797.971732484544     Delta-E=       -0.000000010839 Rises=F Damp=F
 DIIS: error= 2.31D-06 at cycle   8 NSaved=   8.
 NSaved= 8 IEnMin= 8 EnMin= -797.971732484544     IErMin= 8 ErrMin= 2.31D-06
 ErrMax= 2.31D-06  0.00D+00 EMaxC= 1.00D-01 BMatC= 9.87D-10 BMatP= 1.64D-08
 IDIUse=1 WtCom= 1.00D+00 WtEn= 0.00D+00
 Coeff-Com:  0.278D-04-0.133D-02-0.130D-02 0.752D-03 0.218D-01 0.130D+00
 Coeff-Com:  0.307D+00 0.543D+00
 Coeff:      0.278D-04-0.133D-02-0.130D-02 0.752D-03 0.218D-01 0.130D+00
 Coeff:      0.307D+00 0.543D+00
 Gap=     0.309 Goal=   None    Shift=    0.000
 RMSDP=1.53D-07 MaxDP=4.32D-06 DE=-1.08D-08 OVMax= 6.65D-06

 Cycle   9  Pass 1  IDiag  1:
 E= -797.971732485092     Delta-E=       -0.000000000549 Rises=F Damp=F
 DIIS: error= 6.34D-07 at cycle   9 NSaved=   9.
 NSaved= 9 IEnMin= 9 EnMin= -797.971732485092     IErMin= 9 ErrMin= 6.34D-07
 ErrMax= 6.34D-07  0.00D+00 EMaxC= 1.00D-01 BMatC= 8.60D-11 BMatP= 9.87D-10
 IDIUse=1 WtCom= 1.00D+00 WtEn= 0.00D+00
 Coeff-Com:  0.936D-05-0.161D-03-0.267D-03-0.507D-03-0.126D-02 0.935D-02
 Coeff-Com:  0.323D-01 0.244D+00 0.717D+00
 Coeff:      0.936D-05-0.161D-03-0.267D-03-0.507D-03-0.126D-02 0.935D-02
 Coeff:      0.323D-01 0.244D+00 0.717D+00
 Gap=     0.309 Goal=   None    Shift=    0.000
 RMSDP=5.01D-08 MaxDP=1.46D-06 DE=-5.49D-10 OVMax= 2.33D-06

 Cycle  10  Pass 1  IDiag  1:
 E= -797.971732485153     Delta-E=       -0.000000000061 Rises=F Damp=F
 DIIS: error= 7.11D-08 at cycle  10 NSaved=  10.
 NSaved=10 IEnMin=10 EnMin= -797.971732485153     IErMin=10 ErrMin= 7.11D-08
 ErrMax= 7.11D-08  0.00D+00 EMaxC= 1.00D-01 BMatC= 1.45D-12 BMatP= 8.60D-11
 IDIUse=1 WtCom= 1.00D+00 WtEn= 0.00D+00
 Coeff-Com:  0.213D-05-0.729D-05-0.338D-04-0.206D-03-0.105D-02-0.239D-02
 Coeff-Com: -0.752D-03 0.453D-01 0.186D+00 0.773D+00
 Coeff:      0.213D-05-0.729D-05-0.338D-04-0.206D-03-0.105D-02-0.239D-02
 Coeff:     -0.752D-03 0.453D-01 0.186D+00 0.773D+00
 Gap=     0.309 Goal=   None    Shift=    0.000
 RMSDP=1.02D-08 MaxDP=2.30D-07 DE=-6.09D-11 OVMax= 5.35D-07

 Cycle  11  Pass 1  IDiag  1:
 E= -797.971732485155     Delta-E=       -0.000000000002 Rises=F Damp=F
 DIIS: error= 3.27D-08 at cycle  11 NSaved=  11.
 NSaved=11 IEnMin=11 EnMin= -797.971732485155     IErMin=11 ErrMin= 3.27D-08
 ErrMax= 3.27D-08  0.00D+00 EMaxC= 1.00D-01 BMatC= 2.66D-13 BMatP= 1.45D-12
 IDIUse=1 WtCom= 1.00D+00 WtEn= 0.00D+00
 Coeff-Com:  0.329D-06 0.707D-05 0.321D-05-0.701D-04-0.406D-03-0.168D-02
 Coeff-Com: -0.205D-02 0.553D-02 0.390D-01 0.337D+00 0.623D+00
 Coeff:      0.329D-06 0.707D-05 0.321D-05-0.701D-04-0.406D-03-0.168D-02
 Coeff:     -0.205D-02 0.553D-02 0.390D-01 0.337D+00 0.623D+00
 Gap=     0.309 Goal=   None    Shift=    0.000
 RMSDP=2.96D-09 MaxDP=7.50D-08 DE=-2.05D-12 OVMax= 1.21D-07

 SCF Done:  E(RB3LYP) =  -797.971732485     A.U. after   11 cycles
            NFock= 11  Conv=0.30D-08     -V/T= 2.0025
 KE= 7.959513968600D+02 PE=-2.391309860739D+03 EE= 5.502042373380D+02
 Leave Link  502 at Thu Jun 13 11:40:11 2024, MaxMem=  1073741824 cpu:        31.1
 (Enter /apps/z_install_tree/linux-rocky8-ivybridge/gcc-12.2.0/gaussian-09-D.01-wczn3gur5lpur3omlkzwa2l5ecyxp5ef/g09/l508.exe)
 QCSCF skips out because SCF is already converged.
 Leave Link  508 at Thu Jun 13 11:40:11 2024, MaxMem=  1073741824 cpu:         0.0
 (Enter /apps/z_install_tree/linux-rocky8-ivybridge/gcc-12.2.0/gaussian-09-D.01-wczn3gur5lpur3omlkzwa2l5ecyxp5ef/g09/l701.exe)
 Compute integral first derivatives.
 ... and contract with generalized density number  0.
 R6Disp: Adding Grimme-D3 dispersion energy 1st derivatives to the gradient.
 Leave Link  701 at Thu Jun 13 11:40:11 2024, MaxMem=  1073741824 cpu:         1.6
 (Enter /apps/z_install_tree/linux-rocky8-ivybridge/gcc-12.2.0/gaussian-09-D.01-wczn3gur5lpur3omlkzwa2l5ecyxp5ef/g09/l702.exe)
 L702 exits ... SP integral derivatives will be done elsewhere.
 Leave Link  702 at Thu Jun 13 11:40:11 2024, MaxMem=  1073741824 cpu:         0.2
 (Enter /apps/z_install_tree/linux-rocky8-ivybridge/gcc-12.2.0/gaussian-09-D.01-wczn3gur5lpur3omlkzwa2l5ecyxp5ef/g09/l703.exe)
 Compute integral first derivatives, UseDBF=F ICtDFT=           0.
 Integral derivatives from FoFJK, PRISM(SPDF).
 Calling FoFJK, ICntrl=      2127 FMM=F ISym2X=0 I1Cent= 0 IOpClX= 0 NMat=1 NMatS=1 NMatT=0.
 FoFJK:  IHMeth= 1 ICntrl=    2127 DoSepK=F KAlg= 0 I1Cent=   0 FoldK=F
 IRaf=         0 NMat=   1 IRICut=       1 DoRegI=T DoRafI=F ISym2E= 0.
 FoFCou: FMM=F IPFlag=           0 FMFlag=      100000 FMFlg1=         800
         NFxFlg=           0 DoJE=F BraDBF=F KetDBF=F FulRan=T
         wScrn=  0.000000 ICntrl=    2127 IOpCl=  0 I1Cent=           0 NGrid=           0
         NMat0=    1 NMatS0=      1 NMatT0=    0 NMatD0=    1 NMtDS0=    0 NMtDT0=    0
 Symmetry not used in FoFCou.
 Leave Link  703 at Thu Jun 13 11:40:12 2024, MaxMem=  1073741824 cpu:         9.8
 (Enter /apps/z_install_tree/linux-rocky8-ivybridge/gcc-12.2.0/gaussian-09-D.01-wczn3gur5lpur3omlkzwa2l5ecyxp5ef/g09/l716.exe)
 Dipole        =-6.99273818D-03 2.13508141D-02 1.33436279D-01
 -------------------------------------------------------------------
 Center     Atomic                   Forces (Hartrees/Bohr)
 Number     Number              X              Y              Z
 -------------------------------------------------------------------
      1        6           0.007729037   -0.022389696    0.000109201
      2       17          -0.003684870    0.004479832   -0.019402300
      3        9          -0.003461070   -0.008537058    0.001697390
      4        9          -0.008397499   -0.004348604    0.011717218
      5        9           0.007814403    0.030795526    0.005878490
 -------------------------------------------------------------------
 Cartesian Forces:  Max     0.030795526 RMS     0.012462193
 Leave Link  716 at Thu Jun 13 11:40:12 2024, MaxMem=  1073741824 cpu:         0.3
 (Enter /apps/z_install_tree/linux-rocky8-ivybridge/gcc-12.2.0/gaussian-09-D.01-wczn3gur5lpur3omlkzwa2l5ecyxp5ef/g09/l103.exe)

 GradGradGradGradGradGradGradGradGradGradGradGradGradGradGradGradGradGrad
 Berny optimization.
 Using GEDIIS/GDIIS optimizer.
 FormGI is forming the generalized inverse of G from B-inverse, IUseBI=4.
 Internal  Forces:  Max     0.031518076 RMS     0.011891107
 Search for a local minimum.
 Step number   5 out of a maximum of   24
 All quantities printed in internal units (Hartrees-Bohrs-Radians)
 RMS Force = .11891D-01 SwitMx=.10000D-02 MixMth= 1
 Mixed Optimization -- RFO/linear search
 Update second derivatives using D2CorX and points    4    5
 DE= -3.10D-03 DEPred=-8.46D-03 R= 3.67D-01
 Trust test= 3.67D-01 RLast= 3.15D-01 DXMaxT set to 1.43D+00
 The second derivative matrix:
                          R1        R2        R3        R4        A1
           R1           0.14038
           R2           0.04584   0.18318
           R3           0.10454   0.08319   0.30939
           R4           0.02127   0.02632   0.01159   0.15815
           A1          -0.01232  -0.00261  -0.02117  -0.00887   0.23890
           A2           0.01644   0.00693   0.04609   0.01446   0.01697
           A3          -0.00250  -0.00164   0.01660   0.00975   0.01234
           A4          -0.00333   0.00211  -0.00533  -0.00887  -0.00800
           A5          -0.00778  -0.00266  -0.02783  -0.00871  -0.01150
           A6           0.01118  -0.00198  -0.01193   0.00101  -0.00083
           D1           0.01913   0.00521   0.02978  -0.00536   0.00521
           D2          -0.00385   0.00074  -0.00518   0.00293  -0.00224
           D3          -0.01648  -0.01144  -0.02714  -0.00232   0.00095
           D4          -0.01263  -0.01218  -0.02196  -0.00526   0.00319
                          A2        A3        A4        A5        A6
           A2           0.22212
           A3          -0.02066   0.23599
           A4           0.01597   0.00999   0.24306
           A5           0.01856   0.01344  -0.01073   0.23791
           A6           0.00085   0.00168  -0.00200  -0.00033   0.25009
           D1          -0.00248  -0.00408   0.00459   0.00113  -0.00351
           D2           0.00090   0.00105  -0.00114  -0.00021   0.00130
           D3          -0.00079   0.00161  -0.00245  -0.00013   0.00085
           D4          -0.00170   0.00056  -0.00131   0.00007  -0.00044
                          D1        D2        D3        D4
           D1           0.00761
           D2          -0.00131   0.00268
           D3          -0.00380   0.00074   0.00562
           D4          -0.00249   0.00036   0.00258   0.00452
 ITU=  0  1  1  1  0
 Use linear search instead of GDIIS.
     Eigenvalues ---    0.06514   0.08508   0.09212   0.12540   0.13409
     Eigenvalues ---    0.17119   0.24186   0.25013   0.41162
 RFO step:  Lambda=-1.11624535D-02 EMin= 6.51409079D-02
 Quartic linear search produced a step of -0.37183.
 Iteration  1 RMS(Cart)=  0.09100094 RMS(Int)=  0.00482143
 Iteration  2 RMS(Cart)=  0.00429228 RMS(Int)=  0.00163814
 Iteration  3 RMS(Cart)=  0.00000262 RMS(Int)=  0.00163814
 Iteration  4 RMS(Cart)=  0.00000001 RMS(Int)=  0.00163814
 ITry= 1 IFail=0 DXMaxC= 1.99D-01 DCOld= 1.00D+10 DXMaxT= 1.43D+00 DXLimC= 3.00D+00 Rises=F
 Variable       Old X    -DE/DX   Delta X   Delta X   Delta X     New X
                                 (Linear)    (Quad)   (Total)
    R1        3.47222  -0.02003  -0.07938  -0.13152  -0.21090   3.26133
    R2        2.50057   0.00382   0.00387   0.02520   0.02906   2.52963
    R3        2.55171  -0.01083  -0.05239   0.07987   0.02748   2.57919
    R4        2.44053   0.03152   0.01362   0.19906   0.21268   2.65321
    A1        1.93597  -0.00156  -0.01746  -0.00049  -0.01895   1.91702
    A2        1.94081  -0.00692   0.02165  -0.07852  -0.05570   1.88511
    A3        1.92482  -0.00435   0.01440  -0.04310  -0.02661   1.89821
    A4        1.91005  -0.00608  -0.01585   0.00485  -0.01495   1.89510
    A5        1.88640   0.00719  -0.01306   0.06507   0.05143   1.93782
    A6        1.86363   0.01257   0.00813   0.05839   0.06626   1.92989
    D1        2.14488  -0.01081  -0.01913  -0.04997  -0.06687   2.07800
    D2       -2.11902   0.00001   0.02116  -0.01434   0.00777  -2.11125
    D3        2.11077  -0.00318   0.04203  -0.08403  -0.04360   2.06717
    D4       -2.05340  -0.00319   0.02087  -0.06969  -0.05137  -2.10476
         Item               Value     Threshold  Converged?
 Maximum Force            0.031518     0.000450     NO 
 RMS     Force            0.011891     0.000300     NO 
 Maximum Displacement     0.198834     0.001800     NO 
 RMS     Displacement     0.094886     0.001200     NO 
 Predicted change in Energy=-7.076458D-03
 Lowest energy point so far.  Saving SCF results.
 GradGradGradGradGradGradGradGradGradGradGradGradGradGradGradGradGradGrad

 Leave Link  103 at Thu Jun 13 11:40:12 2024, MaxMem=  1073741824 cpu:         0.5
 (Enter /apps/z_install_tree/linux-rocky8-ivybridge/gcc-12.2.0/gaussian-09-D.01-wczn3gur5lpur3omlkzwa2l5ecyxp5ef/g09/l202.exe)
                          Input orientation:                          
 ---------------------------------------------------------------------
 Center     Atomic      Atomic             Coordinates (Angstroms)
 Number     Number       Type             X           Y           Z
 ---------------------------------------------------------------------
      1          6           0       50.050562   35.526000   32.674121
      2         17           0       50.366689   34.886265   34.245507
      3          9           0       48.763740   35.337290   32.357271
      4          9           0       50.823355   34.845591   31.778214
      5          9           0       50.375654   36.891854   32.668886
 ---------------------------------------------------------------------
                    Distance matrix (angstroms):
                    1          2          3          4          5
     1  C    0.000000
     2  Cl   1.725820   0.000000
     3  F    1.338624   2.517599   0.000000
     4  F    1.364850   2.509528   2.195242   0.000000
     5  F    1.404019   2.551118   2.260982   2.276165   0.000000
 Symmetry turned off by external request.
 Stoichiometry    CClF3
 Framework group  C1[X(CClF3)]
 Deg. of freedom     9
 Full point group                 C1      NOp   1
 Rotational constants (GHZ):      5.2813479      3.3870048      3.2941281
 Leave Link  202 at Thu Jun 13 11:40:12 2024, MaxMem=  1073741824 cpu:         0.1
 (Enter /apps/z_install_tree/linux-rocky8-ivybridge/gcc-12.2.0/gaussian-09-D.01-wczn3gur5lpur3omlkzwa2l5ecyxp5ef/g09/l301.exe)
 Basis read from rwf:  (5D, 7F)
 No pseudopotential information found on rwf file.
   143 basis functions,   227 primitive gaussians,   153 cartesian basis functions
    25 alpha electrons       25 beta electrons
       nuclear repulsion energy       247.3855271196 Hartrees.
 IExCor=  402 DFT=T Ex+Corr=B3LYP ExCW=0 ScaHFX=  0.200000
 ScaDFX=  0.800000  0.720000  1.000000  0.810000 ScalE2=  1.000000  1.000000
 IRadAn=      5 IRanWt=     -1 IRanGd=            0 ICorTp=0 IEmpDi=131
 NAtoms=    5 NActive=    5 NUniq=    5 SFac= 1.00D+00 NAtFMM=   60 NAOKFM=F Big=F
 Integral buffers will be    131072 words long.
 Raffenetti 2 integral format.
 Two-electron integral symmetry is turned off.
 R6Disp:  Grimme-D3 Dispersion energy=       -0.0013546056 Hartrees.
 Nuclear repulsion after empirical dispersion term =      247.3841725140 Hartrees.
 No density basis found on file   724.
 Leave Link  301 at Thu Jun 13 11:40:12 2024, MaxMem=  1073741824 cpu:         0.7
 (Enter /apps/z_install_tree/linux-rocky8-ivybridge/gcc-12.2.0/gaussian-09-D.01-wczn3gur5lpur3omlkzwa2l5ecyxp5ef/g09/l302.exe)
 NPDir=0 NMtPBC=     1 NCelOv=     1 NCel=       1 NClECP=     1 NCelD=      1
         NCelK=      1 NCelE2=     1 NClLst=     1 CellRange=     0.0.
 One-electron integrals computed using PRISM.
 NBasis=   143 RedAO= T EigKep=  9.91D-04  NBF=   143
 NBsUse=   143 1.00D-06 EigRej= -1.00D+00 NBFU=   143
 Precomputing XC quadrature grid using
 IXCGrd= 4 IRadAn=           5 IRanWt=          -1 IRanGd=           0 AccXCQ= 0.00D+00.
 Generated NRdTot=       0 NPtTot=           0 NUsed=           0 NTot=          32
 NSgBfM=   153   153   153   153   153 MxSgAt=     5 MxSgA2=     5.
 Leave Link  302 at Thu Jun 13 11:40:12 2024, MaxMem=  1073741824 cpu:         2.0
 (Enter /apps/z_install_tree/linux-rocky8-ivybridge/gcc-12.2.0/gaussian-09-D.01-wczn3gur5lpur3omlkzwa2l5ecyxp5ef/g09/l303.exe)
 DipDrv:  MaxL=1.
 Leave Link  303 at Thu Jun 13 11:40:12 2024, MaxMem=  1073741824 cpu:         0.3
 (Enter /apps/z_install_tree/linux-rocky8-ivybridge/gcc-12.2.0/gaussian-09-D.01-wczn3gur5lpur3omlkzwa2l5ecyxp5ef/g09/l401.exe)
 Initial guess from the checkpoint file:  "chlorotrifluoromethane.chk"
 B after Tr=    -0.084100    0.206261   -0.122972
         Rot=    0.999999   -0.001531   -0.000602    0.000046 Ang=  -0.19 deg.
 Guess basis will be translated and rotated to current coordinates.
 JPrj=2 DoOrth=T DoCkMO=T.
 Generating alternative initial guess.
 ExpMin= 4.38D-02 ExpMax= 1.06D+05 ExpMxC= 3.62D+03 IAcc=2 IRadAn=         4 AccDes= 0.00D+00
 Harris functional with IExCor=  402 and IRadAn=       4 diagonalized for initial guess.
 HarFok:  IExCor=  402 AccDes= 0.00D+00 IRadAn=         4 IDoV= 1 UseB2=F ITyADJ=14
 ICtDFT=  3500011 ScaDFX=  1.000000  1.000000  1.000000  1.000000
 FoFCou: FMM=F IPFlag=           0 FMFlag=      100000 FMFlg1=           0
         NFxFlg=           0 DoJE=T BraDBF=F KetDBF=T FulRan=T
         wScrn=  0.000000 ICntrl=     500 IOpCl=  0 I1Cent=   200000004 NGrid=           0
         NMat0=    1 NMatS0=      1 NMatT0=    0 NMatD0=    1 NMtDS0=    0 NMtDT0=    0
 Symmetry not used in FoFCou.
 Harris En= -797.908684429695    
 Leave Link  401 at Thu Jun 13 11:40:13 2024, MaxMem=  1073741824 cpu:         3.1
 (Enter /apps/z_install_tree/linux-rocky8-ivybridge/gcc-12.2.0/gaussian-09-D.01-wczn3gur5lpur3omlkzwa2l5ecyxp5ef/g09/l502.exe)
 Closed shell SCF:
 Using DIIS extrapolation, IDIIS=  1040.
 Two-electron integral symmetry not used.
 Keep R1 ints in memory in canonical form, NReq=54920448.
 IVT=       85437 IEndB=       85437 NGot=  1073741824 MDV=  1020647432
 LenX=  1020647432 LenY=  1020623582
 Requested convergence on RMS density matrix=1.00D-08 within  96 cycles.
 Requested convergence on MAX density matrix=1.00D-06.
 Requested convergence on             energy=1.00D-06.
 No special actions if energy rises.
 FoFCou: FMM=F IPFlag=           0 FMFlag=           0 FMFlg1=           0
         NFxFlg=           0 DoJE=F BraDBF=F KetDBF=F FulRan=T
         wScrn=  0.000000 ICntrl=     600 IOpCl=  0 I1Cent=           0 NGrid=           0
         NMat0=    1 NMatS0=  10296 NMatT0=    0 NMatD0=    1 NMtDS0=    0 NMtDT0=    0
 Symmetry not used in FoFCou.

 Cycle   1  Pass 1  IDiag  1:
 E= -797.955002092708    
 DIIS: error= 7.53D-03 at cycle   1 NSaved=   1.
 NSaved= 1 IEnMin= 1 EnMin= -797.955002092708     IErMin= 1 ErrMin= 7.53D-03
 ErrMax= 7.53D-03  0.00D+00 EMaxC= 1.00D-01 BMatC= 1.25D-02 BMatP= 1.25D-02
 IDIUse=3 WtCom= 9.25D-01 WtEn= 7.53D-02
 Coeff-Com:  0.100D+01
 Coeff-En:   0.100D+01
 Coeff:      0.100D+01
 Gap=     0.649 Goal=   None    Shift=    0.000
 GapD=    0.649 DampG=2.000 DampE=1.000 DampFc=2.0000 IDamp=-1.
 RMSDP=1.05D-03 MaxDP=2.13D-02              OVMax= 4.01D-02

 Cycle   2  Pass 1  IDiag  1:
 E= -797.967290285423     Delta-E=       -0.012288192715 Rises=F Damp=F
 DIIS: error= 3.24D-03 at cycle   2 NSaved=   2.
 NSaved= 2 IEnMin= 2 EnMin= -797.967290285423     IErMin= 2 ErrMin= 3.24D-03
 ErrMax= 3.24D-03  0.00D+00 EMaxC= 1.00D-01 BMatC= 1.21D-03 BMatP= 1.25D-02
 IDIUse=3 WtCom= 9.68D-01 WtEn= 3.24D-02
 Coeff-Com:  0.120D+00 0.880D+00
 Coeff-En:   0.000D+00 0.100D+01
 Coeff:      0.116D+00 0.884D+00
 Gap=     0.346 Goal=   None    Shift=    0.000
 RMSDP=2.73D-04 MaxDP=8.12D-03 DE=-1.23D-02 OVMax= 1.25D-02

 Cycle   3  Pass 1  IDiag  1:
 E= -797.967047775168     Delta-E=        0.000242510255 Rises=F Damp=F
 DIIS: error= 3.86D-03 at cycle   3 NSaved=   3.
 NSaved= 3 IEnMin= 2 EnMin= -797.967290285423     IErMin= 2 ErrMin= 3.24D-03
 ErrMax= 3.86D-03  0.00D+00 EMaxC= 1.00D-01 BMatC= 1.63D-03 BMatP= 1.21D-03
 IDIUse=3 WtCom= 1.39D-01 WtEn= 8.61D-01
 Coeff-Com: -0.510D-02 0.540D+00 0.465D+00
 Coeff-En:   0.000D+00 0.560D+00 0.440D+00
 Coeff:     -0.707D-03 0.557D+00 0.444D+00
 Gap=     0.344 Goal=   None    Shift=    0.000
 RMSDP=1.43D-04 MaxDP=5.08D-03 DE= 2.43D-04 OVMax= 7.34D-03

 Cycle   4  Pass 1  IDiag  1:
 E= -797.968083854899     Delta-E=       -0.001036079731 Rises=F Damp=F
 DIIS: error= 4.31D-04 at cycle   4 NSaved=   4.
 NSaved= 4 IEnMin= 4 EnMin= -797.968083854899     IErMin= 4 ErrMin= 4.31D-04
 ErrMax= 4.31D-04  0.00D+00 EMaxC= 1.00D-01 BMatC= 2.40D-05 BMatP= 1.21D-03
 IDIUse=3 WtCom= 9.96D-01 WtEn= 4.31D-03
 Coeff-Com: -0.946D-02 0.159D+00 0.174D+00 0.676D+00
 Coeff-En:   0.000D+00 0.000D+00 0.000D+00 0.100D+01
 Coeff:     -0.942D-02 0.159D+00 0.174D+00 0.677D+00
 Gap=     0.344 Goal=   None    Shift=    0.000
 RMSDP=2.80D-05 MaxDP=5.69D-04 DE=-1.04D-03 OVMax= 1.10D-03

 Cycle   5  Pass 1  IDiag  1:
 E= -797.968099344987     Delta-E=       -0.000015490088 Rises=F Damp=F
 DIIS: error= 9.37D-05 at cycle   5 NSaved=   5.
 NSaved= 5 IEnMin= 5 EnMin= -797.968099344987     IErMin= 5 ErrMin= 9.37D-05
 ErrMax= 9.37D-05  0.00D+00 EMaxC= 1.00D-01 BMatC= 1.46D-06 BMatP= 2.40D-05
 IDIUse=1 WtCom= 1.00D+00 WtEn= 0.00D+00
 Coeff-Com: -0.394D-02 0.420D-01 0.529D-01 0.258D+00 0.651D+00
 Coeff:     -0.394D-02 0.420D-01 0.529D-01 0.258D+00 0.651D+00
 Gap=     0.344 Goal=   None    Shift=    0.000
 RMSDP=8.92D-06 MaxDP=2.47D-04 DE=-1.55D-05 OVMax= 3.92D-04

 Cycle   6  Pass 1  IDiag  1:
 E= -797.968100280741     Delta-E=       -0.000000935754 Rises=F Damp=F
 DIIS: error= 5.09D-05 at cycle   6 NSaved=   6.
 NSaved= 6 IEnMin= 6 EnMin= -797.968100280741     IErMin= 6 ErrMin= 5.09D-05
 ErrMax= 5.09D-05  0.00D+00 EMaxC= 1.00D-01 BMatC= 4.01D-07 BMatP= 1.46D-06
 IDIUse=1 WtCom= 1.00D+00 WtEn= 0.00D+00
 Coeff-Com: -0.532D-03 0.217D-03 0.512D-02 0.550D-01 0.361D+00 0.579D+00
 Coeff:     -0.532D-03 0.217D-03 0.512D-02 0.550D-01 0.361D+00 0.579D+00
 Gap=     0.344 Goal=   None    Shift=    0.000
 RMSDP=3.03D-06 MaxDP=1.23D-04 DE=-9.36D-07 OVMax= 1.60D-04

 Cycle   7  Pass 1  IDiag  1:
 E= -797.968100575857     Delta-E=       -0.000000295116 Rises=F Damp=F
 DIIS: error= 1.14D-05 at cycle   7 NSaved=   7.
 NSaved= 7 IEnMin= 7 EnMin= -797.968100575857     IErMin= 7 ErrMin= 1.14D-05
 ErrMax= 1.14D-05  0.00D+00 EMaxC= 1.00D-01 BMatC= 1.94D-08 BMatP= 4.01D-07
 IDIUse=1 WtCom= 1.00D+00 WtEn= 0.00D+00
 Coeff-Com:  0.161D-05-0.229D-02-0.115D-02 0.607D-02 0.978D-01 0.260D+00
 Coeff-Com:  0.640D+00
 Coeff:      0.161D-05-0.229D-02-0.115D-02 0.607D-02 0.978D-01 0.260D+00
 Coeff:      0.640D+00
 Gap=     0.344 Goal=   None    Shift=    0.000
 RMSDP=6.44D-07 MaxDP=1.98D-05 DE=-2.95D-07 OVMax= 2.50D-05

 Cycle   8  Pass 1  IDiag  1:
 E= -797.968100586630     Delta-E=       -0.000000010773 Rises=F Damp=F
 DIIS: error= 5.76D-06 at cycle   8 NSaved=   8.
 NSaved= 8 IEnMin= 8 EnMin= -797.968100586630     IErMin= 8 ErrMin= 5.76D-06
 ErrMax= 5.76D-06  0.00D+00 EMaxC= 1.00D-01 BMatC= 2.93D-09 BMatP= 1.94D-08
 IDIUse=1 WtCom= 1.00D+00 WtEn= 0.00D+00
 Coeff-Com:  0.392D-04-0.133D-02-0.116D-02-0.165D-02 0.245D-01 0.106D+00
 Coeff-Com:  0.359D+00 0.514D+00
 Coeff:      0.392D-04-0.133D-02-0.116D-02-0.165D-02 0.245D-01 0.106D+00
 Coeff:      0.359D+00 0.514D+00
 Gap=     0.344 Goal=   None    Shift=    0.000
 RMSDP=2.44D-07 MaxDP=6.09D-06 DE=-1.08D-08 OVMax= 1.33D-05

 Cycle   9  Pass 1  IDiag  1:
 E= -797.968100588606     Delta-E=       -0.000000001976 Rises=F Damp=F
 DIIS: error= 3.90D-07 at cycle   9 NSaved=   9.
 NSaved= 9 IEnMin= 9 EnMin= -797.968100588606     IErMin= 9 ErrMin= 3.90D-07
 ErrMax= 3.90D-07  0.00D+00 EMaxC= 1.00D-01 BMatC= 4.14D-11 BMatP= 2.93D-09
 IDIUse=1 WtCom= 1.00D+00 WtEn= 0.00D+00
 Coeff-Com:  0.107D-04-0.202D-03-0.274D-03-0.936D-03-0.109D-02 0.101D-01
 Coeff-Com:  0.503D-01 0.141D+00 0.801D+00
 Coeff:      0.107D-04-0.202D-03-0.274D-03-0.936D-03-0.109D-02 0.101D-01
 Coeff:      0.503D-01 0.141D+00 0.801D+00
 Gap=     0.344 Goal=   None    Shift=    0.000
 RMSDP=3.54D-08 MaxDP=9.22D-07 DE=-1.98D-09 OVMax= 1.25D-06

 Cycle  10  Pass 1  IDiag  1:
 E= -797.968100588633     Delta-E=       -0.000000000028 Rises=F Damp=F
 DIIS: error= 1.19D-07 at cycle  10 NSaved=  10.
 NSaved=10 IEnMin=10 EnMin= -797.968100588633     IErMin=10 ErrMin= 1.19D-07
 ErrMax= 1.19D-07  0.00D+00 EMaxC= 1.00D-01 BMatC= 2.62D-12 BMatP= 4.14D-11
 IDIUse=1 WtCom= 1.00D+00 WtEn= 0.00D+00
 Coeff-Com:  0.334D-05-0.486D-04-0.794D-04-0.335D-03-0.865D-03 0.112D-02
 Coeff-Com:  0.115D-01 0.428D-01 0.293D+00 0.653D+00
 Coeff:      0.334D-05-0.486D-04-0.794D-04-0.335D-03-0.865D-03 0.112D-02
 Coeff:      0.115D-01 0.428D-01 0.293D+00 0.653D+00
 Gap=     0.344 Goal=   None    Shift=    0.000
 RMSDP=8.76D-09 MaxDP=2.46D-07 DE=-2.77D-11 OVMax= 3.26D-07

 SCF Done:  E(RB3LYP) =  -797.968100589     A.U. after   10 cycles
            NFock= 10  Conv=0.88D-08     -V/T= 2.0027
 KE= 7.958113979440D+02 PE=-2.391729609213D+03 EE= 5.505659381667D+02
 Leave Link  502 at Thu Jun 13 11:40:15 2024, MaxMem=  1073741824 cpu:        29.4
 (Enter /apps/z_install_tree/linux-rocky8-ivybridge/gcc-12.2.0/gaussian-09-D.01-wczn3gur5lpur3omlkzwa2l5ecyxp5ef/g09/l508.exe)
 QCSCF skips out because SCF is already converged.
 Leave Link  508 at Thu Jun 13 11:40:15 2024, MaxMem=  1073741824 cpu:         0.0
 (Enter /apps/z_install_tree/linux-rocky8-ivybridge/gcc-12.2.0/gaussian-09-D.01-wczn3gur5lpur3omlkzwa2l5ecyxp5ef/g09/l701.exe)
 Compute integral first derivatives.
 ... and contract with generalized density number  0.
 R6Disp: Adding Grimme-D3 dispersion energy 1st derivatives to the gradient.
 Leave Link  701 at Thu Jun 13 11:40:15 2024, MaxMem=  1073741824 cpu:         1.6
 (Enter /apps/z_install_tree/linux-rocky8-ivybridge/gcc-12.2.0/gaussian-09-D.01-wczn3gur5lpur3omlkzwa2l5ecyxp5ef/g09/l702.exe)
 L702 exits ... SP integral derivatives will be done elsewhere.
 Leave Link  702 at Thu Jun 13 11:40:15 2024, MaxMem=  1073741824 cpu:         0.2
 (Enter /apps/z_install_tree/linux-rocky8-ivybridge/gcc-12.2.0/gaussian-09-D.01-wczn3gur5lpur3omlkzwa2l5ecyxp5ef/g09/l703.exe)
 Compute integral first derivatives, UseDBF=F ICtDFT=           0.
 Integral derivatives from FoFJK, PRISM(SPDF).
 Calling FoFJK, ICntrl=      2127 FMM=F ISym2X=0 I1Cent= 0 IOpClX= 0 NMat=1 NMatS=1 NMatT=0.
 FoFJK:  IHMeth= 1 ICntrl=    2127 DoSepK=F KAlg= 0 I1Cent=   0 FoldK=F
 IRaf=         0 NMat=   1 IRICut=       1 DoRegI=T DoRafI=F ISym2E= 0.
 FoFCou: FMM=F IPFlag=           0 FMFlag=      100000 FMFlg1=         800
         NFxFlg=           0 DoJE=F BraDBF=F KetDBF=F FulRan=T
         wScrn=  0.000000 ICntrl=    2127 IOpCl=  0 I1Cent=           0 NGrid=           0
         NMat0=    1 NMatS0=      1 NMatT0=    0 NMatD0=    1 NMtDS0=    0 NMtDT0=    0
 Symmetry not used in FoFCou.
 Leave Link  703 at Thu Jun 13 11:40:15 2024, MaxMem=  1073741824 cpu:         9.9
 (Enter /apps/z_install_tree/linux-rocky8-ivybridge/gcc-12.2.0/gaussian-09-D.01-wczn3gur5lpur3omlkzwa2l5ecyxp5ef/g09/l716.exe)
 Dipole        =-1.54752270D-02-1.57179892D-01 2.44478583D-01
 -------------------------------------------------------------------
 Center     Atomic                   Forces (Hartrees/Bohr)
 Number     Number              X              Y              Z
 -------------------------------------------------------------------
      1        6           0.012030661    0.012873113   -0.011920721
      2       17           0.002999281   -0.004675233    0.019628685
      3        9           0.013238613    0.012100808   -0.004109105
      4        9          -0.014514261    0.023067445    0.007295462
      5        9          -0.013754294   -0.043366133   -0.010894321
 -------------------------------------------------------------------
 Cartesian Forces:  Max     0.043366133 RMS     0.016716766
 Leave Link  716 at Thu Jun 13 11:40:15 2024, MaxMem=  1073741824 cpu:         0.3
 (Enter /apps/z_install_tree/linux-rocky8-ivybridge/gcc-12.2.0/gaussian-09-D.01-wczn3gur5lpur3omlkzwa2l5ecyxp5ef/g09/l103.exe)

 GradGradGradGradGradGradGradGradGradGradGradGradGradGradGradGradGradGrad
 Berny optimization.
 Using GEDIIS/GDIIS optimizer.
 FormGI is forming the generalized inverse of G from B-inverse, IUseBI=4.
 Internal  Forces:  Max     0.045331316 RMS     0.017077719
 Search for a local minimum.
 Step number   6 out of a maximum of   24
 All quantities printed in internal units (Hartrees-Bohrs-Radians)
 RMS Force = .17078D-01 SwitMx=.10000D-02 MixMth= 1
 Mixed Optimization -- RFO/linear search
 Update second derivatives using D2CorX and points    4    6    5
 DE=  3.63D-03 DEPred=-7.08D-03 R=-5.13D-01
 Trust test=-5.13D-01 RLast= 3.34D-01 DXMaxT set to 7.14D-01
 The second derivative matrix:
                          R1        R2        R3        R4        A1
           R1           0.15590
           R2           0.03058   0.19127
           R3           0.06648   0.09419   0.30189
           R4          -0.02520   0.05848   0.07389   0.27083
           A1          -0.01779  -0.00305  -0.02997  -0.00386   0.23593
           A2           0.02004   0.00130   0.02928  -0.00041   0.01395
           A3           0.01067  -0.00792   0.00975  -0.01665   0.01331
           A4           0.00074  -0.00239  -0.01720  -0.02202  -0.00985
           A5          -0.01471   0.00443  -0.00978   0.01258  -0.00882
           A6           0.00107   0.00817   0.01364   0.03168   0.00291
           D1           0.04002  -0.00562   0.01562  -0.04892   0.00601
           D2          -0.00381   0.00131  -0.00297   0.00399  -0.00174
           D3           0.00005  -0.01778  -0.02988  -0.03244   0.00345
           D4           0.00386  -0.01909  -0.02691  -0.03643   0.00519
                          A2        A3        A4        A5        A6
           A2           0.22233
           A3          -0.01560   0.24075
           A4           0.01677   0.01392   0.24409
           A5           0.01704   0.00729  -0.01253   0.24099
           A6          -0.00144  -0.00710  -0.00464   0.00418   0.25667
           D1           0.00530   0.00429   0.01076  -0.00858  -0.01741
           D2           0.00110   0.00050  -0.00108  -0.00025   0.00125
           D3           0.00603   0.00610   0.00259  -0.00790  -0.01020
           D4           0.00493   0.00559   0.00367  -0.00766  -0.01145
                          D1        D2        D3        D4
           D1           0.02210
           D2          -0.00210   0.00263
           D3           0.00455  -0.00008   0.00906
           D4           0.00665  -0.00041   0.00684   0.00954
 ITU= -1  0  1  1  1  0
 Use linear search instead of GDIIS.
 Energy rises -- skip Quadratic/GDIIS search.
 Quartic linear search produced a step of -0.62301.
 Iteration  1 RMS(Cart)=  0.05927973 RMS(Int)=  0.00068995
 Iteration  2 RMS(Cart)=  0.00063373 RMS(Int)=  0.00033572
 Iteration  3 RMS(Cart)=  0.00000018 RMS(Int)=  0.00033572
 ITry= 1 IFail=0 DXMaxC= 1.24D-01 DCOld= 1.00D+10 DXMaxT= 7.14D-01 DXLimC= 3.00D+00 Rises=T
 Variable       Old X    -DE/DX   Delta X   Delta X   Delta X     New X
                                 (Linear)    (Quad)   (Total)
    R1        3.26133   0.02015   0.13139   0.00000   0.13139   3.39272
    R2        2.52963  -0.01346  -0.01811   0.00000  -0.01811   2.51153
    R3        2.57919  -0.02451  -0.01712   0.00000  -0.01712   2.56207
    R4        2.65321  -0.04533  -0.13250   0.00000  -0.13250   2.52071
    A1        1.91702   0.00297   0.01180   0.00000   0.01194   1.92896
    A2        1.88511   0.00912   0.03470   0.00000   0.03466   1.91977
    A3        1.89821   0.00833   0.01658   0.00000   0.01629   1.91449
    A4        1.89510   0.00605   0.00931   0.00000   0.01023   1.90533
    A5        1.93782  -0.01164  -0.03204   0.00000  -0.03188   1.90595
    A6        1.92989  -0.01426  -0.04128   0.00000  -0.04108   1.88880
    D1        2.07800   0.01208   0.04166   0.00000   0.04130   2.11930
    D2       -2.11125  -0.00183  -0.00484   0.00000  -0.00513  -2.11638
    D3        2.06717   0.00781   0.02716   0.00000   0.02741   2.09458
    D4       -2.10476   0.00964   0.03200   0.00000   0.03254  -2.07222
         Item               Value     Threshold  Converged?
 Maximum Force            0.045331     0.000450     NO 
 RMS     Force            0.017078     0.000300     NO 
 Maximum Displacement     0.124067     0.001800     NO 
 RMS     Displacement     0.059192     0.001200     NO 
 Predicted change in Energy=-1.895934D-03
 GradGradGradGradGradGradGradGradGradGradGradGradGradGradGradGradGradGrad

 Leave Link  103 at Thu Jun 13 11:40:16 2024, MaxMem=  1073741824 cpu:         0.5
 (Enter /apps/z_install_tree/linux-rocky8-ivybridge/gcc-12.2.0/gaussian-09-D.01-wczn3gur5lpur3omlkzwa2l5ecyxp5ef/g09/l202.exe)
                          Input orientation:                          
 ---------------------------------------------------------------------
 Center     Atomic      Atomic             Coordinates (Angstroms)
 Number     Number       Type             X           Y           Z
 ---------------------------------------------------------------------
      1          6           0       50.052685   35.528103   32.670485
      2         17           0       50.373455   34.873452   34.311161
      3          9           0       48.773195   35.369836   32.347667
      4          9           0       50.824532   34.888998   31.757270
      5          9           0       50.356134   36.826611   32.637417
 ---------------------------------------------------------------------
                    Distance matrix (angstroms):
                    1          2          3          4          5
     1  C    0.000000
     2  Cl   1.795349   0.000000
     3  F    1.329042   2.581189   0.000000
     4  F    1.355789   2.593467   2.188094   0.000000
     5  F    1.333903   2.572265   2.170678   2.179081   0.000000
 Symmetry turned off by external request.
 Stoichiometry    CClF3
 Framework group  C1[X(CClF3)]
 Deg. of freedom     9
 Full point group                 C1      NOp   1
 Rotational constants (GHZ):      5.6012761      3.2274098      3.2103326
 Leave Link  202 at Thu Jun 13 11:40:16 2024, MaxMem=  1073741824 cpu:         0.1
 (Enter /apps/z_install_tree/linux-rocky8-ivybridge/gcc-12.2.0/gaussian-09-D.01-wczn3gur5lpur3omlkzwa2l5ecyxp5ef/g09/l301.exe)
 Basis read from rwf:  (5D, 7F)
 No pseudopotential information found on rwf file.
   143 basis functions,   227 primitive gaussians,   153 cartesian basis functions
    25 alpha electrons       25 beta electrons
       nuclear repulsion energy       247.1320298901 Hartrees.
 IExCor=  402 DFT=T Ex+Corr=B3LYP ExCW=0 ScaHFX=  0.200000
 ScaDFX=  0.800000  0.720000  1.000000  0.810000 ScalE2=  1.000000  1.000000
 IRadAn=      5 IRanWt=     -1 IRanGd=            0 ICorTp=0 IEmpDi=131
 NAtoms=    5 NActive=    5 NUniq=    5 SFac= 1.00D+00 NAtFMM=   60 NAOKFM=F Big=F
 Integral buffers will be    131072 words long.
 Raffenetti 2 integral format.
 Two-electron integral symmetry is turned off.
 R6Disp:  Grimme-D3 Dispersion energy=       -0.0013614854 Hartrees.
 Nuclear repulsion after empirical dispersion term =      247.1306684047 Hartrees.
 No density basis found on file   724.
 Leave Link  301 at Thu Jun 13 11:40:16 2024, MaxMem=  1073741824 cpu:         0.7
 (Enter /apps/z_install_tree/linux-rocky8-ivybridge/gcc-12.2.0/gaussian-09-D.01-wczn3gur5lpur3omlkzwa2l5ecyxp5ef/g09/l302.exe)
 NPDir=0 NMtPBC=     1 NCelOv=     1 NCel=       1 NClECP=     1 NCelD=      1
         NCelK=      1 NCelE2=     1 NClLst=     1 CellRange=     0.0.
 One-electron integrals computed using PRISM.
 NBasis=   143 RedAO= T EigKep=  1.12D-03  NBF=   143
 NBsUse=   143 1.00D-06 EigRej= -1.00D+00 NBFU=   143
 Precomputing XC quadrature grid using
 IXCGrd= 4 IRadAn=           5 IRanWt=          -1 IRanGd=           0 AccXCQ= 0.00D+00.
 Generated NRdTot=       0 NPtTot=           0 NUsed=           0 NTot=          32
 NSgBfM=   153   153   153   153   153 MxSgAt=     5 MxSgA2=     5.
 Leave Link  302 at Thu Jun 13 11:40:16 2024, MaxMem=  1073741824 cpu:         1.9
 (Enter /apps/z_install_tree/linux-rocky8-ivybridge/gcc-12.2.0/gaussian-09-D.01-wczn3gur5lpur3omlkzwa2l5ecyxp5ef/g09/l303.exe)
 DipDrv:  MaxL=1.
 Leave Link  303 at Thu Jun 13 11:40:16 2024, MaxMem=  1073741824 cpu:         0.3
 (Enter /apps/z_install_tree/linux-rocky8-ivybridge/gcc-12.2.0/gaussian-09-D.01-wczn3gur5lpur3omlkzwa2l5ecyxp5ef/g09/l401.exe)
 Lowest energy guess from the checkpoint file:  "chlorotrifluoromethane.chk"
 B after Tr=    -0.030738    0.080620   -0.051056
         Rot=    1.000000   -0.000593   -0.000214    0.000022 Ang=  -0.07 deg.
 Guess basis will be translated and rotated to current coordinates.
 B after Tr=     0.053359   -0.126218    0.073116
         Rot=    0.999999    0.000942    0.000387   -0.000025 Ang=   0.12 deg.
 Guess basis will be translated and rotated to current coordinates.
 CkInt1:  FT= 3.77D-01
 Max alpha theta=  3.196 degrees.
 JPrj=2 DoOrth=T DoCkMO=T.
 Leave Link  401 at Thu Jun 13 11:40:16 2024, MaxMem=  1073741824 cpu:         1.5
 (Enter /apps/z_install_tree/linux-rocky8-ivybridge/gcc-12.2.0/gaussian-09-D.01-wczn3gur5lpur3omlkzwa2l5ecyxp5ef/g09/l502.exe)
 Closed shell SCF:
 Using DIIS extrapolation, IDIIS=  1040.
 Two-electron integral symmetry not used.
 Keep R1 ints in memory in canonical form, NReq=54920448.
 IVT=       85437 IEndB=       85437 NGot=  1073741824 MDV=  1020647432
 LenX=  1020647432 LenY=  1020623582
 Requested convergence on RMS density matrix=1.00D-08 within  96 cycles.
 Requested convergence on MAX density matrix=1.00D-06.
 Requested convergence on             energy=1.00D-06.
 No special actions if energy rises.
 FoFCou: FMM=F IPFlag=           0 FMFlag=           0 FMFlg1=           0
         NFxFlg=           0 DoJE=F BraDBF=F KetDBF=F FulRan=T
         wScrn=  0.000000 ICntrl=     600 IOpCl=  0 I1Cent=           0 NGrid=           0
         NMat0=    1 NMatS0=  10296 NMatT0=    0 NMatD0=    1 NMtDS0=    0 NMtDT0=    0
 Symmetry not used in FoFCou.

 Cycle   1  Pass 1  IDiag  1:
 E= -797.974205677874    
 DIIS: error= 2.87D-04 at cycle   1 NSaved=   1.
 NSaved= 1 IEnMin= 1 EnMin= -797.974205677874     IErMin= 1 ErrMin= 2.87D-04
 ErrMax= 2.87D-04  0.00D+00 EMaxC= 1.00D-01 BMatC= 2.03D-05 BMatP= 2.03D-05
 IDIUse=3 WtCom= 9.97D-01 WtEn= 2.87D-03
 Coeff-Com:  0.100D+01
 Coeff-En:   0.100D+01
 Coeff:      0.100D+01
 Gap=   101.407 Goal=   None    Shift=    0.000
 RMSDP=4.62D-05 MaxDP=9.67D-04              OVMax= 8.32D-04

 Cycle   2  Pass 1  IDiag  1:
 E= -797.974217014850     Delta-E=       -0.000011336976 Rises=F Damp=F
 DIIS: error= 1.11D-04 at cycle   2 NSaved=   2.
 NSaved= 2 IEnMin= 2 EnMin= -797.974217014850     IErMin= 2 ErrMin= 1.11D-04
 ErrMax= 1.11D-04  0.00D+00 EMaxC= 1.00D-01 BMatC= 2.47D-06 BMatP= 2.03D-05
 IDIUse=3 WtCom= 9.99D-01 WtEn= 1.11D-03
 Coeff-Com:  0.156D+00 0.844D+00
 Coeff-En:   0.000D+00 0.100D+01
 Coeff:      0.155D+00 0.845D+00
 Gap=     0.323 Goal=   None    Shift=    0.000
 RMSDP=9.87D-06 MaxDP=4.16D-04 DE=-1.13D-05 OVMax= 4.17D-04

 Cycle   3  Pass 1  IDiag  1:
 E= -797.974216587645     Delta-E=        0.000000427205 Rises=F Damp=F
 DIIS: error= 1.09D-04 at cycle   3 NSaved=   3.
 NSaved= 3 IEnMin= 2 EnMin= -797.974217014850     IErMin= 3 ErrMin= 1.09D-04
 ErrMax= 1.09D-04  0.00D+00 EMaxC= 1.00D-01 BMatC= 3.15D-06 BMatP= 2.47D-06
 IDIUse=3 WtCom= 4.90D-01 WtEn= 5.10D-01
 Coeff-Com: -0.988D-02 0.533D+00 0.477D+00
 Coeff-En:   0.000D+00 0.559D+00 0.441D+00
 Coeff:     -0.484D-02 0.546D+00 0.459D+00
 Gap=     0.323 Goal=   None    Shift=    0.000
 RMSDP=5.28D-06 MaxDP=2.04D-04 DE= 4.27D-07 OVMax= 2.15D-04

 Cycle   4  Pass 1  IDiag  1:
 E= -797.974218314677     Delta-E=       -0.000001727033 Rises=F Damp=F
 DIIS: error= 7.94D-06 at cycle   4 NSaved=   4.
 NSaved= 4 IEnMin= 4 EnMin= -797.974218314677     IErMin= 4 ErrMin= 7.94D-06
 ErrMax= 7.94D-06  0.00D+00 EMaxC= 1.00D-01 BMatC= 1.29D-08 BMatP= 2.47D-06
 IDIUse=1 WtCom= 1.00D+00 WtEn= 0.00D+00
 Coeff-Com: -0.549D-02 0.187D+00 0.167D+00 0.652D+00
 Coeff:     -0.549D-02 0.187D+00 0.167D+00 0.652D+00
 Gap=     0.323 Goal=   None    Shift=    0.000
 RMSDP=6.17D-07 MaxDP=1.54D-05 DE=-1.73D-06 OVMax= 2.90D-05

 Cycle   5  Pass 1  IDiag  1:
 E= -797.974218321675     Delta-E=       -0.000000006997 Rises=F Damp=F
 DIIS: error= 4.14D-06 at cycle   5 NSaved=   5.
 NSaved= 5 IEnMin= 5 EnMin= -797.974218321675     IErMin= 5 ErrMin= 4.14D-06
 ErrMax= 4.14D-06  0.00D+00 EMaxC= 1.00D-01 BMatC= 2.54D-09 BMatP= 1.29D-08
 IDIUse=1 WtCom= 1.00D+00 WtEn= 0.00D+00
 Coeff-Com: -0.194D-02 0.402D-01 0.380D-01 0.319D+00 0.605D+00
 Coeff:     -0.194D-02 0.402D-01 0.380D-01 0.319D+00 0.605D+00
 Gap=     0.323 Goal=   None    Shift=    0.000
 RMSDP=2.53D-07 MaxDP=5.87D-06 DE=-7.00D-09 OVMax= 1.61D-05

 Cycle   6  Pass 1  IDiag  1:
 E= -797.974218323182     Delta-E=       -0.000000001507 Rises=F Damp=F
 DIIS: error= 8.60D-07 at cycle   6 NSaved=   6.
 NSaved= 6 IEnMin= 6 EnMin= -797.974218323182     IErMin= 6 ErrMin= 8.60D-07
 ErrMax= 8.60D-07  0.00D+00 EMaxC= 1.00D-01 BMatC= 1.84D-10 BMatP= 2.54D-09
 IDIUse=1 WtCom= 1.00D+00 WtEn= 0.00D+00
 Coeff-Com: -0.291D-03 0.521D-04 0.822D-03 0.826D-01 0.277D+00 0.640D+00
 Coeff:     -0.291D-03 0.521D-04 0.822D-03 0.826D-01 0.277D+00 0.640D+00
 Gap=     0.323 Goal=   None    Shift=    0.000
 RMSDP=8.27D-08 MaxDP=3.33D-06 DE=-1.51D-09 OVMax= 3.68D-06

 Cycle   7  Pass 1  IDiag  1:
 E= -797.974218323320     Delta-E=       -0.000000000138 Rises=F Damp=F
 DIIS: error= 1.58D-07 at cycle   7 NSaved=   7.
 NSaved= 7 IEnMin= 7 EnMin= -797.974218323320     IErMin= 7 ErrMin= 1.58D-07
 ErrMax= 1.58D-07  0.00D+00 EMaxC= 1.00D-01 BMatC= 7.63D-12 BMatP= 1.84D-10
 IDIUse=1 WtCom= 1.00D+00 WtEn= 0.00D+00
 Coeff-Com: -0.248D-04-0.144D-02-0.134D-02 0.134D-01 0.577D-01 0.237D+00
 Coeff-Com:  0.695D+00
 Coeff:     -0.248D-04-0.144D-02-0.134D-02 0.134D-01 0.577D-01 0.237D+00
 Coeff:      0.695D+00
 Gap=     0.323 Goal=   None    Shift=    0.000
 RMSDP=1.48D-08 MaxDP=3.94D-07 DE=-1.38D-10 OVMax= 6.43D-07

 Cycle   8  Pass 1  IDiag  1:
 E= -797.974218323336     Delta-E=       -0.000000000016 Rises=F Damp=F
 DIIS: error= 1.20D-07 at cycle   8 NSaved=   8.
 NSaved= 8 IEnMin= 8 EnMin= -797.974218323336     IErMin= 8 ErrMin= 1.20D-07
 ErrMax= 1.20D-07  0.00D+00 EMaxC= 1.00D-01 BMatC= 1.40D-12 BMatP= 7.63D-12
 IDIUse=1 WtCom= 1.00D+00 WtEn= 0.00D+00
 Coeff-Com:  0.103D-04-0.997D-03-0.100D-02 0.165D-02 0.135D-01 0.908D-01
 Coeff-Com:  0.378D+00 0.519D+00
 Coeff:      0.103D-04-0.997D-03-0.100D-02 0.165D-02 0.135D-01 0.908D-01
 Coeff:      0.378D+00 0.519D+00
 Gap=     0.323 Goal=   None    Shift=    0.000
 RMSDP=7.06D-09 MaxDP=2.29D-07 DE=-1.59D-11 OVMax= 4.09D-07

 SCF Done:  E(RB3LYP) =  -797.974218323     A.U. after    8 cycles
            NFock=  8  Conv=0.71D-08     -V/T= 2.0026
 KE= 7.958721019709D+02 PE=-2.391200514680D+03 EE= 5.502235259812D+02
 Leave Link  502 at Thu Jun 13 11:40:18 2024, MaxMem=  1073741824 cpu:        24.4
 (Enter /apps/z_install_tree/linux-rocky8-ivybridge/gcc-12.2.0/gaussian-09-D.01-wczn3gur5lpur3omlkzwa2l5ecyxp5ef/g09/l508.exe)
 QCSCF skips out because SCF is already converged.
 Leave Link  508 at Thu Jun 13 11:40:18 2024, MaxMem=  1073741824 cpu:         0.0
 (Enter /apps/z_install_tree/linux-rocky8-ivybridge/gcc-12.2.0/gaussian-09-D.01-wczn3gur5lpur3omlkzwa2l5ecyxp5ef/g09/l701.exe)
 Compute integral first derivatives.
 ... and contract with generalized density number  0.
 R6Disp: Adding Grimme-D3 dispersion energy 1st derivatives to the gradient.
 Leave Link  701 at Thu Jun 13 11:40:18 2024, MaxMem=  1073741824 cpu:         1.8
 (Enter /apps/z_install_tree/linux-rocky8-ivybridge/gcc-12.2.0/gaussian-09-D.01-wczn3gur5lpur3omlkzwa2l5ecyxp5ef/g09/l702.exe)
 L702 exits ... SP integral derivatives will be done elsewhere.
 Leave Link  702 at Thu Jun 13 11:40:18 2024, MaxMem=  1073741824 cpu:         0.2
 (Enter /apps/z_install_tree/linux-rocky8-ivybridge/gcc-12.2.0/gaussian-09-D.01-wczn3gur5lpur3omlkzwa2l5ecyxp5ef/g09/l703.exe)
 Compute integral first derivatives, UseDBF=F ICtDFT=           0.
 Integral derivatives from FoFJK, PRISM(SPDF).
 Calling FoFJK, ICntrl=      2127 FMM=F ISym2X=0 I1Cent= 0 IOpClX= 0 NMat=1 NMatS=1 NMatT=0.
 FoFJK:  IHMeth= 1 ICntrl=    2127 DoSepK=F KAlg= 0 I1Cent=   0 FoldK=F
 IRaf=         0 NMat=   1 IRICut=       1 DoRegI=T DoRafI=F ISym2E= 0.
 FoFCou: FMM=F IPFlag=           0 FMFlag=      100000 FMFlg1=         800
         NFxFlg=           0 DoJE=F BraDBF=F KetDBF=F FulRan=T
         wScrn=  0.000000 ICntrl=    2127 IOpCl=  0 I1Cent=           0 NGrid=           0
         NMat0=    1 NMatS0=      1 NMatT0=    0 NMatD0=    1 NMtDS0=    0 NMtDT0=    0
 Symmetry not used in FoFCou.
 Leave Link  703 at Thu Jun 13 11:40:19 2024, MaxMem=  1073741824 cpu:         9.9
 (Enter /apps/z_install_tree/linux-rocky8-ivybridge/gcc-12.2.0/gaussian-09-D.01-wczn3gur5lpur3omlkzwa2l5ecyxp5ef/g09/l716.exe)
 Dipole        =-1.05535154D-02-4.66950191D-02 1.76836102D-01
 -------------------------------------------------------------------
 Center     Atomic                   Forces (Hartrees/Bohr)
 Number     Number              X              Y              Z
 -------------------------------------------------------------------
      1        6           0.011059635   -0.004301588   -0.002960507
      2       17          -0.001692387    0.001674361   -0.007218775
      3        9           0.004348451   -0.000105794   -0.000200028
      4        9          -0.011522543    0.007347677    0.011361010
      5        9          -0.002193156   -0.004614655   -0.000981700
 -------------------------------------------------------------------
 Cartesian Forces:  Max     0.011522543 RMS     0.006160200
 Leave Link  716 at Thu Jun 13 11:40:19 2024, MaxMem=  1073741824 cpu:         0.3
 (Enter /apps/z_install_tree/linux-rocky8-ivybridge/gcc-12.2.0/gaussian-09-D.01-wczn3gur5lpur3omlkzwa2l5ecyxp5ef/g09/l103.exe)

 GradGradGradGradGradGradGradGradGradGradGradGradGradGradGradGradGradGrad
 Berny optimization.
 Using GEDIIS/GDIIS optimizer.
 FormGI is forming the generalized inverse of G from B-inverse, IUseBI=4.
 Internal  Forces:  Max     0.017675754 RMS     0.005525071
 Search for a local minimum.
 Step number   7 out of a maximum of   24
 All quantities printed in internal units (Hartrees-Bohrs-Radians)
 RMS Force = .55251D-02 SwitMx=.10000D-02 MixMth= 1
 Mixed Optimization -- RFO/linear search
 Update second derivatives using D2CorX and points    4    6    5    7
 The second derivative matrix:
                          R1        R2        R3        R4        A1
           R1           0.15021
           R2           0.03735   0.19486
           R3           0.08943   0.10559   0.34443
           R4          -0.01037   0.07810   0.10598   0.35449
           A1          -0.01321   0.00084  -0.01932  -0.00144   0.23624
           A2           0.02027   0.00479   0.03769  -0.00264   0.01295
           A3           0.00452  -0.01427  -0.00407  -0.03601   0.01206
           A4           0.00046  -0.00190  -0.01355  -0.02492  -0.00917
           A5          -0.01364   0.00457  -0.01142   0.02471  -0.00786
           A6           0.00296   0.00851   0.01060   0.04662   0.00334
           D1           0.02969  -0.01173   0.00433  -0.06283   0.00662
           D2          -0.00423   0.00132  -0.00382   0.00503  -0.00202
           D3          -0.00966  -0.02122  -0.04109  -0.03880   0.00162
           D4          -0.00543  -0.02255  -0.03727  -0.04382   0.00364
                          A2        A3        A4        A5        A6
           A2           0.21949
           A3          -0.01514   0.24592
           A4           0.01693   0.01398   0.24448
           A5           0.01856   0.00455  -0.01309   0.24156
           A6          -0.00025  -0.01009  -0.00544   0.00539   0.25866
           D1           0.00688   0.00747   0.01037  -0.01162  -0.02004
           D2           0.00082   0.00048  -0.00128   0.00007   0.00170
           D3           0.00444   0.00893   0.00124  -0.00777  -0.00925
           D4           0.00362   0.00845   0.00252  -0.00785  -0.01094
                          D1        D2        D3        D4
           D1           0.02063
           D2          -0.00210   0.00269
           D3           0.00476   0.00018   0.01063
           D4           0.00686  -0.00020   0.00815   0.01066
 ITU=  0 -1  0  1  1  1  0
 Use linear search instead of GDIIS.
     Eigenvalues ---    0.07324   0.08731   0.10244   0.13075   0.13838
     Eigenvalues ---    0.22817   0.24973   0.33249   0.54290
 RFO step:  Lambda=-1.04254486D-03 EMin= 7.32396495D-02
 Quartic linear search produced a step of -0.00390.
 Iteration  1 RMS(Cart)=  0.01350210 RMS(Int)=  0.00006883
 Iteration  2 RMS(Cart)=  0.00006006 RMS(Int)=  0.00002518
 Iteration  3 RMS(Cart)=  0.00000000 RMS(Int)=  0.00002518
 ITry= 1 IFail=0 DXMaxC= 3.14D-02 DCOld= 1.00D+10 DXMaxT= 7.14D-01 DXLimC= 3.00D+00 Rises=F
 Variable       Old X    -DE/DX   Delta X   Delta X   Delta X     New X
                                 (Linear)    (Quad)   (Total)
    R1        3.39272  -0.00751   0.00031  -0.02399  -0.02368   3.36903
    R2        2.51153  -0.00413  -0.00004   0.01152   0.01147   2.52300
    R3        2.56207  -0.01768  -0.00004  -0.04603  -0.04607   2.51600
    R4        2.52071  -0.00497  -0.00031  -0.00269  -0.00300   2.51771
    A1        1.92896   0.00005   0.00003  -0.00185  -0.00183   1.92712
    A2        1.91977  -0.00095   0.00008  -0.00065  -0.00064   1.91913
    A3        1.91449   0.00212   0.00004   0.00950   0.00952   1.92401
    A4        1.90533  -0.00157   0.00002  -0.00912  -0.00910   1.89623
    A5        1.90595  -0.00092  -0.00008  -0.00357  -0.00363   1.90231
    A6        1.88880   0.00127  -0.00010   0.00575   0.00562   1.89443
    D1        2.11930  -0.00154   0.00010  -0.00853  -0.00841   2.11090
    D2       -2.11638  -0.00081  -0.00001  -0.00140  -0.00139  -2.11777
    D3        2.09458   0.00086   0.00006   0.00825   0.00836   2.10294
    D4       -2.07222   0.00167   0.00007   0.00965   0.00974  -2.06248
         Item               Value     Threshold  Converged?
 Maximum Force            0.017676     0.000450     NO 
 RMS     Force            0.005525     0.000300     NO 
 Maximum Displacement     0.031428     0.001800     NO 
 RMS     Displacement     0.013516     0.001200     NO 
 Predicted change in Energy=-5.229192D-04
 Lowest energy point so far.  Saving SCF results.
 GradGradGradGradGradGradGradGradGradGradGradGradGradGradGradGradGradGrad

 Leave Link  103 at Thu Jun 13 11:40:19 2024, MaxMem=  1073741824 cpu:         0.5
 (Enter /apps/z_install_tree/linux-rocky8-ivybridge/gcc-12.2.0/gaussian-09-D.01-wczn3gur5lpur3omlkzwa2l5ecyxp5ef/g09/l202.exe)
                          Input orientation:                          
 ---------------------------------------------------------------------
 Center     Atomic      Atomic             Coordinates (Angstroms)
 Number     Number       Type             X           Y           Z
 ---------------------------------------------------------------------
      1          6           0       50.060280   35.528063   32.672185
      2         17           0       50.374369   34.871519   34.299678
      3          9           0       48.776160   35.366190   32.344522
      4          9           0       50.811885   34.894954   31.773901
      5          9           0       50.357307   36.826274   32.633714
 ---------------------------------------------------------------------
                    Distance matrix (angstroms):
                    1          2          3          4          5
     1  C    0.000000
     2  Cl   1.782816   0.000000
     3  F    1.335114   2.573248   0.000000
     4  F    1.331409   2.563497   2.166067   0.000000
     5  F    1.332313   2.568422   2.171522   2.162387   0.000000
 Symmetry turned off by external request.
 Stoichiometry    CClF3
 Framework group  C1[X(CClF3)]
 Deg. of freedom     9
 Full point group                 C1      NOp   1
 Rotational constants (GHZ):      5.6666050      3.2592076      3.2500482
 Leave Link  202 at Thu Jun 13 11:40:19 2024, MaxMem=  1073741824 cpu:         0.1
 (Enter /apps/z_install_tree/linux-rocky8-ivybridge/gcc-12.2.0/gaussian-09-D.01-wczn3gur5lpur3omlkzwa2l5ecyxp5ef/g09/l301.exe)
 Basis read from rwf:  (5D, 7F)
 No pseudopotential information found on rwf file.
   143 basis functions,   227 primitive gaussians,   153 cartesian basis functions
    25 alpha electrons       25 beta electrons
       nuclear repulsion energy       248.5093728698 Hartrees.
 IExCor=  402 DFT=T Ex+Corr=B3LYP ExCW=0 ScaHFX=  0.200000
 ScaDFX=  0.800000  0.720000  1.000000  0.810000 ScalE2=  1.000000  1.000000
 IRadAn=      5 IRanWt=     -1 IRanGd=            0 ICorTp=0 IEmpDi=131
 NAtoms=    5 NActive=    5 NUniq=    5 SFac= 1.00D+00 NAtFMM=   60 NAOKFM=F Big=F
 Integral buffers will be    131072 words long.
 Raffenetti 2 integral format.
 Two-electron integral symmetry is turned off.
 R6Disp:  Grimme-D3 Dispersion energy=       -0.0013099125 Hartrees.
 Nuclear repulsion after empirical dispersion term =      248.5080629573 Hartrees.
 No density basis found on file   724.
 Leave Link  301 at Thu Jun 13 11:40:19 2024, MaxMem=  1073741824 cpu:         0.7
 (Enter /apps/z_install_tree/linux-rocky8-ivybridge/gcc-12.2.0/gaussian-09-D.01-wczn3gur5lpur3omlkzwa2l5ecyxp5ef/g09/l302.exe)
 NPDir=0 NMtPBC=     1 NCelOv=     1 NCel=       1 NClECP=     1 NCelD=      1
         NCelK=      1 NCelE2=     1 NClLst=     1 CellRange=     0.0.
 One-electron integrals computed using PRISM.
 NBasis=   143 RedAO= T EigKep=  1.09D-03  NBF=   143
 NBsUse=   143 1.00D-06 EigRej= -1.00D+00 NBFU=   143
 Precomputing XC quadrature grid using
 IXCGrd= 4 IRadAn=           5 IRanWt=          -1 IRanGd=           0 AccXCQ= 0.00D+00.
 Generated NRdTot=       0 NPtTot=           0 NUsed=           0 NTot=          32
 NSgBfM=   153   153   153   153   153 MxSgAt=     5 MxSgA2=     5.
 Leave Link  302 at Thu Jun 13 11:40:19 2024, MaxMem=  1073741824 cpu:         1.9
 (Enter /apps/z_install_tree/linux-rocky8-ivybridge/gcc-12.2.0/gaussian-09-D.01-wczn3gur5lpur3omlkzwa2l5ecyxp5ef/g09/l303.exe)
 DipDrv:  MaxL=1.
 Leave Link  303 at Thu Jun 13 11:40:19 2024, MaxMem=  1073741824 cpu:         0.3
 (Enter /apps/z_install_tree/linux-rocky8-ivybridge/gcc-12.2.0/gaussian-09-D.01-wczn3gur5lpur3omlkzwa2l5ecyxp5ef/g09/l401.exe)
 Initial guess from the checkpoint file:  "chlorotrifluoromethane.chk"
 B after Tr=    -0.030688    0.051907   -0.014207
         Rot=    1.000000   -0.000452   -0.000263   -0.000020 Ang=  -0.06 deg.
 Guess basis will be translated and rotated to current coordinates.
 JPrj=2 DoOrth=T DoCkMO=T.
 Generating alternative initial guess.
 ExpMin= 4.38D-02 ExpMax= 1.06D+05 ExpMxC= 3.62D+03 IAcc=2 IRadAn=         4 AccDes= 0.00D+00
 Harris functional with IExCor=  402 and IRadAn=       4 diagonalized for initial guess.
 HarFok:  IExCor=  402 AccDes= 0.00D+00 IRadAn=         4 IDoV= 1 UseB2=F ITyADJ=14
 ICtDFT=  3500011 ScaDFX=  1.000000  1.000000  1.000000  1.000000
 FoFCou: FMM=F IPFlag=           0 FMFlag=      100000 FMFlg1=           0
         NFxFlg=           0 DoJE=T BraDBF=F KetDBF=T FulRan=T
         wScrn=  0.000000 ICntrl=     500 IOpCl=  0 I1Cent=   200000004 NGrid=           0
         NMat0=    1 NMatS0=      1 NMatT0=    0 NMatD0=    1 NMtDS0=    0 NMtDT0=    0
 Symmetry not used in FoFCou.
 Harris En= -797.909184777087    
 Leave Link  401 at Thu Jun 13 11:40:19 2024, MaxMem=  1073741824 cpu:         3.0
 (Enter /apps/z_install_tree/linux-rocky8-ivybridge/gcc-12.2.0/gaussian-09-D.01-wczn3gur5lpur3omlkzwa2l5ecyxp5ef/g09/l502.exe)
 Closed shell SCF:
 Using DIIS extrapolation, IDIIS=  1040.
 Two-electron integral symmetry not used.
 Keep R1 ints in memory in canonical form, NReq=54920448.
 IVT=       85437 IEndB=       85437 NGot=  1073741824 MDV=  1020647432
 LenX=  1020647432 LenY=  1020623582
 Requested convergence on RMS density matrix=1.00D-08 within  96 cycles.
 Requested convergence on MAX density matrix=1.00D-06.
 Requested convergence on             energy=1.00D-06.
 No special actions if energy rises.
 FoFCou: FMM=F IPFlag=           0 FMFlag=           0 FMFlg1=           0
         NFxFlg=           0 DoJE=F BraDBF=F KetDBF=F FulRan=T
         wScrn=  0.000000 ICntrl=     600 IOpCl=  0 I1Cent=           0 NGrid=           0
         NMat0=    1 NMatS0=  10296 NMatT0=    0 NMatD0=    1 NMtDS0=    0 NMtDT0=    0
 Symmetry not used in FoFCou.

 Cycle   1  Pass 1  IDiag  1:
 E= -797.974344113146    
 DIIS: error= 1.74D-03 at cycle   1 NSaved=   1.
 NSaved= 1 IEnMin= 1 EnMin= -797.974344113146     IErMin= 1 ErrMin= 1.74D-03
 ErrMax= 1.74D-03  0.00D+00 EMaxC= 1.00D-01 BMatC= 4.58D-04 BMatP= 4.58D-04
 IDIUse=3 WtCom= 9.83D-01 WtEn= 1.74D-02
 Coeff-Com:  0.100D+01
 Coeff-En:   0.100D+01
 Coeff:      0.100D+01
 Gap=     0.657 Goal=   None    Shift=    0.000
 GapD=    0.657 DampG=2.000 DampE=1.000 DampFc=2.0000 IDamp=-1.
 RMSDP=1.58D-04 MaxDP=3.67D-03              OVMax= 4.69D-03

 Cycle   2  Pass 1  IDiag  1:
 E= -797.974738598746     Delta-E=       -0.000394485600 Rises=F Damp=F
 DIIS: error= 5.45D-04 at cycle   2 NSaved=   2.
 NSaved= 2 IEnMin= 2 EnMin= -797.974738598746     IErMin= 2 ErrMin= 5.45D-04
 ErrMax= 5.45D-04  0.00D+00 EMaxC= 1.00D-01 BMatC= 5.93D-05 BMatP= 4.58D-04
 IDIUse=3 WtCom= 9.95D-01 WtEn= 5.45D-03
 Coeff-Com:  0.172D+00 0.828D+00
 Coeff-En:   0.000D+00 0.100D+01
 Coeff:      0.171D+00 0.829D+00
 Gap=     0.328 Goal=   None    Shift=    0.000
 RMSDP=5.17D-05 MaxDP=1.89D-03 DE=-3.94D-04 OVMax= 2.36D-03

 Cycle   3  Pass 1  IDiag  1:
 E= -797.974735397385     Delta-E=        0.000003201361 Rises=F Damp=F
 DIIS: error= 6.49D-04 at cycle   3 NSaved=   3.
 NSaved= 3 IEnMin= 2 EnMin= -797.974738598746     IErMin= 2 ErrMin= 5.45D-04
 ErrMax= 6.49D-04  0.00D+00 EMaxC= 1.00D-01 BMatC= 6.13D-05 BMatP= 5.93D-05
 IDIUse=3 WtCom= 9.94D-01 WtEn= 6.49D-03
 Coeff-Com: -0.369D-02 0.505D+00 0.499D+00
 Coeff-En:   0.000D+00 0.519D+00 0.481D+00
 Coeff:     -0.366D-02 0.505D+00 0.499D+00
 Gap=     0.328 Goal=   None    Shift=    0.000
 RMSDP=3.04D-05 MaxDP=8.34D-04 DE= 3.20D-06 OVMax= 1.32D-03

 Cycle   4  Pass 1  IDiag  1:
 E= -797.974774126586     Delta-E=       -0.000038729201 Rises=F Damp=F
 DIIS: error= 7.65D-05 at cycle   4 NSaved=   4.
 NSaved= 4 IEnMin= 4 EnMin= -797.974774126586     IErMin= 4 ErrMin= 7.65D-05
 ErrMax= 7.65D-05  0.00D+00 EMaxC= 1.00D-01 BMatC= 1.27D-06 BMatP= 5.93D-05
 IDIUse=1 WtCom= 1.00D+00 WtEn= 0.00D+00
 Coeff-Com: -0.884D-02 0.147D+00 0.211D+00 0.651D+00
 Coeff:     -0.884D-02 0.147D+00 0.211D+00 0.651D+00
 Gap=     0.328 Goal=   None    Shift=    0.000
 RMSDP=4.44D-06 MaxDP=1.25D-04 DE=-3.87D-05 OVMax= 1.83D-04

 Cycle   5  Pass 1  IDiag  1:
 E= -797.974774823376     Delta-E=       -0.000000696790 Rises=F Damp=F
 DIIS: error= 2.64D-05 at cycle   5 NSaved=   5.
 NSaved= 5 IEnMin= 5 EnMin= -797.974774823376     IErMin= 5 ErrMin= 2.64D-05
 ErrMax= 2.64D-05  0.00D+00 EMaxC= 1.00D-01 BMatC= 7.39D-08 BMatP= 1.27D-06
 IDIUse=1 WtCom= 1.00D+00 WtEn= 0.00D+00
 Coeff-Com: -0.379D-02 0.451D-01 0.787D-01 0.291D+00 0.589D+00
 Coeff:     -0.379D-02 0.451D-01 0.787D-01 0.291D+00 0.589D+00
 Gap=     0.328 Goal=   None    Shift=    0.000
 RMSDP=1.63D-06 MaxDP=4.68D-05 DE=-6.97D-07 OVMax= 1.04D-04

 Cycle   6  Pass 1  IDiag  1:
 E= -797.974774877261     Delta-E=       -0.000000053885 Rises=F Damp=F
 DIIS: error= 7.08D-06 at cycle   6 NSaved=   6.
 NSaved= 6 IEnMin= 6 EnMin= -797.974774877261     IErMin= 6 ErrMin= 7.08D-06
 ErrMax= 7.08D-06  0.00D+00 EMaxC= 1.00D-01 BMatC= 6.83D-09 BMatP= 7.39D-08
 IDIUse=1 WtCom= 1.00D+00 WtEn= 0.00D+00
 Coeff-Com: -0.642D-03 0.341D-02 0.115D-01 0.531D-01 0.264D+00 0.668D+00
 Coeff:     -0.642D-03 0.341D-02 0.115D-01 0.531D-01 0.264D+00 0.668D+00
 Gap=     0.328 Goal=   None    Shift=    0.000
 RMSDP=5.68D-07 MaxDP=1.77D-05 DE=-5.39D-08 OVMax= 3.31D-05

 Cycle   7  Pass 1  IDiag  1:
 E= -797.974774882763     Delta-E=       -0.000000005502 Rises=F Damp=F
 DIIS: error= 1.49D-06 at cycle   7 NSaved=   7.
 NSaved= 7 IEnMin= 7 EnMin= -797.974774882763     IErMin= 7 ErrMin= 1.49D-06
 ErrMax= 1.49D-06  0.00D+00 EMaxC= 1.00D-01 BMatC= 5.87D-10 BMatP= 6.83D-09
 IDIUse=1 WtCom= 1.00D+00 WtEn= 0.00D+00
 Coeff-Com:  0.451D-05-0.171D-02-0.969D-03 0.181D-02 0.715D-01 0.308D+00
 Coeff-Com:  0.621D+00
 Coeff:      0.451D-05-0.171D-02-0.969D-03 0.181D-02 0.715D-01 0.308D+00
 Coeff:      0.621D+00
 Gap=     0.328 Goal=   None    Shift=    0.000
 RMSDP=1.34D-07 MaxDP=4.90D-06 DE=-5.50D-09 OVMax= 5.50D-06

 Cycle   8  Pass 1  IDiag  1:
 E= -797.974774883167     Delta-E=       -0.000000000404 Rises=F Damp=F
 DIIS: error= 6.19D-07 at cycle   8 NSaved=   8.
 NSaved= 8 IEnMin= 8 EnMin= -797.974774883167     IErMin= 8 ErrMin= 6.19D-07
 ErrMax= 6.19D-07  0.00D+00 EMaxC= 1.00D-01 BMatC= 4.44D-11 BMatP= 5.87D-10
 IDIUse=1 WtCom= 1.00D+00 WtEn= 0.00D+00
 Coeff-Com:  0.245D-04-0.106D-02-0.112D-02-0.110D-02 0.235D-01 0.127D+00
 Coeff-Com:  0.312D+00 0.541D+00
 Coeff:      0.245D-04-0.106D-02-0.112D-02-0.110D-02 0.235D-01 0.127D+00
 Coeff:      0.312D+00 0.541D+00
 Gap=     0.328 Goal=   None    Shift=    0.000
 RMSDP=2.74D-08 MaxDP=1.17D-06 DE=-4.04D-10 OVMax= 1.28D-06

 Cycle   9  Pass 1  IDiag  1:
 E= -797.974774883209     Delta-E=       -0.000000000042 Rises=F Damp=F
 DIIS: error= 1.64D-07 at cycle   9 NSaved=   9.
 NSaved= 9 IEnMin= 9 EnMin= -797.974774883209     IErMin= 9 ErrMin= 1.64D-07
 ErrMax= 1.64D-07  0.00D+00 EMaxC= 1.00D-01 BMatC= 3.53D-12 BMatP= 4.44D-11
 IDIUse=1 WtCom= 1.00D+00 WtEn= 0.00D+00
 Coeff-Com:  0.985D-05-0.205D-03-0.385D-03-0.662D-03 0.688D-03 0.141D-01
 Coeff-Com:  0.502D-01 0.245D+00 0.691D+00
 Coeff:      0.985D-05-0.205D-03-0.385D-03-0.662D-03 0.688D-03 0.141D-01
 Coeff:      0.502D-01 0.245D+00 0.691D+00
 Gap=     0.328 Goal=   None    Shift=    0.000
 RMSDP=9.90D-09 MaxDP=3.11D-07 DE=-4.23D-11 OVMax= 3.81D-07

 SCF Done:  E(RB3LYP) =  -797.974774883     A.U. after    9 cycles
            NFock=  9  Conv=0.99D-08     -V/T= 2.0026
 KE= 7.959445746886D+02 PE=-2.394004649507D+03 EE= 5.515772369776D+02
 Leave Link  502 at Thu Jun 13 11:40:21 2024, MaxMem=  1073741824 cpu:        26.8
 (Enter /apps/z_install_tree/linux-rocky8-ivybridge/gcc-12.2.0/gaussian-09-D.01-wczn3gur5lpur3omlkzwa2l5ecyxp5ef/g09/l508.exe)
 QCSCF skips out because SCF is already converged.
 Leave Link  508 at Thu Jun 13 11:40:21 2024, MaxMem=  1073741824 cpu:         0.0
 (Enter /apps/z_install_tree/linux-rocky8-ivybridge/gcc-12.2.0/gaussian-09-D.01-wczn3gur5lpur3omlkzwa2l5ecyxp5ef/g09/l701.exe)
 Compute integral first derivatives.
 ... and contract with generalized density number  0.
 R6Disp: Adding Grimme-D3 dispersion energy 1st derivatives to the gradient.
 Leave Link  701 at Thu Jun 13 11:40:21 2024, MaxMem=  1073741824 cpu:         1.6
 (Enter /apps/z_install_tree/linux-rocky8-ivybridge/gcc-12.2.0/gaussian-09-D.01-wczn3gur5lpur3omlkzwa2l5ecyxp5ef/g09/l702.exe)
 L702 exits ... SP integral derivatives will be done elsewhere.
 Leave Link  702 at Thu Jun 13 11:40:21 2024, MaxMem=  1073741824 cpu:         0.3
 (Enter /apps/z_install_tree/linux-rocky8-ivybridge/gcc-12.2.0/gaussian-09-D.01-wczn3gur5lpur3omlkzwa2l5ecyxp5ef/g09/l703.exe)
 Compute integral first derivatives, UseDBF=F ICtDFT=           0.
 Integral derivatives from FoFJK, PRISM(SPDF).
 Calling FoFJK, ICntrl=      2127 FMM=F ISym2X=0 I1Cent= 0 IOpClX= 0 NMat=1 NMatS=1 NMatT=0.
 FoFJK:  IHMeth= 1 ICntrl=    2127 DoSepK=F KAlg= 0 I1Cent=   0 FoldK=F
 IRaf=         0 NMat=   1 IRICut=       1 DoRegI=T DoRafI=F ISym2E= 0.
 FoFCou: FMM=F IPFlag=           0 FMFlag=      100000 FMFlg1=         800
         NFxFlg=           0 DoJE=F BraDBF=F KetDBF=F FulRan=T
         wScrn=  0.000000 ICntrl=    2127 IOpCl=  0 I1Cent=           0 NGrid=           0
         NMat0=    1 NMatS0=      1 NMatT0=    0 NMatD0=    1 NMtDS0=    0 NMtDT0=    0
 Symmetry not used in FoFCou.
 Leave Link  703 at Thu Jun 13 11:40:22 2024, MaxMem=  1073741824 cpu:         9.9
 (Enter /apps/z_install_tree/linux-rocky8-ivybridge/gcc-12.2.0/gaussian-09-D.01-wczn3gur5lpur3omlkzwa2l5ecyxp5ef/g09/l716.exe)
 Dipole        = 3.33532951D-02-6.44303564D-02 1.66284560D-01
 -------------------------------------------------------------------
 Center     Atomic                   Forces (Hartrees/Bohr)
 Number     Number              X              Y              Z
 -------------------------------------------------------------------
      1        6          -0.000181406   -0.000838811    0.000177286
      2       17          -0.001042709    0.000950253   -0.001559247
      3        9           0.003643148    0.001213875    0.001292346
      4        9          -0.000771919    0.000234187   -0.000033272
      5        9          -0.001647114   -0.001559504    0.000122887
 -------------------------------------------------------------------
 Cartesian Forces:  Max     0.003643148 RMS     0.001351975
 Leave Link  716 at Thu Jun 13 11:40:22 2024, MaxMem=  1073741824 cpu:         0.3
 (Enter /apps/z_install_tree/linux-rocky8-ivybridge/gcc-12.2.0/gaussian-09-D.01-wczn3gur5lpur3omlkzwa2l5ecyxp5ef/g09/l103.exe)

 GradGradGradGradGradGradGradGradGradGradGradGradGradGradGradGradGradGrad
 Berny optimization.
 Using GEDIIS/GDIIS optimizer.
 FormGI is forming the generalized inverse of G from B-inverse, IUseBI=4.
 Internal  Forces:  Max     0.003968426 RMS     0.001436117
 Search for a local minimum.
 Step number   8 out of a maximum of   24
 All quantities printed in internal units (Hartrees-Bohrs-Radians)
 RMS Force = .14361D-02 SwitMx=.10000D-02 MixMth= 1
 Mixed Optimization -- RFO/linear search
 Update second derivatives using D2CorX and points    4    6    5    7    8
 DE= -5.57D-04 DEPred=-5.23D-04 R= 1.06D+00
 TightC=F SS=  1.41D+00  RLast= 5.73D-02 DXNew= 1.2000D+00 1.7191D-01
 Trust test= 1.06D+00 RLast= 5.73D-02 DXMaxT set to 7.14D-01
 The second derivative matrix:
                          R1        R2        R3        R4        A1
           R1           0.12786
           R2           0.00382   0.19321
           R3           0.05711   0.04214   0.34208
           R4          -0.02691   0.07719   0.07680   0.32743
           A1          -0.00504   0.00354  -0.00577  -0.00257   0.23502
           A2           0.00680  -0.01003   0.01623  -0.00334   0.01745
           A3           0.00913  -0.00871   0.00038  -0.02827   0.01117
           A4           0.00078  -0.01076  -0.00842  -0.02711  -0.00737
           A5          -0.01611   0.01134  -0.01864   0.02284  -0.00951
           A6           0.00676   0.01769   0.01573   0.04357   0.00050
           D1           0.03332  -0.02231   0.01652  -0.06468   0.00859
           D2           0.01101  -0.00179   0.03063  -0.00012  -0.00299
           D3           0.01125  -0.02157  -0.00261  -0.04249  -0.00012
           D4           0.00024  -0.01979  -0.03325  -0.04237   0.00287
                          A2        A3        A4        A5        A6
           A2           0.20981
           A3          -0.01375   0.24420
           A4           0.01567   0.01366   0.24619
           A5           0.01974   0.00578  -0.01472   0.24246
           A6           0.00459  -0.00955  -0.00559   0.00497   0.25597
           D1           0.00669   0.00642   0.01323  -0.01414  -0.02094
           D2           0.00820  -0.00149   0.00396  -0.00470  -0.00386
           D3           0.01461   0.00628   0.00721  -0.01304  -0.01619
           D4           0.00641   0.00776   0.00325  -0.00833  -0.01233
                          D1        D2        D3        D4
           D1           0.02500
           D2           0.00462   0.00605
           D3           0.01211   0.00213   0.01130
           D4           0.00749  -0.00162   0.00687   0.01079
 ITU=  1  0 -1  0  1  1  1  0
 Use linear search instead of GDIIS.
     Eigenvalues ---    0.07086   0.08812   0.10199   0.13283   0.16064
     Eigenvalues ---    0.23364   0.24330   0.33730   0.47128
 RFO step:  Lambda=-1.58834564D-04 EMin= 7.08591087D-02
 Quartic linear search produced a step of  0.04440.
 Iteration  1 RMS(Cart)=  0.00948603 RMS(Int)=  0.00003585
 Iteration  2 RMS(Cart)=  0.00002564 RMS(Int)=  0.00002147
 Iteration  3 RMS(Cart)=  0.00000000 RMS(Int)=  0.00002147
 ITry= 1 IFail=0 DXMaxC= 1.98D-02 DCOld= 1.00D+10 DXMaxT= 7.14D-01 DXLimC= 3.00D+00 Rises=F
 Variable       Old X    -DE/DX   Delta X   Delta X   Delta X     New X
                                 (Linear)    (Quad)   (Total)
    R1        3.36903  -0.00196  -0.00105  -0.01869  -0.01974   3.34930
    R2        2.52300  -0.00397   0.00051  -0.01883  -0.01832   2.50468
    R3        2.51600  -0.00052  -0.00205   0.00495   0.00291   2.51890
    R4        2.51771  -0.00189  -0.00013  -0.00314  -0.00328   2.51443
    A1        1.92712  -0.00011  -0.00008  -0.00518  -0.00528   1.92184
    A2        1.91913   0.00043  -0.00003   0.00534   0.00528   1.92442
    A3        1.92401   0.00018   0.00042  -0.00026   0.00012   1.92413
    A4        1.89623   0.00022  -0.00040   0.00076   0.00038   1.89661
    A5        1.90231  -0.00150  -0.00016  -0.00811  -0.00829   1.89403
    A6        1.89443   0.00078   0.00025   0.00757   0.00780   1.90223
    D1        2.11090   0.00026  -0.00037  -0.00262  -0.00301   2.10788
    D2       -2.11777   0.00098  -0.00006   0.01177   0.01169  -2.10608
    D3        2.10294   0.00113   0.00037   0.01112   0.01151   2.11445
    D4       -2.06248   0.00014   0.00043  -0.00064  -0.00018  -2.06266
         Item               Value     Threshold  Converged?
 Maximum Force            0.003968     0.000450     NO 
 RMS     Force            0.001436     0.000300     NO 
 Maximum Displacement     0.019833     0.001800     NO 
 RMS     Displacement     0.009488     0.001200     NO 
 Predicted change in Energy=-8.075959D-05
 Lowest energy point so far.  Saving SCF results.
 GradGradGradGradGradGradGradGradGradGradGradGradGradGradGradGradGradGrad

 Leave Link  103 at Thu Jun 13 11:40:22 2024, MaxMem=  1073741824 cpu:         0.5
 (Enter /apps/z_install_tree/linux-rocky8-ivybridge/gcc-12.2.0/gaussian-09-D.01-wczn3gur5lpur3omlkzwa2l5ecyxp5ef/g09/l202.exe)
                          Input orientation:                          
 ---------------------------------------------------------------------
 Center     Atomic      Atomic             Coordinates (Angstroms)
 Number     Number       Type             X           Y           Z
 ---------------------------------------------------------------------
      1          6           0       50.062887   35.526466   32.672614
      2         17           0       50.368388   34.875410   34.292520
      3          9           0       48.786655   35.369097   32.351368
      4          9           0       50.811280   34.891006   31.771034
      5          9           0       50.350789   36.825022   32.636464
 ---------------------------------------------------------------------
                    Distance matrix (angstroms):
                    1          2          3          4          5
     1  C    0.000000
     2  Cl   1.772371   0.000000
     3  F    1.325418   2.552190   0.000000
     4  F    1.332947   2.560134   2.159737   0.000000
     5  F    1.330579   2.558088   2.155809   2.168280   0.000000
 Symmetry turned off by external request.
 Stoichiometry    CClF3
 Framework group  C1[X(CClF3)]
 Deg. of freedom     9
 Full point group                 C1      NOp   1
 Rotational constants (GHZ):      5.6948156      3.2900091      3.2770963
 Leave Link  202 at Thu Jun 13 11:40:22 2024, MaxMem=  1073741824 cpu:         0.1
 (Enter /apps/z_install_tree/linux-rocky8-ivybridge/gcc-12.2.0/gaussian-09-D.01-wczn3gur5lpur3omlkzwa2l5ecyxp5ef/g09/l301.exe)
 Basis read from rwf:  (5D, 7F)
 No pseudopotential information found on rwf file.
   143 basis functions,   227 primitive gaussians,   153 cartesian basis functions
    25 alpha electrons       25 beta electrons
       nuclear repulsion energy       249.4240056535 Hartrees.
 IExCor=  402 DFT=T Ex+Corr=B3LYP ExCW=0 ScaHFX=  0.200000
 ScaDFX=  0.800000  0.720000  1.000000  0.810000 ScalE2=  1.000000  1.000000
 IRadAn=      5 IRanWt=     -1 IRanGd=            0 ICorTp=0 IEmpDi=131
 NAtoms=    5 NActive=    5 NUniq=    5 SFac= 1.00D+00 NAtFMM=   60 NAOKFM=F Big=F
 Integral buffers will be    131072 words long.
 Raffenetti 2 integral format.
 Two-electron integral symmetry is turned off.
 R6Disp:  Grimme-D3 Dispersion energy=       -0.0012761037 Hartrees.
 Nuclear repulsion after empirical dispersion term =      249.4227295499 Hartrees.
 No density basis found on file   724.
 Leave Link  301 at Thu Jun 13 11:40:22 2024, MaxMem=  1073741824 cpu:         0.7
 (Enter /apps/z_install_tree/linux-rocky8-ivybridge/gcc-12.2.0/gaussian-09-D.01-wczn3gur5lpur3omlkzwa2l5ecyxp5ef/g09/l302.exe)
 NPDir=0 NMtPBC=     1 NCelOv=     1 NCel=       1 NClECP=     1 NCelD=      1
         NCelK=      1 NCelE2=     1 NClLst=     1 CellRange=     0.0.
 One-electron integrals computed using PRISM.
 NBasis=   143 RedAO= T EigKep=  1.08D-03  NBF=   143
 NBsUse=   143 1.00D-06 EigRej= -1.00D+00 NBFU=   143
 Precomputing XC quadrature grid using
 IXCGrd= 4 IRadAn=           5 IRanWt=          -1 IRanGd=           0 AccXCQ= 0.00D+00.
 Generated NRdTot=       0 NPtTot=           0 NUsed=           0 NTot=          32
 NSgBfM=   153   153   153   153   153 MxSgAt=     5 MxSgA2=     5.
 Leave Link  302 at Thu Jun 13 11:40:22 2024, MaxMem=  1073741824 cpu:         2.4
 (Enter /apps/z_install_tree/linux-rocky8-ivybridge/gcc-12.2.0/gaussian-09-D.01-wczn3gur5lpur3omlkzwa2l5ecyxp5ef/g09/l303.exe)
 DipDrv:  MaxL=1.
 Leave Link  303 at Thu Jun 13 11:40:23 2024, MaxMem=  1073741824 cpu:         0.3
 (Enter /apps/z_install_tree/linux-rocky8-ivybridge/gcc-12.2.0/gaussian-09-D.01-wczn3gur5lpur3omlkzwa2l5ecyxp5ef/g09/l401.exe)
 Initial guess from the checkpoint file:  "chlorotrifluoromethane.chk"
 B after Tr=     0.021267    0.014834   -0.052144
         Rot=    1.000000    0.000062    0.000307    0.000112 Ang=   0.04 deg.
 Guess basis will be translated and rotated to current coordinates.
 JPrj=2 DoOrth=T DoCkMO=T.
 Leave Link  401 at Thu Jun 13 11:40:23 2024, MaxMem=  1073741824 cpu:         1.2
 (Enter /apps/z_install_tree/linux-rocky8-ivybridge/gcc-12.2.0/gaussian-09-D.01-wczn3gur5lpur3omlkzwa2l5ecyxp5ef/g09/l502.exe)
 Closed shell SCF:
 Using DIIS extrapolation, IDIIS=  1040.
 Two-electron integral symmetry not used.
 Keep R1 ints in memory in canonical form, NReq=54920448.
 IVT=       85437 IEndB=       85437 NGot=  1073741824 MDV=  1020647432
 LenX=  1020647432 LenY=  1020623582
 Requested convergence on RMS density matrix=1.00D-08 within  96 cycles.
 Requested convergence on MAX density matrix=1.00D-06.
 Requested convergence on             energy=1.00D-06.
 No special actions if energy rises.
 FoFCou: FMM=F IPFlag=           0 FMFlag=           0 FMFlg1=           0
         NFxFlg=           0 DoJE=F BraDBF=F KetDBF=F FulRan=T
         wScrn=  0.000000 ICntrl=     600 IOpCl=  0 I1Cent=           0 NGrid=           0
         NMat0=    1 NMatS0=  10296 NMatT0=    0 NMatD0=    1 NMtDS0=    0 NMtDT0=    0
 Symmetry not used in FoFCou.

 Cycle   1  Pass 1  IDiag  1:
 E= -797.974637350666    
 DIIS: error= 6.86D-04 at cycle   1 NSaved=   1.
 NSaved= 1 IEnMin= 1 EnMin= -797.974637350666     IErMin= 1 ErrMin= 6.86D-04
 ErrMax= 6.86D-04  0.00D+00 EMaxC= 1.00D-01 BMatC= 1.17D-04 BMatP= 1.17D-04
 IDIUse=3 WtCom= 9.93D-01 WtEn= 6.86D-03
 Coeff-Com:  0.100D+01
 Coeff-En:   0.100D+01
 Coeff:      0.100D+01
 Gap=     0.658 Goal=   None    Shift=    0.000
 RMSDP=9.76D-05 MaxDP=2.23D-03              OVMax= 2.91D-03

 Cycle   2  Pass 1  IDiag  1:
 E= -797.974750080404     Delta-E=       -0.000112729738 Rises=F Damp=F
 DIIS: error= 2.78D-04 at cycle   2 NSaved=   2.
 NSaved= 2 IEnMin= 2 EnMin= -797.974750080404     IErMin= 2 ErrMin= 2.78D-04
 ErrMax= 2.78D-04  0.00D+00 EMaxC= 1.00D-01 BMatC= 1.14D-05 BMatP= 1.17D-04
 IDIUse=3 WtCom= 9.97D-01 WtEn= 2.78D-03
 Coeff-Com:  0.126D+00 0.874D+00
 Coeff-En:   0.000D+00 0.100D+01
 Coeff:      0.126D+00 0.874D+00
 Gap=     0.332 Goal=   None    Shift=    0.000
 RMSDP=3.05D-05 MaxDP=1.38D-03 DE=-1.13D-04 OVMax= 1.56D-03

 Cycle   3  Pass 1  IDiag  1:
 E= -797.974748498697     Delta-E=        0.000001581707 Rises=F Damp=F
 DIIS: error= 3.34D-04 at cycle   3 NSaved=   3.
 NSaved= 3 IEnMin= 2 EnMin= -797.974750080404     IErMin= 2 ErrMin= 2.78D-04
 ErrMax= 3.34D-04  0.00D+00 EMaxC= 1.00D-01 BMatC= 1.34D-05 BMatP= 1.14D-05
 IDIUse=3 WtCom= 3.53D-01 WtEn= 6.47D-01
 Coeff-Com: -0.140D-01 0.523D+00 0.491D+00
 Coeff-En:   0.000D+00 0.536D+00 0.464D+00
 Coeff:     -0.494D-02 0.531D+00 0.474D+00
 Gap=     0.332 Goal=   None    Shift=    0.000
 RMSDP=1.67D-05 MaxDP=6.80D-04 DE= 1.58D-06 OVMax= 8.99D-04

 Cycle   4  Pass 1  IDiag  1:
 E= -797.974759273933     Delta-E=       -0.000010775236 Rises=F Damp=F
 DIIS: error= 4.31D-05 at cycle   4 NSaved=   4.
 NSaved= 4 IEnMin= 4 EnMin= -797.974759273933     IErMin= 4 ErrMin= 4.31D-05
 ErrMax= 4.31D-05  0.00D+00 EMaxC= 1.00D-01 BMatC= 2.04D-07 BMatP= 1.14D-05
 IDIUse=1 WtCom= 1.00D+00 WtEn= 0.00D+00
 Coeff-Com: -0.105D-01 0.165D+00 0.188D+00 0.657D+00
 Coeff:     -0.105D-01 0.165D+00 0.188D+00 0.657D+00
 Gap=     0.332 Goal=   None    Shift=    0.000
 RMSDP=2.00D-06 MaxDP=5.34D-05 DE=-1.08D-05 OVMax= 6.42D-05

 Cycle   5  Pass 1  IDiag  1:
 E= -797.974759374668     Delta-E=       -0.000000100735 Rises=F Damp=F
 DIIS: error= 1.85D-05 at cycle   5 NSaved=   5.
 NSaved= 5 IEnMin= 5 EnMin= -797.974759374668     IErMin= 5 ErrMin= 1.85D-05
 ErrMax= 1.85D-05  0.00D+00 EMaxC= 1.00D-01 BMatC= 2.44D-08 BMatP= 2.04D-07
 IDIUse=1 WtCom= 1.00D+00 WtEn= 0.00D+00
 Coeff-Com: -0.386D-02 0.380D-01 0.545D-01 0.299D+00 0.613D+00
 Coeff:     -0.386D-02 0.380D-01 0.545D-01 0.299D+00 0.613D+00
 Gap=     0.332 Goal=   None    Shift=    0.000
 RMSDP=7.99D-07 MaxDP=1.82D-05 DE=-1.01D-07 OVMax= 4.75D-05

 Cycle   6  Pass 1  IDiag  1:
 E= -797.974759388910     Delta-E=       -0.000000014242 Rises=F Damp=F
 DIIS: error= 3.33D-06 at cycle   6 NSaved=   6.
 NSaved= 6 IEnMin= 6 EnMin= -797.974759388910     IErMin= 6 ErrMin= 3.33D-06
 ErrMax= 3.33D-06  0.00D+00 EMaxC= 1.00D-01 BMatC= 2.31D-09 BMatP= 2.44D-08
 IDIUse=1 WtCom= 1.00D+00 WtEn= 0.00D+00
 Coeff-Com: -0.434D-03-0.151D-02 0.330D-02 0.586D-01 0.279D+00 0.661D+00
 Coeff:     -0.434D-03-0.151D-02 0.330D-02 0.586D-01 0.279D+00 0.661D+00
 Gap=     0.332 Goal=   None    Shift=    0.000
 RMSDP=3.10D-07 MaxDP=1.10D-05 DE=-1.42D-08 OVMax= 1.67D-05

 Cycle   7  Pass 1  IDiag  1:
 E= -797.974759390580     Delta-E=       -0.000000001669 Rises=F Damp=F
 DIIS: error= 7.76D-07 at cycle   7 NSaved=   7.
 NSaved= 7 IEnMin= 7 EnMin= -797.974759390580     IErMin= 7 ErrMin= 7.76D-07
 ErrMax= 7.76D-07  0.00D+00 EMaxC= 1.00D-01 BMatC= 1.52D-10 BMatP= 2.31D-09
 IDIUse=1 WtCom= 1.00D+00 WtEn= 0.00D+00
 Coeff-Com:  0.160D-04-0.265D-02-0.181D-02 0.822D-02 0.814D-01 0.298D+00
 Coeff-Com:  0.617D+00
 Coeff:      0.160D-04-0.265D-02-0.181D-02 0.822D-02 0.814D-01 0.298D+00
 Coeff:      0.617D+00
 Gap=     0.332 Goal=   None    Shift=    0.000
 RMSDP=7.02D-08 MaxDP=2.60D-06 DE=-1.67D-09 OVMax= 2.68D-06

 Cycle   8  Pass 1  IDiag  1:
 E= -797.974759390672     Delta-E=       -0.000000000093 Rises=F Damp=F
 DIIS: error= 2.88D-07 at cycle   8 NSaved=   8.
 NSaved= 8 IEnMin= 8 EnMin= -797.974759390672     IErMin= 8 ErrMin= 2.88D-07
 ErrMax= 2.88D-07  0.00D+00 EMaxC= 1.00D-01 BMatC= 1.22D-11 BMatP= 1.52D-10
 IDIUse=1 WtCom= 1.00D+00 WtEn= 0.00D+00
 Coeff-Com:  0.306D-04-0.134D-02-0.118D-02 0.146D-02 0.270D-01 0.119D+00
 Coeff-Com:  0.306D+00 0.550D+00
 Coeff:      0.306D-04-0.134D-02-0.118D-02 0.146D-02 0.270D-01 0.119D+00
 Coeff:      0.306D+00 0.550D+00
 Gap=     0.332 Goal=   None    Shift=    0.000
 RMSDP=1.57D-08 MaxDP=4.54D-07 DE=-9.28D-11 OVMax= 6.46D-07

 Cycle   9  Pass 1  IDiag  1:
 E= -797.974759390684     Delta-E=       -0.000000000011 Rises=F Damp=F
 DIIS: error= 9.23D-08 at cycle   9 NSaved=   9.
 NSaved= 9 IEnMin= 9 EnMin= -797.974759390684     IErMin= 9 ErrMin= 9.23D-08
 ErrMax= 9.23D-08  0.00D+00 EMaxC= 1.00D-01 BMatC= 1.25D-12 BMatP= 1.22D-11
 IDIUse=1 WtCom= 1.00D+00 WtEn= 0.00D+00
 Coeff-Com:  0.105D-04-0.168D-03-0.272D-03-0.780D-03-0.118D-02 0.637D-02
 Coeff-Com:  0.416D-01 0.265D+00 0.690D+00
 Coeff:      0.105D-04-0.168D-03-0.272D-03-0.780D-03-0.118D-02 0.637D-02
 Coeff:      0.416D-01 0.265D+00 0.690D+00
 Gap=     0.332 Goal=   None    Shift=    0.000
 RMSDP=5.84D-09 MaxDP=1.65D-07 DE=-1.14D-11 OVMax= 2.27D-07

 SCF Done:  E(RB3LYP) =  -797.974759391     A.U. after    9 cycles
            NFock=  9  Conv=0.58D-08     -V/T= 2.0025
 KE= 7.959905430708D+02 PE=-2.395866870665D+03 EE= 5.524788386532D+02
 Leave Link  502 at Thu Jun 13 11:40:25 2024, MaxMem=  1073741824 cpu:        26.7
 (Enter /apps/z_install_tree/linux-rocky8-ivybridge/gcc-12.2.0/gaussian-09-D.01-wczn3gur5lpur3omlkzwa2l5ecyxp5ef/g09/l508.exe)
 QCSCF skips out because SCF is already converged.
 Leave Link  508 at Thu Jun 13 11:40:25 2024, MaxMem=  1073741824 cpu:         0.0
 (Enter /apps/z_install_tree/linux-rocky8-ivybridge/gcc-12.2.0/gaussian-09-D.01-wczn3gur5lpur3omlkzwa2l5ecyxp5ef/g09/l701.exe)
 Compute integral first derivatives.
 ... and contract with generalized density number  0.
 R6Disp: Adding Grimme-D3 dispersion energy 1st derivatives to the gradient.
 Leave Link  701 at Thu Jun 13 11:40:25 2024, MaxMem=  1073741824 cpu:         1.7
 (Enter /apps/z_install_tree/linux-rocky8-ivybridge/gcc-12.2.0/gaussian-09-D.01-wczn3gur5lpur3omlkzwa2l5ecyxp5ef/g09/l702.exe)
 L702 exits ... SP integral derivatives will be done elsewhere.
 Leave Link  702 at Thu Jun 13 11:40:25 2024, MaxMem=  1073741824 cpu:         0.2
 (Enter /apps/z_install_tree/linux-rocky8-ivybridge/gcc-12.2.0/gaussian-09-D.01-wczn3gur5lpur3omlkzwa2l5ecyxp5ef/g09/l703.exe)
 Compute integral first derivatives, UseDBF=F ICtDFT=           0.
 Integral derivatives from FoFJK, PRISM(SPDF).
 Calling FoFJK, ICntrl=      2127 FMM=F ISym2X=0 I1Cent= 0 IOpClX= 0 NMat=1 NMatS=1 NMatT=0.
 FoFJK:  IHMeth= 1 ICntrl=    2127 DoSepK=F KAlg= 0 I1Cent=   0 FoldK=F
 IRaf=         0 NMat=   1 IRICut=       1 DoRegI=T DoRafI=F ISym2E= 0.
 FoFCou: FMM=F IPFlag=           0 FMFlag=      100000 FMFlg1=         800
         NFxFlg=           0 DoJE=F BraDBF=F KetDBF=F FulRan=T
         wScrn=  0.000000 ICntrl=    2127 IOpCl=  0 I1Cent=           0 NGrid=           0
         NMat0=    1 NMatS0=      1 NMatT0=    0 NMatD0=    1 NMtDS0=    0 NMtDT0=    0
 Symmetry not used in FoFCou.
 Leave Link  703 at Thu Jun 13 11:40:25 2024, MaxMem=  1073741824 cpu:        10.0
 (Enter /apps/z_install_tree/linux-rocky8-ivybridge/gcc-12.2.0/gaussian-09-D.01-wczn3gur5lpur3omlkzwa2l5ecyxp5ef/g09/l716.exe)
 Dipole        = 2.46636276D-02-6.77724744D-02 1.70914843D-01
 -------------------------------------------------------------------
 Center     Atomic                   Forces (Hartrees/Bohr)
 Number     Number              X              Y              Z
 -------------------------------------------------------------------
      1        6           0.002026032   -0.000165679   -0.000158342
      2       17           0.001052498   -0.001031870    0.002536624
      3        9          -0.004549556   -0.000753063   -0.001809677
      4        9           0.000079700    0.001274559    0.000259582
      5        9           0.001391326    0.000676052   -0.000828187
 -------------------------------------------------------------------
 Cartesian Forces:  Max     0.004549556 RMS     0.001674948
 Leave Link  716 at Thu Jun 13 11:40:25 2024, MaxMem=  1073741824 cpu:         0.4
 (Enter /apps/z_install_tree/linux-rocky8-ivybridge/gcc-12.2.0/gaussian-09-D.01-wczn3gur5lpur3omlkzwa2l5ecyxp5ef/g09/l103.exe)

 GradGradGradGradGradGradGradGradGradGradGradGradGradGradGradGradGradGrad
 Berny optimization.
 Using GEDIIS/GDIIS optimizer.
 FormGI is forming the generalized inverse of G from B-inverse, IUseBI=4.
 Internal  Forces:  Max     0.004908663 RMS     0.001715053
 Search for a local minimum.
 Step number   9 out of a maximum of   24
 All quantities printed in internal units (Hartrees-Bohrs-Radians)
 RMS Force = .17151D-02 SwitMx=.10000D-02 MixMth= 1
 Mixed Optimization -- RFO/linear search
 Update second derivatives using D2CorX and points    4    6    5    7    9
                                                      8
 DE=  1.55D-05 DEPred=-8.08D-05 R=-1.92D-01
 Trust test=-1.92D-01 RLast= 3.48D-02 DXMaxT set to 3.57D-01
 The second derivative matrix:
                          R1        R2        R3        R4        A1
           R1           0.16921
           R2           0.07716   0.31525
           R3           0.04803   0.02536   0.34249
           R4          -0.01130   0.10269   0.07263   0.33783
           A1          -0.01803  -0.01398  -0.00647  -0.00647   0.22368
           A2           0.02632   0.01530   0.01622   0.00084   0.03359
           A3           0.00889  -0.00888   0.00009  -0.02935   0.01002
           A4           0.00845   0.00420  -0.00737  -0.02117  -0.00443
           A5          -0.00869   0.02589  -0.02326   0.02638  -0.02163
           A6          -0.01613  -0.02180   0.01999   0.03472   0.00430
           D1           0.03709  -0.01166   0.01720  -0.06016   0.00696
           D2          -0.01831  -0.04628   0.03553  -0.00704  -0.00561
           D3          -0.01007  -0.05042   0.00295  -0.04382  -0.00034
           D4           0.00824  -0.00414  -0.03258  -0.03678   0.00527
                          A2        A3        A4        A5        A6
           A2           0.18573
           A3          -0.01215   0.24427
           A4           0.01282   0.01404   0.24409
           A5           0.03669   0.00475  -0.00839   0.23695
           A6          -0.00049  -0.00968  -0.00997  -0.00144   0.26881
           D1           0.01011   0.00645   0.01263  -0.01206  -0.02470
           D2           0.01169  -0.00241   0.00217  -0.01591   0.00852
           D3           0.01554   0.00569   0.00403  -0.01823  -0.00829
           D4           0.00385   0.00809   0.00186  -0.00231  -0.01681
                          D1        D2        D3        D4
           D1           0.02415
           D2           0.00117   0.01787
           D3           0.00846   0.01164   0.01758
           D4           0.00729  -0.00392   0.00364   0.00986
 ITU= -1  1  0 -1  0  1  1  1  0
 Use linear search instead of GDIIS.
 Energy rises -- skip Quadratic/GDIIS search.
 Quartic linear search produced a step of -0.54118.
 Iteration  1 RMS(Cart)=  0.00513390 RMS(Int)=  0.00000995
 Iteration  2 RMS(Cart)=  0.00000749 RMS(Int)=  0.00000522
 Iteration  3 RMS(Cart)=  0.00000000 RMS(Int)=  0.00000522
 ITry= 1 IFail=0 DXMaxC= 1.07D-02 DCOld= 1.00D+10 DXMaxT= 3.57D-01 DXLimC= 3.00D+00 Rises=T
 Variable       Old X    -DE/DX   Delta X   Delta X   Delta X     New X
                                 (Linear)    (Quad)   (Total)
    R1        3.34930   0.00288   0.01068   0.00000   0.01068   3.35998
    R2        2.50468   0.00491   0.00992   0.00000   0.00992   2.51459
    R3        2.51890  -0.00074  -0.00157   0.00000  -0.00157   2.51733
    R4        2.51443   0.00098   0.00177   0.00000   0.00177   2.51620
    A1        1.92184   0.00016   0.00286   0.00000   0.00286   1.92471
    A2        1.92442   0.00040  -0.00286   0.00000  -0.00285   1.92157
    A3        1.92413   0.00028  -0.00006   0.00000  -0.00005   1.92408
    A4        1.89661   0.00020  -0.00021   0.00000  -0.00021   1.89640
    A5        1.89403   0.00099   0.00448   0.00000   0.00449   1.89852
    A6        1.90223  -0.00205  -0.00422   0.00000  -0.00422   1.89801
    D1        2.10788   0.00057   0.00163   0.00000   0.00164   2.10952
    D2       -2.10608  -0.00098  -0.00633   0.00000  -0.00632  -2.11240
    D3        2.11445  -0.00063  -0.00623   0.00000  -0.00623   2.10821
    D4       -2.06266   0.00035   0.00010   0.00000   0.00009  -2.06257
         Item               Value     Threshold  Converged?
 Maximum Force            0.004909     0.000450     NO 
 RMS     Force            0.001715     0.000300     NO 
 Maximum Displacement     0.010735     0.001800     NO 
 RMS     Displacement     0.005134     0.001200     NO 
 Predicted change in Energy=-3.805158D-05
 GradGradGradGradGradGradGradGradGradGradGradGradGradGradGradGradGradGrad

 Leave Link  103 at Thu Jun 13 11:40:26 2024, MaxMem=  1073741824 cpu:         0.5
 (Enter /apps/z_install_tree/linux-rocky8-ivybridge/gcc-12.2.0/gaussian-09-D.01-wczn3gur5lpur3omlkzwa2l5ecyxp5ef/g09/l202.exe)
                          Input orientation:                          
 ---------------------------------------------------------------------
 Center     Atomic      Atomic             Coordinates (Angstroms)
 Number     Number       Type             X           Y           Z
 ---------------------------------------------------------------------
      1          6           0       50.061480   35.527327   32.672381
      2         17           0       50.371621   34.873303   34.296398
      3          9           0       48.780974   35.367523   32.347667
      4          9           0       50.811609   34.893141   31.772579
      5          9           0       50.354316   36.825706   32.634975
 ---------------------------------------------------------------------
                    Distance matrix (angstroms):
                    1          2          3          4          5
     1  C    0.000000
     2  Cl   1.778024   0.000000
     3  F    1.330665   2.563584   0.000000
     4  F    1.332114   2.561961   2.163155   0.000000
     5  F    1.331518   2.563689   2.164313   2.165098   0.000000
 Symmetry turned off by external request.
 Stoichiometry    CClF3
 Framework group  C1[X(CClF3)]
 Deg. of freedom     9
 Full point group                 C1      NOp   1
 Rotational constants (GHZ):      5.6795012      3.2688272      3.2668661
 Leave Link  202 at Thu Jun 13 11:40:26 2024, MaxMem=  1073741824 cpu:         0.0
 (Enter /apps/z_install_tree/linux-rocky8-ivybridge/gcc-12.2.0/gaussian-09-D.01-wczn3gur5lpur3omlkzwa2l5ecyxp5ef/g09/l301.exe)
 Basis read from rwf:  (5D, 7F)
 No pseudopotential information found on rwf file.
   143 basis functions,   227 primitive gaussians,   153 cartesian basis functions
    25 alpha electrons       25 beta electrons
       nuclear repulsion energy       248.9272764073 Hartrees.
 IExCor=  402 DFT=T Ex+Corr=B3LYP ExCW=0 ScaHFX=  0.200000
 ScaDFX=  0.800000  0.720000  1.000000  0.810000 ScalE2=  1.000000  1.000000
 IRadAn=      5 IRanWt=     -1 IRanGd=            0 ICorTp=0 IEmpDi=131
 NAtoms=    5 NActive=    5 NUniq=    5 SFac= 1.00D+00 NAtFMM=   60 NAOKFM=F Big=F
 Integral buffers will be    131072 words long.
 Raffenetti 2 integral format.
 Two-electron integral symmetry is turned off.
 R6Disp:  Grimme-D3 Dispersion energy=       -0.0012943004 Hartrees.
 Nuclear repulsion after empirical dispersion term =      248.9259821070 Hartrees.
 No density basis found on file   724.
 Leave Link  301 at Thu Jun 13 11:40:26 2024, MaxMem=  1073741824 cpu:         0.8
 (Enter /apps/z_install_tree/linux-rocky8-ivybridge/gcc-12.2.0/gaussian-09-D.01-wczn3gur5lpur3omlkzwa2l5ecyxp5ef/g09/l302.exe)
 NPDir=0 NMtPBC=     1 NCelOv=     1 NCel=       1 NClECP=     1 NCelD=      1
         NCelK=      1 NCelE2=     1 NClLst=     1 CellRange=     0.0.
 One-electron integrals computed using PRISM.
 NBasis=   143 RedAO= T EigKep=  1.09D-03  NBF=   143
 NBsUse=   143 1.00D-06 EigRej= -1.00D+00 NBFU=   143
 Precomputing XC quadrature grid using
 IXCGrd= 4 IRadAn=           5 IRanWt=          -1 IRanGd=           0 AccXCQ= 0.00D+00.
 Generated NRdTot=       0 NPtTot=           0 NUsed=           0 NTot=          32
 NSgBfM=   153   153   153   153   153 MxSgAt=     5 MxSgA2=     5.
 Leave Link  302 at Thu Jun 13 11:40:26 2024, MaxMem=  1073741824 cpu:         1.9
 (Enter /apps/z_install_tree/linux-rocky8-ivybridge/gcc-12.2.0/gaussian-09-D.01-wczn3gur5lpur3omlkzwa2l5ecyxp5ef/g09/l303.exe)
 DipDrv:  MaxL=1.
 Leave Link  303 at Thu Jun 13 11:40:26 2024, MaxMem=  1073741824 cpu:         0.3
 (Enter /apps/z_install_tree/linux-rocky8-ivybridge/gcc-12.2.0/gaussian-09-D.01-wczn3gur5lpur3omlkzwa2l5ecyxp5ef/g09/l401.exe)
 Lowest energy guess from the checkpoint file:  "chlorotrifluoromethane.chk"
 B after Tr=     0.009748    0.006791   -0.023901
         Rot=    1.000000    0.000028    0.000141    0.000051 Ang=   0.02 deg.
 Guess basis will be translated and rotated to current coordinates.
 B after Tr=    -0.011500   -0.008049    0.028249
         Rot=    1.000000   -0.000033   -0.000166   -0.000060 Ang=  -0.02 deg.
 Guess basis will be translated and rotated to current coordinates.
 CkInt1:  FT= 4.59D-01
 Max alpha theta=  0.263 degrees.
 JPrj=2 DoOrth=T DoCkMO=T.
 Leave Link  401 at Thu Jun 13 11:40:26 2024, MaxMem=  1073741824 cpu:         1.5
 (Enter /apps/z_install_tree/linux-rocky8-ivybridge/gcc-12.2.0/gaussian-09-D.01-wczn3gur5lpur3omlkzwa2l5ecyxp5ef/g09/l502.exe)
 Closed shell SCF:
 Using DIIS extrapolation, IDIIS=  1040.
 Two-electron integral symmetry not used.
 Keep R1 ints in memory in canonical form, NReq=54920448.
 IVT=       85437 IEndB=       85437 NGot=  1073741824 MDV=  1020647432
 LenX=  1020647432 LenY=  1020623582
 Requested convergence on RMS density matrix=1.00D-08 within  96 cycles.
 Requested convergence on MAX density matrix=1.00D-06.
 Requested convergence on             energy=1.00D-06.
 No special actions if energy rises.
 FoFCou: FMM=F IPFlag=           0 FMFlag=           0 FMFlg1=           0
         NFxFlg=           0 DoJE=F BraDBF=F KetDBF=F FulRan=T
         wScrn=  0.000000 ICntrl=     600 IOpCl=  0 I1Cent=           0 NGrid=           0
         NMat0=    1 NMatS0=  10296 NMatT0=    0 NMatD0=    1 NMtDS0=    0 NMtDT0=    0
 Symmetry not used in FoFCou.

 Cycle   1  Pass 1  IDiag  1:
 E= -797.974811999382    
 DIIS: error= 2.61D-06 at cycle   1 NSaved=   1.
 NSaved= 1 IEnMin= 1 EnMin= -797.974811999382     IErMin= 1 ErrMin= 2.61D-06
 ErrMax= 2.61D-06  0.00D+00 EMaxC= 1.00D-01 BMatC= 1.85D-09 BMatP= 1.85D-09
 IDIUse=1 WtCom= 1.00D+00 WtEn= 0.00D+00
 Coeff-Com:  0.100D+01
 Coeff:      0.100D+01
 Gap=   101.506 Goal=   None    Shift=    0.000
 RMSDP=5.24D-07 MaxDP=8.00D-06              OVMax= 6.30D-06

 Cycle   2  Pass 1  IDiag  1:
 E= -797.974812000387     Delta-E=       -0.000000001005 Rises=F Damp=F
 DIIS: error= 6.80D-07 at cycle   2 NSaved=   2.
 NSaved= 2 IEnMin= 2 EnMin= -797.974812000387     IErMin= 2 ErrMin= 6.80D-07
 ErrMax= 6.80D-07  0.00D+00 EMaxC= 1.00D-01 BMatC= 7.67D-11 BMatP= 1.85D-09
 IDIUse=1 WtCom= 1.00D+00 WtEn= 0.00D+00
 Coeff-Com:  0.595D-01 0.941D+00
 Coeff:      0.595D-01 0.941D+00
 Gap=     0.329 Goal=   None    Shift=    0.000
 RMSDP=7.00D-08 MaxDP=1.58D-06 DE=-1.01D-09 OVMax= 2.63D-06

 Cycle   3  Pass 1  IDiag  1:
 E= -797.974812000359     Delta-E=        0.000000000028 Rises=F Damp=F
 DIIS: error= 8.30D-07 at cycle   3 NSaved=   3.
 NSaved= 3 IEnMin= 2 EnMin= -797.974812000387     IErMin= 2 ErrMin= 6.80D-07
 ErrMax= 8.30D-07  0.00D+00 EMaxC= 1.00D-01 BMatC= 1.31D-10 BMatP= 7.67D-11
 IDIUse=1 WtCom= 1.00D+00 WtEn= 0.00D+00
 Coeff-Com: -0.203D-02 0.570D+00 0.432D+00
 Coeff:     -0.203D-02 0.570D+00 0.432D+00
 Gap=     0.329 Goal=   None    Shift=    0.000
 RMSDP=3.60D-08 MaxDP=1.13D-06 DE= 2.75D-11 OVMax= 1.61D-06

 Cycle   4  Pass 1  IDiag  1:
 E= -797.974812000428     Delta-E=       -0.000000000069 Rises=F Damp=F
 DIIS: error= 7.94D-08 at cycle   4 NSaved=   4.
 NSaved= 4 IEnMin= 4 EnMin= -797.974812000428     IErMin= 4 ErrMin= 7.94D-08
 ErrMax= 7.94D-08  0.00D+00 EMaxC= 1.00D-01 BMatC= 1.13D-12 BMatP= 7.67D-11
 IDIUse=1 WtCom= 1.00D+00 WtEn= 0.00D+00
 Coeff-Com: -0.335D-02 0.137D+00 0.144D+00 0.723D+00
 Coeff:     -0.335D-02 0.137D+00 0.144D+00 0.723D+00
 Gap=     0.329 Goal=   None    Shift=    0.000
 RMSDP=5.40D-09 MaxDP=1.39D-07 DE=-6.89D-11 OVMax= 1.85D-07

 SCF Done:  E(RB3LYP) =  -797.974812000     A.U. after    4 cycles
            NFock=  4  Conv=0.54D-08     -V/T= 2.0025
 KE= 7.959653941837D+02 PE=-2.394855421435D+03 EE= 5.519892331437D+02
 Leave Link  502 at Thu Jun 13 11:40:27 2024, MaxMem=  1073741824 cpu:        15.3
 (Enter /apps/z_install_tree/linux-rocky8-ivybridge/gcc-12.2.0/gaussian-09-D.01-wczn3gur5lpur3omlkzwa2l5ecyxp5ef/g09/l508.exe)
 QCSCF skips out because SCF is already converged.
 Leave Link  508 at Thu Jun 13 11:40:27 2024, MaxMem=  1073741824 cpu:         0.0
 (Enter /apps/z_install_tree/linux-rocky8-ivybridge/gcc-12.2.0/gaussian-09-D.01-wczn3gur5lpur3omlkzwa2l5ecyxp5ef/g09/l701.exe)
 Compute integral first derivatives.
 ... and contract with generalized density number  0.
 R6Disp: Adding Grimme-D3 dispersion energy 1st derivatives to the gradient.
 Leave Link  701 at Thu Jun 13 11:40:27 2024, MaxMem=  1073741824 cpu:         1.6
 (Enter /apps/z_install_tree/linux-rocky8-ivybridge/gcc-12.2.0/gaussian-09-D.01-wczn3gur5lpur3omlkzwa2l5ecyxp5ef/g09/l702.exe)
 L702 exits ... SP integral derivatives will be done elsewhere.
 Leave Link  702 at Thu Jun 13 11:40:27 2024, MaxMem=  1073741824 cpu:         0.2
 (Enter /apps/z_install_tree/linux-rocky8-ivybridge/gcc-12.2.0/gaussian-09-D.01-wczn3gur5lpur3omlkzwa2l5ecyxp5ef/g09/l703.exe)
 Compute integral first derivatives, UseDBF=F ICtDFT=           0.
 Integral derivatives from FoFJK, PRISM(SPDF).
 Calling FoFJK, ICntrl=      2127 FMM=F ISym2X=0 I1Cent= 0 IOpClX= 0 NMat=1 NMatS=1 NMatT=0.
 FoFJK:  IHMeth= 1 ICntrl=    2127 DoSepK=F KAlg= 0 I1Cent=   0 FoldK=F
 IRaf=         0 NMat=   1 IRICut=       1 DoRegI=T DoRafI=F ISym2E= 0.
 FoFCou: FMM=F IPFlag=           0 FMFlag=      100000 FMFlg1=         800
         NFxFlg=           0 DoJE=F BraDBF=F KetDBF=F FulRan=T
         wScrn=  0.000000 ICntrl=    2127 IOpCl=  0 I1Cent=           0 NGrid=           0
         NMat0=    1 NMatS0=      1 NMatT0=    0 NMatD0=    1 NMtDS0=    0 NMtDT0=    0
 Symmetry not used in FoFCou.
 Leave Link  703 at Thu Jun 13 11:40:28 2024, MaxMem=  1073741824 cpu:         9.9
 (Enter /apps/z_install_tree/linux-rocky8-ivybridge/gcc-12.2.0/gaussian-09-D.01-wczn3gur5lpur3omlkzwa2l5ecyxp5ef/g09/l716.exe)
 Dipole        = 2.93813558D-02-6.59710903D-02 1.68415074D-01
 -------------------------------------------------------------------
 Center     Atomic                   Forces (Hartrees/Bohr)
 Number     Number              X              Y              Z
 -------------------------------------------------------------------
      1        6           0.000783085   -0.000537822    0.000031440
      2       17          -0.000092502    0.000054624    0.000285481
      3        9          -0.000045596    0.000323582   -0.000108516
      4        9          -0.000382554    0.000716634    0.000105530
      5        9          -0.000262433   -0.000557018   -0.000313935
 -------------------------------------------------------------------
 Cartesian Forces:  Max     0.000783085 RMS     0.000388485
 Leave Link  716 at Thu Jun 13 11:40:28 2024, MaxMem=  1073741824 cpu:         0.3
 (Enter /apps/z_install_tree/linux-rocky8-ivybridge/gcc-12.2.0/gaussian-09-D.01-wczn3gur5lpur3omlkzwa2l5ecyxp5ef/g09/l103.exe)

 GradGradGradGradGradGradGradGradGradGradGradGradGradGradGradGradGradGrad
 Berny optimization.
 Using GEDIIS/GDIIS optimizer.
 FormGI is forming the generalized inverse of G from B-inverse, IUseBI=4.
 Internal  Forces:  Max     0.000627861 RMS     0.000360076
 Search for a local minimum.
 Step number  10 out of a maximum of   24
 All quantities printed in internal units (Hartrees-Bohrs-Radians)
 RMS Force = .36008D-03 SwitMx=.10000D-02 MixMth= 2
 Mixed Optimization -- En-DIIS/RFO-DIIS
 Update second derivatives using D2CorX and points    4    6    5    7    9
                                                      8   10
 The second derivative matrix:
                          R1        R2        R3        R4        A1
           R1           0.16886
           R2           0.07439   0.31104
           R3           0.04842   0.02387   0.34291
           R4          -0.01239   0.10100   0.07157   0.33324
           A1          -0.01873  -0.01388  -0.00220  -0.00234   0.22353
           A2           0.02782   0.01516   0.00919  -0.00291   0.03287
           A3           0.00872  -0.00850   0.00042  -0.02748   0.00881
           A4           0.00942   0.00471  -0.00813  -0.02280  -0.00504
           A5          -0.00978   0.02551  -0.02063   0.02892  -0.02111
           A6          -0.01662  -0.02274   0.02102   0.03191   0.00664
           D1           0.03749  -0.01111   0.01797  -0.05959   0.00564
           D2          -0.01834  -0.04499   0.03863  -0.00364  -0.00562
           D3          -0.00980  -0.04878   0.00514  -0.04156  -0.00172
           D4           0.00854  -0.00379  -0.03349  -0.03792   0.00391
                          A2        A3        A4        A5        A6
           A2           0.18530
           A3          -0.01156   0.24361
           A4           0.01615   0.01489   0.24399
           A5           0.03534   0.00418  -0.00889   0.23788
           A6          -0.00187  -0.00881  -0.01337  -0.00047   0.26985
           D1           0.01325   0.00656   0.01316  -0.01270  -0.02695
           D2           0.01146  -0.00301   0.00207  -0.01513   0.00867
           D3           0.01883   0.00562   0.00447  -0.01842  -0.01080
           D4           0.00737   0.00863   0.00241  -0.00329  -0.01947
                          D1        D2        D3        D4
           D1           0.02464
           D2           0.00101   0.01861
           D3           0.00891   0.01196   0.01837
           D4           0.00790  -0.00435   0.00411   0.01076
 ITU=  0 -1  1  0 -1  0  1  1  1  0
 Use linear search instead of GDIIS.
     Eigenvalues ---    0.07184   0.08852   0.11028   0.13411   0.21641
     Eigenvalues ---    0.23850   0.33327   0.35137   0.49133
 RFO step:  Lambda=-7.38123161D-06 EMin= 7.18357471D-02
 Quartic linear search produced a step of  0.00000.
 Iteration  1 RMS(Cart)=  0.00155807 RMS(Int)=  0.00000273
 Iteration  2 RMS(Cart)=  0.00000258 RMS(Int)=  0.00000153
 Iteration  3 RMS(Cart)=  0.00000000 RMS(Int)=  0.00000153
 ITry= 1 IFail=0 DXMaxC= 2.64D-03 DCOld= 1.00D+10 DXMaxT= 3.57D-01 DXLimC= 3.00D+00 Rises=F
 Variable       Old X    -DE/DX   Delta X   Delta X   Delta X     New X
                                 (Linear)    (Quad)   (Total)
    R1        3.35998   0.00022   0.00000   0.00051   0.00051   3.36049
    R2        2.51459   0.00003   0.00000   0.00108   0.00108   2.51567
    R3        2.51733  -0.00063   0.00000  -0.00225  -0.00225   2.51508
    R4        2.51620  -0.00059   0.00000  -0.00015  -0.00015   2.51605
    A1        1.92471   0.00000   0.00000  -0.00036  -0.00036   1.92434
    A2        1.92157   0.00042   0.00000   0.00335   0.00335   1.92491
    A3        1.92408   0.00022   0.00000   0.00066   0.00066   1.92474
    A4        1.89640   0.00022   0.00000   0.00011   0.00010   1.89650
    A5        1.89852  -0.00037   0.00000  -0.00261  -0.00261   1.89591
    A6        1.89801  -0.00052   0.00000  -0.00123  -0.00124   1.89678
    D1        2.10952   0.00040   0.00000   0.00167   0.00167   2.11119
    D2       -2.11240   0.00009   0.00000   0.00169   0.00169  -2.11071
    D3        2.10821   0.00033   0.00000   0.00374   0.00374   2.11196
    D4       -2.06257   0.00024   0.00000   0.00205   0.00205  -2.06052
         Item               Value     Threshold  Converged?
 Maximum Force            0.000628     0.000450     NO 
 RMS     Force            0.000360     0.000300     NO 
 Maximum Displacement     0.002640     0.001800     NO 
 RMS     Displacement     0.001558     0.001200     NO 
 Predicted change in Energy=-3.690529D-06
 Lowest energy point so far.  Saving SCF results.
 GradGradGradGradGradGradGradGradGradGradGradGradGradGradGradGradGradGrad

 Leave Link  103 at Thu Jun 13 11:40:28 2024, MaxMem=  1073741824 cpu:         0.5
 (Enter /apps/z_install_tree/linux-rocky8-ivybridge/gcc-12.2.0/gaussian-09-D.01-wczn3gur5lpur3omlkzwa2l5ecyxp5ef/g09/l202.exe)
                          Input orientation:                          
 ---------------------------------------------------------------------
 Center     Atomic      Atomic             Coordinates (Angstroms)
 Number     Number       Type             X           Y           Z
 ---------------------------------------------------------------------
      1          6           0       50.062556   35.526234   32.672620
      2         17           0       50.370984   34.873288   34.297694
      3          9           0       48.781251   35.368107   32.347902
      4          9           0       50.811300   34.894538   31.771677
      5          9           0       50.353909   36.824833   32.634107
 ---------------------------------------------------------------------
                    Distance matrix (angstroms):
                    1          2          3          4          5
     1  C    0.000000
     2  Cl   1.778295   0.000000
     3  F    1.331236   2.563940   0.000000
     4  F    1.330922   2.564194   2.162730   0.000000
     5  F    1.331438   2.564437   2.162687   2.163106   0.000000
 Symmetry turned off by external request.
 Stoichiometry    CClF3
 Framework group  C1[X(CClF3)]
 Deg. of freedom     9
 Full point group                 C1      NOp   1
 Rotational constants (GHZ):      5.6865770      3.2658873      3.2654255
 Leave Link  202 at Thu Jun 13 11:40:28 2024, MaxMem=  1073741824 cpu:         0.1
 (Enter /apps/z_install_tree/linux-rocky8-ivybridge/gcc-12.2.0/gaussian-09-D.01-wczn3gur5lpur3omlkzwa2l5ecyxp5ef/g09/l301.exe)
 Basis read from rwf:  (5D, 7F)
 No pseudopotential information found on rwf file.
   143 basis functions,   227 primitive gaussians,   153 cartesian basis functions
    25 alpha electrons       25 beta electrons
       nuclear repulsion energy       248.9298466905 Hartrees.
 IExCor=  402 DFT=T Ex+Corr=B3LYP ExCW=0 ScaHFX=  0.200000
 ScaDFX=  0.800000  0.720000  1.000000  0.810000 ScalE2=  1.000000  1.000000
 IRadAn=      5 IRanWt=     -1 IRanGd=            0 ICorTp=0 IEmpDi=131
 NAtoms=    5 NActive=    5 NUniq=    5 SFac= 1.00D+00 NAtFMM=   60 NAOKFM=F Big=F
 Integral buffers will be    131072 words long.
 Raffenetti 2 integral format.
 Two-electron integral symmetry is turned off.
 R6Disp:  Grimme-D3 Dispersion energy=       -0.0012945191 Hartrees.
 Nuclear repulsion after empirical dispersion term =      248.9285521714 Hartrees.
 No density basis found on file   724.
 Leave Link  301 at Thu Jun 13 11:40:28 2024, MaxMem=  1073741824 cpu:         0.8
 (Enter /apps/z_install_tree/linux-rocky8-ivybridge/gcc-12.2.0/gaussian-09-D.01-wczn3gur5lpur3omlkzwa2l5ecyxp5ef/g09/l302.exe)
 NPDir=0 NMtPBC=     1 NCelOv=     1 NCel=       1 NClECP=     1 NCelD=      1
         NCelK=      1 NCelE2=     1 NClLst=     1 CellRange=     0.0.
 One-electron integrals computed using PRISM.
 NBasis=   143 RedAO= T EigKep=  1.09D-03  NBF=   143
 NBsUse=   143 1.00D-06 EigRej= -1.00D+00 NBFU=   143
 Precomputing XC quadrature grid using
 IXCGrd= 4 IRadAn=           5 IRanWt=          -1 IRanGd=           0 AccXCQ= 0.00D+00.
 Generated NRdTot=       0 NPtTot=           0 NUsed=           0 NTot=          32
 NSgBfM=   153   153   153   153   153 MxSgAt=     5 MxSgA2=     5.
 Leave Link  302 at Thu Jun 13 11:40:28 2024, MaxMem=  1073741824 cpu:         1.9
 (Enter /apps/z_install_tree/linux-rocky8-ivybridge/gcc-12.2.0/gaussian-09-D.01-wczn3gur5lpur3omlkzwa2l5ecyxp5ef/g09/l303.exe)
 DipDrv:  MaxL=1.
 Leave Link  303 at Thu Jun 13 11:40:28 2024, MaxMem=  1073741824 cpu:         0.3
 (Enter /apps/z_install_tree/linux-rocky8-ivybridge/gcc-12.2.0/gaussian-09-D.01-wczn3gur5lpur3omlkzwa2l5ecyxp5ef/g09/l401.exe)
 Initial guess from the checkpoint file:  "chlorotrifluoromethane.chk"
 B after Tr=     0.004329   -0.000327   -0.006210
         Rot=    1.000000    0.000029    0.000055    0.000017 Ang=   0.01 deg.
 Guess basis will be translated and rotated to current coordinates.
 JPrj=2 DoOrth=T DoCkMO=T.
 Leave Link  401 at Thu Jun 13 11:40:28 2024, MaxMem=  1073741824 cpu:         1.2
 (Enter /apps/z_install_tree/linux-rocky8-ivybridge/gcc-12.2.0/gaussian-09-D.01-wczn3gur5lpur3omlkzwa2l5ecyxp5ef/g09/l502.exe)
 Closed shell SCF:
 Using DIIS extrapolation, IDIIS=  1040.
 Two-electron integral symmetry not used.
 Keep R1 ints in memory in canonical form, NReq=54920448.
 IVT=       85437 IEndB=       85437 NGot=  1073741824 MDV=  1020647432
 LenX=  1020647432 LenY=  1020623582
 Requested convergence on RMS density matrix=1.00D-08 within  96 cycles.
 Requested convergence on MAX density matrix=1.00D-06.
 Requested convergence on             energy=1.00D-06.
 No special actions if energy rises.
 FoFCou: FMM=F IPFlag=           0 FMFlag=           0 FMFlg1=           0
         NFxFlg=           0 DoJE=F BraDBF=F KetDBF=F FulRan=T
         wScrn=  0.000000 ICntrl=     600 IOpCl=  0 I1Cent=           0 NGrid=           0
         NMat0=    1 NMatS0=  10296 NMatT0=    0 NMatD0=    1 NMtDS0=    0 NMtDT0=    0
 Symmetry not used in FoFCou.

 Cycle   1  Pass 1  IDiag  1:
 E= -797.974809632000    
 DIIS: error= 1.32D-04 at cycle   1 NSaved=   1.
 NSaved= 1 IEnMin= 1 EnMin= -797.974809632000     IErMin= 1 ErrMin= 1.32D-04
 ErrMax= 1.32D-04  0.00D+00 EMaxC= 1.00D-01 BMatC= 4.47D-06 BMatP= 4.47D-06
 IDIUse=3 WtCom= 9.99D-01 WtEn= 1.32D-03
 Coeff-Com:  0.100D+01
 Coeff-En:   0.100D+01
 Coeff:      0.100D+01
 Gap=     0.659 Goal=   None    Shift=    0.000
 RMSDP=2.13D-05 MaxDP=2.90D-04              OVMax= 6.55D-04

 Cycle   2  Pass 1  IDiag  1:
 E= -797.974814893463     Delta-E=       -0.000005261464 Rises=F Damp=F
 DIIS: error= 5.83D-05 at cycle   2 NSaved=   2.
 NSaved= 2 IEnMin= 2 EnMin= -797.974814893463     IErMin= 2 ErrMin= 5.83D-05
 ErrMax= 5.83D-05  0.00D+00 EMaxC= 1.00D-01 BMatC= 3.98D-07 BMatP= 4.47D-06
 IDIUse=1 WtCom= 1.00D+00 WtEn= 0.00D+00
 Coeff-Com:  0.875D-01 0.913D+00
 Coeff:      0.875D-01 0.913D+00
 Gap=     0.329 Goal=   None    Shift=    0.000
 RMSDP=3.93D-06 MaxDP=1.42D-04 DE=-5.26D-06 OVMax= 1.78D-04

 Cycle   3  Pass 1  IDiag  1:
 E= -797.974814812433     Delta-E=        0.000000081031 Rises=F Damp=F
 DIIS: error= 7.52D-05 at cycle   3 NSaved=   3.
 NSaved= 3 IEnMin= 2 EnMin= -797.974814893463     IErMin= 2 ErrMin= 5.83D-05
 ErrMax= 7.52D-05  0.00D+00 EMaxC= 1.00D-01 BMatC= 5.59D-07 BMatP= 3.98D-07
 IDIUse=1 WtCom= 1.00D+00 WtEn= 0.00D+00
 Coeff-Com: -0.295D-01 0.554D+00 0.475D+00
 Coeff:     -0.295D-01 0.554D+00 0.475D+00
 Gap=     0.329 Goal=   None    Shift=    0.000
 RMSDP=2.55D-06 MaxDP=7.39D-05 DE= 8.10D-08 OVMax= 1.32D-04

 Cycle   4  Pass 1  IDiag  1:
 E= -797.974815115878     Delta-E=       -0.000000303445 Rises=F Damp=F
 DIIS: error= 8.09D-06 at cycle   4 NSaved=   4.
 NSaved= 4 IEnMin= 4 EnMin= -797.974815115878     IErMin= 4 ErrMin= 8.09D-06
 ErrMax= 8.09D-06  0.00D+00 EMaxC= 1.00D-01 BMatC= 9.90D-09 BMatP= 3.98D-07
 IDIUse=1 WtCom= 1.00D+00 WtEn= 0.00D+00
 Coeff-Com: -0.101D-01 0.120D+00 0.179D+00 0.711D+00
 Coeff:     -0.101D-01 0.120D+00 0.179D+00 0.711D+00
 Gap=     0.329 Goal=   None    Shift=    0.000
 RMSDP=4.82D-07 MaxDP=8.28D-06 DE=-3.03D-07 OVMax= 1.63D-05

 Cycle   5  Pass 1  IDiag  1:
 E= -797.974815122104     Delta-E=       -0.000000006226 Rises=F Damp=F
 DIIS: error= 1.11D-06 at cycle   5 NSaved=   5.
 NSaved= 5 IEnMin= 5 EnMin= -797.974815122104     IErMin= 5 ErrMin= 1.11D-06
 ErrMax= 1.11D-06  0.00D+00 EMaxC= 1.00D-01 BMatC= 2.20D-10 BMatP= 9.90D-09
 IDIUse=1 WtCom= 1.00D+00 WtEn= 0.00D+00
 Coeff-Com: -0.169D-02 0.706D-02 0.306D-01 0.208D+00 0.756D+00
 Coeff:     -0.169D-02 0.706D-02 0.306D-01 0.208D+00 0.756D+00
 Gap=     0.329 Goal=   None    Shift=    0.000
 RMSDP=1.04D-07 MaxDP=2.92D-06 DE=-6.23D-09 OVMax= 5.01D-06

 Cycle   6  Pass 1  IDiag  1:
 E= -797.974815122278     Delta-E=       -0.000000000173 Rises=F Damp=F
 DIIS: error= 3.20D-07 at cycle   6 NSaved=   6.
 NSaved= 6 IEnMin= 6 EnMin= -797.974815122278     IErMin= 6 ErrMin= 3.20D-07
 ErrMax= 3.20D-07  0.00D+00 EMaxC= 1.00D-01 BMatC= 1.75D-11 BMatP= 2.20D-10
 IDIUse=1 WtCom= 1.00D+00 WtEn= 0.00D+00
 Coeff-Com: -0.355D-05-0.506D-02-0.353D-03 0.362D-01 0.266D+00 0.704D+00
 Coeff:     -0.355D-05-0.506D-02-0.353D-03 0.362D-01 0.266D+00 0.704D+00
 Gap=     0.329 Goal=   None    Shift=    0.000
 RMSDP=2.67D-08 MaxDP=6.06D-07 DE=-1.73D-10 OVMax= 1.40D-06

 Cycle   7  Pass 1  IDiag  1:
 E= -797.974815122291     Delta-E=       -0.000000000013 Rises=F Damp=F
 DIIS: error= 2.27D-07 at cycle   7 NSaved=   7.
 NSaved= 7 IEnMin= 7 EnMin= -797.974815122291     IErMin= 7 ErrMin= 2.27D-07
 ErrMax= 2.27D-07  0.00D+00 EMaxC= 1.00D-01 BMatC= 4.02D-12 BMatP= 1.75D-11
 IDIUse=1 WtCom= 1.00D+00 WtEn= 0.00D+00
 Coeff-Com:  0.815D-04-0.322D-02-0.186D-02 0.112D-01 0.116D+00 0.403D+00
 Coeff-Com:  0.475D+00
 Coeff:      0.815D-04-0.322D-02-0.186D-02 0.112D-01 0.116D+00 0.403D+00
 Coeff:      0.475D+00
 Gap=     0.329 Goal=   None    Shift=    0.000
 RMSDP=6.47D-09 MaxDP=2.08D-07 DE=-1.34D-11 OVMax= 3.16D-07

 SCF Done:  E(RB3LYP) =  -797.974815122     A.U. after    7 cycles
            NFock=  7  Conv=0.65D-08     -V/T= 2.0025
 KE= 7.959668724034D+02 PE=-2.394861332574D+03 EE= 5.519910928766D+02
 Leave Link  502 at Thu Jun 13 11:40:30 2024, MaxMem=  1073741824 cpu:        22.1
 (Enter /apps/z_install_tree/linux-rocky8-ivybridge/gcc-12.2.0/gaussian-09-D.01-wczn3gur5lpur3omlkzwa2l5ecyxp5ef/g09/l508.exe)
 QCSCF skips out because SCF is already converged.
 Leave Link  508 at Thu Jun 13 11:40:30 2024, MaxMem=  1073741824 cpu:         0.0
 (Enter /apps/z_install_tree/linux-rocky8-ivybridge/gcc-12.2.0/gaussian-09-D.01-wczn3gur5lpur3omlkzwa2l5ecyxp5ef/g09/l701.exe)
 Compute integral first derivatives.
 ... and contract with generalized density number  0.
 R6Disp: Adding Grimme-D3 dispersion energy 1st derivatives to the gradient.
 Leave Link  701 at Thu Jun 13 11:40:30 2024, MaxMem=  1073741824 cpu:         2.1
 (Enter /apps/z_install_tree/linux-rocky8-ivybridge/gcc-12.2.0/gaussian-09-D.01-wczn3gur5lpur3omlkzwa2l5ecyxp5ef/g09/l702.exe)
 L702 exits ... SP integral derivatives will be done elsewhere.
 Leave Link  702 at Thu Jun 13 11:40:30 2024, MaxMem=  1073741824 cpu:         0.2
 (Enter /apps/z_install_tree/linux-rocky8-ivybridge/gcc-12.2.0/gaussian-09-D.01-wczn3gur5lpur3omlkzwa2l5ecyxp5ef/g09/l703.exe)
 Compute integral first derivatives, UseDBF=F ICtDFT=           0.
 Integral derivatives from FoFJK, PRISM(SPDF).
 Calling FoFJK, ICntrl=      2127 FMM=F ISym2X=0 I1Cent= 0 IOpClX= 0 NMat=1 NMatS=1 NMatT=0.
 FoFJK:  IHMeth= 1 ICntrl=    2127 DoSepK=F KAlg= 0 I1Cent=   0 FoldK=F
 IRaf=         0 NMat=   1 IRICut=       1 DoRegI=T DoRafI=F ISym2E= 0.
 FoFCou: FMM=F IPFlag=           0 FMFlag=      100000 FMFlg1=         800
         NFxFlg=           0 DoJE=F BraDBF=F KetDBF=F FulRan=T
         wScrn=  0.000000 ICntrl=    2127 IOpCl=  0 I1Cent=           0 NGrid=           0
         NMat0=    1 NMatS0=      1 NMatT0=    0 NMatD0=    1 NMtDS0=    0 NMtDT0=    0
 Symmetry not used in FoFCou.
 Leave Link  703 at Thu Jun 13 11:40:31 2024, MaxMem=  1073741824 cpu:         9.9
 (Enter /apps/z_install_tree/linux-rocky8-ivybridge/gcc-12.2.0/gaussian-09-D.01-wczn3gur5lpur3omlkzwa2l5ecyxp5ef/g09/l716.exe)
 Dipole        = 3.29382919D-02-6.91052436D-02 1.69598915D-01
 -------------------------------------------------------------------
 Center     Atomic                   Forces (Hartrees/Bohr)
 Number     Number              X              Y              Z
 -------------------------------------------------------------------
      1        6          -0.000214204    0.000274493   -0.000023899
      2       17           0.000031580    0.000037376   -0.000073141
      3        9           0.000036486   -0.000059802    0.000034624
      4        9           0.000086104   -0.000022047    0.000009309
      5        9           0.000060034   -0.000230020    0.000053107
 -------------------------------------------------------------------
 Cartesian Forces:  Max     0.000274493 RMS     0.000116325
 Leave Link  716 at Thu Jun 13 11:40:31 2024, MaxMem=  1073741824 cpu:         0.3
 (Enter /apps/z_install_tree/linux-rocky8-ivybridge/gcc-12.2.0/gaussian-09-D.01-wczn3gur5lpur3omlkzwa2l5ecyxp5ef/g09/l103.exe)

 GradGradGradGradGradGradGradGradGradGradGradGradGradGradGradGradGradGrad
 Berny optimization.
 Using GEDIIS/GDIIS optimizer.
 FormGI is forming the generalized inverse of G from B-inverse, IUseBI=4.
 Internal  Forces:  Max     0.000212671 RMS     0.000084756
 Search for a local minimum.
 Step number  11 out of a maximum of   24
 All quantities printed in internal units (Hartrees-Bohrs-Radians)
 RMS Force = .84756D-04 SwitMx=.10000D-02 MixMth= 2
 Mixed Optimization -- En-DIIS/RFO-DIIS
 Swapping is turned off.
 Update second derivatives using D2CorX and points    4    6    5    7    9
                                                      8   10   11
 DE= -3.12D-06 DEPred=-3.69D-06 R= 8.46D-01
 TightC=F SS=  1.41D+00  RLast= 7.11D-03 DXNew= 6.0000D-01 2.1318D-02
 Trust test= 8.46D-01 RLast= 7.11D-03 DXMaxT set to 3.57D-01
 The second derivative matrix:
                          R1        R2        R3        R4        A1
           R1           0.16870
           R2           0.07229   0.30845
           R3           0.04086   0.01945   0.34222
           R4          -0.01783   0.09066   0.04886   0.30394
           A1          -0.01830  -0.01229   0.00329   0.00105   0.22327
           A2           0.03247   0.02641   0.03189   0.03101   0.02946
           A3           0.01174  -0.01161  -0.01191  -0.02992   0.00787
           A4           0.01042   0.00679  -0.00737  -0.01542  -0.00676
           A5          -0.01532   0.01971  -0.02679   0.00654  -0.01734
           A6          -0.02009  -0.02868   0.01150   0.01248   0.00927
           D1           0.03992  -0.01590  -0.00208  -0.06601   0.00431
           D2          -0.01691  -0.04780   0.02781  -0.00758  -0.00627
           D3          -0.00639  -0.05253  -0.01440  -0.04388  -0.00403
           D4           0.01052  -0.00473  -0.04221  -0.03630   0.00224
                          A2        A3        A4        A5        A6
           A2           0.14945
           A3          -0.01157   0.25134
           A4           0.01124   0.01817   0.24250
           A5           0.05900  -0.00369  -0.00600   0.22756
           A6           0.01881  -0.01146  -0.01193  -0.01208   0.25975
           D1           0.01966   0.01763   0.01736  -0.02591  -0.03498
           D2           0.01588   0.00260   0.00489  -0.02276   0.00364
           D3           0.02262   0.01813   0.00898  -0.03052  -0.01824
           D4           0.00674   0.01552   0.00410  -0.00776  -0.02188
                          D1        D2        D3        D4
           D1           0.03847
           D2           0.00840   0.02255
           D3           0.02564   0.02104   0.03821
           D4           0.01724   0.00080   0.01487   0.01637
 ITU=  1  0 -1  1  0 -1  0  1  1  1  0
     Eigenvalues ---    0.07956   0.08999   0.10842   0.15235   0.21709
     Eigenvalues ---    0.24473   0.32716   0.34797   0.45267
 En-DIIS/RFO-DIIS IScMMF=        0 using points:    11   10
 RFO step:  Lambda=-2.35807404D-07.
 NNeg= 0 NP= 2 Switch=  2.50D-03 Rises=F DC=  3.12D-06 SmlDif=  1.00D-05
 RMS Error=  0.2031434896D-03 NUsed= 2 EDIIS=F
 DidBck=F Rises=F RFO-DIIS coefs:    0.86611    0.13389
 Iteration  1 RMS(Cart)=  0.00048259 RMS(Int)=  0.00000028
 Iteration  2 RMS(Cart)=  0.00000019 RMS(Int)=  0.00000023
 ITry= 1 IFail=0 DXMaxC= 9.36D-04 DCOld= 1.00D+10 DXMaxT= 3.57D-01 DXLimC= 3.00D+00 Rises=F
 Variable       Old X    -DE/DX   Delta X   Delta X   Delta X     New X
                                 (Linear)    (Quad)   (Total)
    R1        3.36049  -0.00008  -0.00007  -0.00048  -0.00055   3.35994
    R2        2.51567  -0.00004  -0.00014   0.00015   0.00000   2.51567
    R3        2.51508   0.00005   0.00030   0.00006   0.00036   2.51544
    R4        2.51605  -0.00021   0.00002  -0.00101  -0.00099   2.51506
    A1        1.92434  -0.00001   0.00005   0.00005   0.00010   1.92444
    A2        1.92491  -0.00001  -0.00045   0.00004  -0.00040   1.92451
    A3        1.92474  -0.00008  -0.00009  -0.00037  -0.00046   1.92428
    A4        1.89650   0.00000  -0.00001   0.00033   0.00032   1.89682
    A5        1.89591   0.00015   0.00035   0.00040   0.00075   1.89665
    A6        1.89678  -0.00005   0.00017  -0.00044  -0.00028   1.89650
    D1        2.11119  -0.00001  -0.00022   0.00030   0.00007   2.11126
    D2       -2.11071  -0.00003  -0.00023  -0.00008  -0.00031  -2.11102
    D3        2.11196  -0.00009  -0.00050  -0.00045  -0.00095   2.11100
    D4       -2.06052  -0.00006  -0.00027  -0.00037  -0.00065  -2.06117
         Item               Value     Threshold  Converged?
 Maximum Force            0.000213     0.000450     YES
 RMS     Force            0.000085     0.000300     YES
 Maximum Displacement     0.000936     0.001800     YES
 RMS     Displacement     0.000483     0.001200     YES
 Predicted change in Energy=-2.888380D-07
 Optimization completed.
    -- Stationary point found.
                           ----------------------------
                           !   Optimized Parameters   !
                           ! (Angstroms and Degrees)  !
 --------------------------                            --------------------------
 ! Name  Definition              Value          Derivative Info.                !
 --------------------------------------------------------------------------------
 ! R1    R(1,2)                  1.7783         -DE/DX =   -0.0001              !
 ! R2    R(1,3)                  1.3312         -DE/DX =    0.0                 !
 ! R3    R(1,4)                  1.3309         -DE/DX =    0.0001              !
 ! R4    R(1,5)                  1.3314         -DE/DX =   -0.0002              !
 ! A1    A(2,1,3)              110.2567         -DE/DX =    0.0                 !
 ! A2    A(2,1,4)              110.2893         -DE/DX =    0.0                 !
 ! A3    A(2,1,5)              110.2794         -DE/DX =   -0.0001              !
 ! A4    A(3,1,4)              108.6616         -DE/DX =    0.0                 !
 ! A5    A(3,1,5)              108.6275         -DE/DX =    0.0001              !
 ! A6    A(4,1,5)              108.6772         -DE/DX =    0.0                 !
 ! D1    D(2,1,4,3)            120.9623         -DE/DX =    0.0                 !
 ! D2    D(2,1,5,3)           -120.9347         -DE/DX =    0.0                 !
 ! D3    D(2,1,5,4)            121.0062         -DE/DX =   -0.0001              !
 ! D4    D(3,1,5,4)           -118.0591         -DE/DX =   -0.0001              !
 --------------------------------------------------------------------------------
 Lowest energy point so far.  Saving SCF results.
 GradGradGradGradGradGradGradGradGradGradGradGradGradGradGradGradGradGrad

 Largest change from initial coordinates is atom    5       0.507 Angstoms.
 Leave Link  103 at Thu Jun 13 11:40:31 2024, MaxMem=  1073741824 cpu:         0.5
 (Enter /apps/z_install_tree/linux-rocky8-ivybridge/gcc-12.2.0/gaussian-09-D.01-wczn3gur5lpur3omlkzwa2l5ecyxp5ef/g09/l202.exe)
                          Input orientation:                          
 ---------------------------------------------------------------------
 Center     Atomic      Atomic             Coordinates (Angstroms)
 Number     Number       Type             X           Y           Z
 ---------------------------------------------------------------------
      1          6           0       50.062556   35.526234   32.672620
      2         17           0       50.370984   34.873288   34.297694
      3          9           0       48.781251   35.368107   32.347902
      4          9           0       50.811300   34.894538   31.771677
      5          9           0       50.353909   36.824833   32.634107
 ---------------------------------------------------------------------
                    Distance matrix (angstroms):
                    1          2          3          4          5
     1  C    0.000000
     2  Cl   1.778295   0.000000
     3  F    1.331236   2.563940   0.000000
     4  F    1.330922   2.564194   2.162730   0.000000
     5  F    1.331438   2.564437   2.162687   2.163106   0.000000
 Symmetry turned off by external request.
 Stoichiometry    CClF3
 Framework group  C1[X(CClF3)]
 Deg. of freedom     9
 Full point group                 C1      NOp   1
 Rotational constants (GHZ):      5.6865770      3.2658873      3.2654255
 Leave Link  202 at Thu Jun 13 11:40:31 2024, MaxMem=  1073741824 cpu:         0.1
 (Enter /apps/z_install_tree/linux-rocky8-ivybridge/gcc-12.2.0/gaussian-09-D.01-wczn3gur5lpur3omlkzwa2l5ecyxp5ef/g09/l601.exe)
 Copying SCF densities to generalized density rwf, IOpCl= 0 IROHF=0.

 **********************************************************************

            Population analysis using the SCF density.

 **********************************************************************

 Alpha  occ. eigenvalues -- -101.59542 -24.75236 -24.75217 -24.75216 -10.50395
 Alpha  occ. eigenvalues --   -9.51009  -7.27535  -7.26439  -7.26439  -1.36573
 Alpha  occ. eigenvalues --   -1.27434  -1.27411  -0.90314  -0.73202  -0.64335
 Alpha  occ. eigenvalues --   -0.64326  -0.60611  -0.51225  -0.51222  -0.47822
 Alpha  occ. eigenvalues --   -0.47812  -0.45200  -0.43859  -0.36164  -0.36163
 Alpha virt. eigenvalues --   -0.03221   0.00936   0.04168   0.05149   0.05151
 Alpha virt. eigenvalues --    0.07613   0.07616   0.09509   0.12961   0.12982
 Alpha virt. eigenvalues --    0.15981   0.18060   0.20789   0.20792   0.24939
 Alpha virt. eigenvalues --    0.24943   0.26047   0.30736   0.31553   0.31557
 Alpha virt. eigenvalues --    0.33175   0.33540   0.35526   0.35529   0.38988
 Alpha virt. eigenvalues --    0.41830   0.41837   0.45216   0.45217   0.53384
 Alpha virt. eigenvalues --    0.53390   0.55270   0.69174   0.69193   0.72878
 Alpha virt. eigenvalues --    0.89734   0.93895   0.93901   1.00902   1.10968
 Alpha virt. eigenvalues --    1.10975   1.19885   1.22963   1.22973   1.30905
 Alpha virt. eigenvalues --    1.30912   1.33603   1.36345   1.42077   1.44864
 Alpha virt. eigenvalues --    1.44866   1.85276   1.85286   1.92600   1.93798
 Alpha virt. eigenvalues --    1.93814   1.95910   2.01355   2.02587   2.02617
 Alpha virt. eigenvalues --    2.11339   2.15066   2.15071   2.26597   2.26611
 Alpha virt. eigenvalues --    2.36102   2.39293   2.39296   2.49123   2.49149
 Alpha virt. eigenvalues --    2.55051   2.56052   2.56108   2.63966   2.88181
 Alpha virt. eigenvalues --    2.88202   2.96230   3.29290   3.29304   3.39900
 Alpha virt. eigenvalues --    3.39936   3.45431   3.56215   4.12395   4.12402
 Alpha virt. eigenvalues --    6.23147   6.23154   6.30048   6.30798   6.30800
 Alpha virt. eigenvalues --    6.31058   6.36527   6.69778   6.69879   8.96213
 Alpha virt. eigenvalues --    8.97979   8.97995   9.08154   9.08156   9.08798
 Alpha virt. eigenvalues --    9.10280   9.18043   9.18045   9.36881   9.52660
 Alpha virt. eigenvalues --    9.52670   9.53027   9.71348   9.71355   9.71519
 Alpha virt. eigenvalues --   23.79116  25.91563  25.91572  27.14360  66.76024
 Alpha virt. eigenvalues --   66.76040  66.80248 215.69918
          Condensed to atoms (all electrons):
               1          2          3          4          5
     1  C    4.257955   0.433796   0.209674   0.209702   0.209702
     2  Cl   0.433796  16.714085  -0.077922  -0.077862  -0.077830
     3  F    0.209674  -0.077922   9.131296  -0.003986  -0.004076
     4  F    0.209702  -0.077862  -0.003986   9.130968  -0.003974
     5  F    0.209702  -0.077830  -0.004076  -0.003974   9.131248
 Mulliken charges:
               1
     1  C    0.679171
     2  Cl   0.085732
     3  F   -0.254986
     4  F   -0.254848
     5  F   -0.255069
 Sum of Mulliken charges =   0.00000
 Mulliken charges with hydrogens summed into heavy atoms:
               1
     1  C    0.679171
     2  Cl   0.085732
     3  F   -0.254986
     4  F   -0.254848
     5  F   -0.255069
 Electronic spatial extent (au):  <R**2>=         867115.1385
 Charge=              0.0000 electrons
 Dipole moment (field-independent basis, Debye):
    X=              0.0837    Y=             -0.1756    Z=              0.4311  Tot=              0.4730
 Quadrupole moment (field-independent basis, Debye-Ang):
   XX=            -25.3895   YY=            -46.0179   ZZ=             -3.7918
   XY=             -5.9629   XZ=             24.6711   YZ=              8.8221
 Traceless Quadrupole moment (field-independent basis, Debye-Ang):
   XX=             -0.3231   YY=            -20.9515   ZZ=             21.2746
   XY=             -5.9629   XZ=             24.6711   YZ=              8.8221
 Octapole moment (field-independent basis, Debye-Ang**2):
  XXX=          -4450.1985  YYY=          -4223.0397  ZZZ=          -1789.7719  XYY=          -2211.2921
  XXY=          -1350.5260  XXZ=            272.3556  XZZ=            -79.0901  YZZ=           -367.8110
  YYZ=          -1026.5265  XYZ=            546.0980
 Hexadecapole moment (field-independent basis, Debye-Ang**3):
 XXXX=        -467443.0463 YYYY=        -283261.8963 ZZZZ=        -149714.1717 XXXY=        -180299.0483
 XXXZ=         -90766.0246 YYYX=        -208517.2211 YYYZ=        -122913.3097 ZZZX=         -85733.7492
 ZZZY=         -71743.7356 XXYY=        -148303.0451 XXZZ=         -35443.4850 YYZZ=         -58093.6745
 XXYZ=          -6922.0512 YYXZ=         -47971.5685 ZZXY=         -14675.2398
 N-N= 2.489285521714D+02 E-N=-2.394861341371D+03  KE= 7.959668724034D+02
 No NMR shielding tensors so no spin-rotation constants.
 Leave Link  601 at Thu Jun 13 11:40:31 2024, MaxMem=  1073741824 cpu:         1.5
 (Enter /apps/z_install_tree/linux-rocky8-ivybridge/gcc-12.2.0/gaussian-09-D.01-wczn3gur5lpur3omlkzwa2l5ecyxp5ef/g09/l9999.exe)
 1\1\GINC-K152\FOpt\RB3LYP\Gen\C1Cl1F3\Z5112331\13-Jun-2024\0\\#p opt f
 req b3lyp/gen nosymm em=gd3 int=ultrafine scf=xqc scfcyc=96\\chlorotri
 fluoromethane\\0,1\C,50.0625559876,35.5262339442,32.672619767\Cl,50.37
 0984067,34.873287882,34.2976940765\F,48.7812510787,35.3681072225,32.34
 79015906\F,50.8112997276,34.8945383475,31.7716772006\F,50.3539091391,3
 6.8248326038,32.6341073654\\Version=ES64L-G09RevD.01\HF=-797.9748151\R
 MSD=6.469e-09\RMSF=1.163e-04\Dipole=0.0329383,-0.0691052,0.1695989\Qua
 drupole=-0.240217,-15.5769349,15.8171519,-4.4332338,18.342347,6.559047
 3\PG=C01 [X(C1Cl1F3)]\\@


 IF I AM NOT FOR MYSELF, WHO WILL BE?
 BUT IF I AM ONLY FOR MYSELF, WHAT AM I?
 THOUGH A SEEKER SINCE MY BIRTH,
 HERE IS ALL I'VE LEARNED ON EARTH,
 THIS IS THE GIST OF WHAT I KNOW:
 GIVE ADVICE AND BUY A FOE.

 PRESSED FOR RULES AND VERITIES,
 ALL I RECOLLECT ARE THESE:
 FEED A COLD TO STARVE A FEVER,
 ARGUE WITH NO TRUE-BELIEVER.
 THINK-TOO-LONG IS NEVER-ACT,
 SCRATCH A MYTH AND FIND A FACT.

 STITCH IN TIME SAVES TWENTY STITCHES,
 GIVE THE RICH TO PLEASE THEM, RICHES.
 GIVE TO LOVE YOU HEARTH AND HALL,
 BUT DO NOT GIVE ADVICE AT ALL.

                                  -- HILLEL
 Leave Link 9999 at Thu Jun 13 11:40:31 2024, MaxMem=  1073741824 cpu:         0.5
 Job cpu time:       0 days  0 hours  8 minutes 38.2 seconds.
 File lengths (MBytes):  RWF=    132 Int=      0 D2E=      0 Chk=      3 Scr=      2
 Normal termination of Gaussian 09 at Thu Jun 13 11:40:31 2024.
 (Enter /apps/z_install_tree/linux-rocky8-ivybridge/gcc-12.2.0/gaussian-09-D.01-wczn3gur5lpur3omlkzwa2l5ecyxp5ef/g09/l1.exe)
 Link1:  Proceeding to internal job step number  2.
 ------------------------------------------------------------------
 #P Geom=AllCheck Guess=TCheck SCRF=Check GenChk RB3LYP/ChkBas Freq
 ------------------------------------------------------------------
 1/10=4,29=7,30=1,38=1,40=1/1,3;
 2/12=2,15=1,40=1/2;
 3/5=7,6=2,11=2,14=-4,16=1,25=1,30=1,67=1,70=2,71=2,74=-5,75=-5,82=7,116=1,124=31,140=1/1,2,3;
 4/5=101/1;
 5/5=2,7=96,8=3,13=1,98=1/2,8;
 8/6=4,10=90,11=11/1;
 11/6=1,8=1,9=11,15=111,16=1,31=1/1,2,10;
 10/6=1,31=1/2;
 6/7=2,8=2,9=2,10=2,18=1,28=1/1;
 7/8=1,10=1,25=1,30=1/1,2,3,16;
 1/10=4,30=1/3;
 99//99;
 Leave Link    1 at Thu Jun 13 11:40:31 2024, MaxMem=  1073741824 cpu:         0.6
 (Enter /apps/z_install_tree/linux-rocky8-ivybridge/gcc-12.2.0/gaussian-09-D.01-wczn3gur5lpur3omlkzwa2l5ecyxp5ef/g09/l101.exe)
 Structure from the checkpoint file:  "chlorotrifluoromethane.chk"
 ----------------------
 chlorotrifluoromethane
 ----------------------
 Charge =  0 Multiplicity = 1
 Redundant internal coordinates found in file.
 C,0,50.0625559876,35.5262339442,32.672619767
 Cl,0,50.370984067,34.873287882,34.2976940765
 F,0,48.7812510787,35.3681072225,32.3479015906
 F,0,50.8112997276,34.8945383475,31.7716772006
 F,0,50.3539091391,36.8248326038,32.6341073654
 Recover connectivity data from disk.
 NAtoms=      5 NQM=        5 NQMF=       0 NMMI=      0 NMMIF=      0
                NMic=       0 NMicF=      0.
                    Isotopes and Nuclear Properties:
 (Nuclear quadrupole moments (NQMom) in fm**2, nuclear magnetic moments (NMagM)
  in nuclear magnetons)

  Atom         1           2           3           4           5
 IAtWgt=          12          35          19          19          19
 AtmWgt=  12.0000000  34.9688527  18.9984033  18.9984033  18.9984033
 NucSpn=           0           3           1           1           1
 AtZEff=  -3.6000000 -14.2400000  -6.7500000  -6.7500000  -6.7500000
 NQMom=    0.0000000  -8.1650000   0.0000000   0.0000000   0.0000000
 NMagM=    0.0000000   0.8218740   2.6288670   2.6288670   2.6288670
 AtZNuc=   6.0000000  17.0000000   9.0000000   9.0000000   9.0000000
 Leave Link  101 at Thu Jun 13 11:40:31 2024, MaxMem=  1073741824 cpu:         2.4
 (Enter /apps/z_install_tree/linux-rocky8-ivybridge/gcc-12.2.0/gaussian-09-D.01-wczn3gur5lpur3omlkzwa2l5ecyxp5ef/g09/l103.exe)

 GradGradGradGradGradGradGradGradGradGradGradGradGradGradGradGradGradGrad
 Berny optimization.
 Initialization pass.
                           ----------------------------
                           !    Initial Parameters    !
                           ! (Angstroms and Degrees)  !
 --------------------------                            --------------------------
 ! Name  Definition              Value          Derivative Info.                !
 --------------------------------------------------------------------------------
 ! R1    R(1,2)                  1.7783         calculate D2E/DX2 analytically  !
 ! R2    R(1,3)                  1.3312         calculate D2E/DX2 analytically  !
 ! R3    R(1,4)                  1.3309         calculate D2E/DX2 analytically  !
 ! R4    R(1,5)                  1.3314         calculate D2E/DX2 analytically  !
 ! A1    A(2,1,3)              110.2567         calculate D2E/DX2 analytically  !
 ! A2    A(2,1,4)              110.2893         calculate D2E/DX2 analytically  !
 ! A3    A(2,1,5)              110.2794         calculate D2E/DX2 analytically  !
 ! A4    A(3,1,4)              108.6616         calculate D2E/DX2 analytically  !
 ! A5    A(3,1,5)              108.6275         calculate D2E/DX2 analytically  !
 ! A6    A(4,1,5)              108.6772         calculate D2E/DX2 analytically  !
 ! D1    D(2,1,4,3)            120.9623         calculate D2E/DX2 analytically  !
 ! D2    D(2,1,5,3)           -120.9347         calculate D2E/DX2 analytically  !
 ! D3    D(2,1,5,4)            121.0062         calculate D2E/DX2 analytically  !
 ! D4    D(3,1,5,4)           -118.0591         calculate D2E/DX2 analytically  !
 --------------------------------------------------------------------------------
 Trust Radius=3.00D-01 FncErr=1.00D-07 GrdErr=1.00D-07
 Number of steps in this run=      2 maximum allowed number of steps=      2.
 GradGradGradGradGradGradGradGradGradGradGradGradGradGradGradGradGradGrad

 Leave Link  103 at Thu Jun 13 11:40:32 2024, MaxMem=  1073741824 cpu:         0.1
 (Enter /apps/z_install_tree/linux-rocky8-ivybridge/gcc-12.2.0/gaussian-09-D.01-wczn3gur5lpur3omlkzwa2l5ecyxp5ef/g09/l202.exe)
                          Input orientation:                          
 ---------------------------------------------------------------------
 Center     Atomic      Atomic             Coordinates (Angstroms)
 Number     Number       Type             X           Y           Z
 ---------------------------------------------------------------------
      1          6           0       50.062556   35.526234   32.672620
      2         17           0       50.370984   34.873288   34.297694
      3          9           0       48.781251   35.368107   32.347902
      4          9           0       50.811300   34.894538   31.771677
      5          9           0       50.353909   36.824833   32.634107
 ---------------------------------------------------------------------
                    Distance matrix (angstroms):
                    1          2          3          4          5
     1  C    0.000000
     2  Cl   1.778295   0.000000
     3  F    1.331236   2.563940   0.000000
     4  F    1.330922   2.564194   2.162730   0.000000
     5  F    1.331438   2.564437   2.162687   2.163106   0.000000
 Symmetry turned off by external request.
 Stoichiometry    CClF3
 Framework group  C1[X(CClF3)]
 Deg. of freedom     9
 Full point group                 C1      NOp   1
 Rotational constants (GHZ):      5.6865770      3.2658873      3.2654255
 Leave Link  202 at Thu Jun 13 11:40:32 2024, MaxMem=  1073741824 cpu:         0.1
 (Enter /apps/z_install_tree/linux-rocky8-ivybridge/gcc-12.2.0/gaussian-09-D.01-wczn3gur5lpur3omlkzwa2l5ecyxp5ef/g09/l301.exe)
 Basis read from chk: "chlorotrifluoromethane.chk" (5D, 7F)
 No pseudopotential information found on chk file.
   143 basis functions,   227 primitive gaussians,   153 cartesian basis functions
    25 alpha electrons       25 beta electrons
       nuclear repulsion energy       248.9298466905 Hartrees.
 IExCor=  402 DFT=T Ex+Corr=B3LYP ExCW=0 ScaHFX=  0.200000
 ScaDFX=  0.800000  0.720000  1.000000  0.810000 ScalE2=  1.000000  1.000000
 IRadAn=      5 IRanWt=     -1 IRanGd=            0 ICorTp=0 IEmpDi=131
 NAtoms=    5 NActive=    5 NUniq=    5 SFac= 1.00D+00 NAtFMM=   60 NAOKFM=F Big=F
 Integral buffers will be    131072 words long.
 Raffenetti 2 integral format.
 Two-electron integral symmetry is turned off.
 R6Disp:  Grimme-D3 Dispersion energy=       -0.0012945191 Hartrees.
 Nuclear repulsion after empirical dispersion term =      248.9285521714 Hartrees.
 No density basis found on file 20724.
 Leave Link  301 at Thu Jun 13 11:40:32 2024, MaxMem=  1073741824 cpu:         0.7
 (Enter /apps/z_install_tree/linux-rocky8-ivybridge/gcc-12.2.0/gaussian-09-D.01-wczn3gur5lpur3omlkzwa2l5ecyxp5ef/g09/l302.exe)
 NPDir=0 NMtPBC=     1 NCelOv=     1 NCel=       1 NClECP=     1 NCelD=      1
         NCelK=      1 NCelE2=     1 NClLst=     1 CellRange=     0.0.
 One-electron integrals computed using PRISM.
 NBasis=   143 RedAO= T EigKep=  1.09D-03  NBF=   143
 NBsUse=   143 1.00D-06 EigRej= -1.00D+00 NBFU=   143
 Precomputing XC quadrature grid using
 IXCGrd= 4 IRadAn=           5 IRanWt=          -1 IRanGd=           0 AccXCQ= 0.00D+00.
 Generated NRdTot=       0 NPtTot=           0 NUsed=           0 NTot=          32
 NSgBfM=   153   153   153   153   153 MxSgAt=     5 MxSgA2=     5.
 Leave Link  302 at Thu Jun 13 11:40:32 2024, MaxMem=  1073741824 cpu:         1.9
 (Enter /apps/z_install_tree/linux-rocky8-ivybridge/gcc-12.2.0/gaussian-09-D.01-wczn3gur5lpur3omlkzwa2l5ecyxp5ef/g09/l303.exe)
 DipDrv:  MaxL=1.
 Leave Link  303 at Thu Jun 13 11:40:32 2024, MaxMem=  1073741824 cpu:         0.3
 (Enter /apps/z_install_tree/linux-rocky8-ivybridge/gcc-12.2.0/gaussian-09-D.01-wczn3gur5lpur3omlkzwa2l5ecyxp5ef/g09/l401.exe)
 Initial guess from the checkpoint file:  "chlorotrifluoromethane.chk"
 B after Tr=     0.000000    0.000000    0.000000
         Rot=    1.000000    0.000000    0.000000    0.000000 Ang=   0.00 deg.
 Guess basis will be translated and rotated to current coordinates.
 JPrj=2 DoOrth=T DoCkMO=T.
 Leave Link  401 at Thu Jun 13 11:40:32 2024, MaxMem=  1073741824 cpu:         1.2
 (Enter /apps/z_install_tree/linux-rocky8-ivybridge/gcc-12.2.0/gaussian-09-D.01-wczn3gur5lpur3omlkzwa2l5ecyxp5ef/g09/l502.exe)
 Closed shell SCF:
 Using DIIS extrapolation, IDIIS=  1040.
 Two-electron integral symmetry not used.
 Keep R1 ints in memory in canonical form, NReq=54920448.
 IVT=       85437 IEndB=       85437 NGot=  1073741824 MDV=  1020647432
 LenX=  1020647432 LenY=  1020623582
 Requested convergence on RMS density matrix=1.00D-08 within  96 cycles.
 Requested convergence on MAX density matrix=1.00D-06.
 Requested convergence on             energy=1.00D-06.
 No special actions if energy rises.
 FoFCou: FMM=F IPFlag=           0 FMFlag=           0 FMFlg1=           0
         NFxFlg=           0 DoJE=F BraDBF=F KetDBF=F FulRan=T
         wScrn=  0.000000 ICntrl=     600 IOpCl=  0 I1Cent=           0 NGrid=           0
         NMat0=    1 NMatS0=  10296 NMatT0=    0 NMatD0=    1 NMtDS0=    0 NMtDT0=    0
 Symmetry not used in FoFCou.

 Cycle   1  Pass 1  IDiag  1:
 E= -797.974815122290    
 DIIS: error= 2.28D-08 at cycle   1 NSaved=   1.
 NSaved= 1 IEnMin= 1 EnMin= -797.974815122290     IErMin= 1 ErrMin= 2.28D-08
 ErrMax= 2.28D-08  0.00D+00 EMaxC= 1.00D-01 BMatC= 1.01D-13 BMatP= 1.01D-13
 IDIUse=1 WtCom= 1.00D+00 WtEn= 0.00D+00
 Coeff-Com:  0.100D+01
 Coeff:      0.100D+01
 Gap=     0.329 Goal=   None    Shift=    0.000
 RMSDP=2.90D-09 MaxDP=9.83D-08              OVMax= 1.14D-07

 SCF Done:  E(RB3LYP) =  -797.974815122     A.U. after    1 cycles
            NFock=  1  Conv=0.29D-08     -V/T= 2.0025
 KE= 7.959668673951D+02 PE=-2.394861336362D+03 EE= 5.519911016735D+02
 Leave Link  502 at Thu Jun 13 11:40:33 2024, MaxMem=  1073741824 cpu:         8.3
 (Enter /apps/z_install_tree/linux-rocky8-ivybridge/gcc-12.2.0/gaussian-09-D.01-wczn3gur5lpur3omlkzwa2l5ecyxp5ef/g09/l508.exe)
 QCSCF skips out because SCF is already converged.
 Leave Link  508 at Thu Jun 13 11:40:33 2024, MaxMem=  1073741824 cpu:         0.0
 (Enter /apps/z_install_tree/linux-rocky8-ivybridge/gcc-12.2.0/gaussian-09-D.01-wczn3gur5lpur3omlkzwa2l5ecyxp5ef/g09/l801.exe)
 DoSCS=F DFT=T ScalE2(SS,OS)=  1.000000  1.000000
 Range of M.O.s used for correlation:     1   143
 NBasis=   143 NAE=    25 NBE=    25 NFC=     0 NFV=     0
 NROrb=    143 NOA=    25 NOB=    25 NVA=   118 NVB=   118

 **** Warning!!: The largest alpha MO coefficient is  0.11787044D+02

 Leave Link  801 at Thu Jun 13 11:40:33 2024, MaxMem=  1073741824 cpu:         0.4
 (Enter /apps/z_install_tree/linux-rocky8-ivybridge/gcc-12.2.0/gaussian-09-D.01-wczn3gur5lpur3omlkzwa2l5ecyxp5ef/g09/l1101.exe)
 Using compressed storage, NAtomX=     5.
 Will process      6 centers per pass.
 R6Disp: Adding Grimme-D3 dispersion energy 1st derivatives to the gradient.
 Leave Link 1101 at Thu Jun 13 11:40:33 2024, MaxMem=  1073741824 cpu:         1.7
 (Enter /apps/z_install_tree/linux-rocky8-ivybridge/gcc-12.2.0/gaussian-09-D.01-wczn3gur5lpur3omlkzwa2l5ecyxp5ef/g09/l1102.exe)
 Symmetrizing basis deriv contribution to polar:
 IMax=3 JMax=2 DiffMx= 0.00D+00
 Leave Link 1102 at Thu Jun 13 11:40:33 2024, MaxMem=  1073741824 cpu:         0.3
 (Enter /apps/z_install_tree/linux-rocky8-ivybridge/gcc-12.2.0/gaussian-09-D.01-wczn3gur5lpur3omlkzwa2l5ecyxp5ef/g09/l1110.exe)
 Forming Gx(P) for the SCF density, NAtomX=     5.
 Integral derivatives from FoFJK, PRISM(SPDF).
 Do as many integral derivatives as possible in FoFJK.
 G2DrvN: MDV=    1073741680.
 G2DrvN: will do     6 centers at a time, making    1 passes.
 Calling FoFCou, ICntrl=  3107 FMM=F I1Cent=   0 AccDes= 0.00D+00.
 FoFJK:  IHMeth= 1 ICntrl=    3107 DoSepK=F KAlg= 0 I1Cent=   0 FoldK=F
 IRaf=         0 NMat=   1 IRICut=       1 DoRegI=T DoRafI=F ISym2E= 0.
 FoFCou: FMM=F IPFlag=           0 FMFlag=      100000 FMFlg1=           0
         NFxFlg=           0 DoJE=F BraDBF=F KetDBF=F FulRan=T
         wScrn=  0.000000 ICntrl=    3107 IOpCl=  0 I1Cent=           0 NGrid=           0
         NMat0=    1 NMatS0=      1 NMatT0=    0 NMatD0=    1 NMtDS0=    0 NMtDT0=    0
 Symmetry not used in FoFCou.
 End of G2Drv F.D. properties file   721 does not exist.
 End of G2Drv F.D. properties file   722 does not exist.
 End of G2Drv F.D. properties file   788 does not exist.
 Leave Link 1110 at Thu Jun 13 11:40:36 2024, MaxMem=  1073741824 cpu:        52.4
 (Enter /apps/z_install_tree/linux-rocky8-ivybridge/gcc-12.2.0/gaussian-09-D.01-wczn3gur5lpur3omlkzwa2l5ecyxp5ef/g09/l1002.exe)
 Minotr:  Closed shell wavefunction.
          IDoAtm=11111
          Direct CPHF calculation.
          Differentiating once with respect to electric field.
                with respect to dipole field.
          Differentiating once with respect to nuclear coordinates.
          Requested convergence is 1.0D-08 RMS, and 1.0D-07 maximum.
          Secondary convergence is 1.0D-12 RMS, and 1.0D-12 maximum.
          NewPWx=T KeepS1=F KeepF1=F KeepIn=T MapXYZ=F SortEE=F KeepMc=T.
          MDV=    1073741627 using IRadAn=       1.
 Generate precomputed XC quadrature information.
 Keep R1 ints in memory in canonical form, NReq=54837773.
 FoFCou: FMM=F IPFlag=           0 FMFlag=           0 FMFlg1=           0
         NFxFlg=           0 DoJE=F BraDBF=F KetDBF=F FulRan=T
         wScrn=  0.000000 ICntrl=     600 IOpCl=  0 I1Cent=           0 NGrid=           0
         NMat0=    1 NMatS0=  10296 NMatT0=    0 NMatD0=    1 NMtDS0=    0 NMtDT0=    0
 Symmetry not used in FoFCou.
          Solving linear equations simultaneously, MaxMat=       0.
          There are    18 degrees of freedom in the 1st order CPHF.  IDoFFX=6 NUNeed=     3.
     15 vectors produced by pass  0 Test12= 1.64D-14 5.56D-09 XBig12= 2.17D+01 2.79D+00.
 AX will form    15 AO Fock derivatives at one time.
     15 vectors produced by pass  1 Test12= 1.64D-14 5.56D-09 XBig12= 4.79D+00 5.48D-01.
     15 vectors produced by pass  2 Test12= 1.64D-14 5.56D-09 XBig12= 6.18D-02 3.18D-02.
     15 vectors produced by pass  3 Test12= 1.64D-14 5.56D-09 XBig12= 6.56D-04 5.63D-03.
     15 vectors produced by pass  4 Test12= 1.64D-14 5.56D-09 XBig12= 2.46D-06 3.22D-04.
     15 vectors produced by pass  5 Test12= 1.64D-14 5.56D-09 XBig12= 1.13D-08 2.12D-05.
      9 vectors produced by pass  6 Test12= 1.64D-14 5.56D-09 XBig12= 2.95D-11 9.80D-07.
      3 vectors produced by pass  7 Test12= 1.64D-14 5.56D-09 XBig12= 4.18D-14 3.43D-08.
 InvSVY:  IOpt=1 It=  1 EMax= 1.11D-15
 Solved reduced A of dimension   102 with    15 vectors.
 FullF1:  Do perturbations    1 to     3.
 Isotropic polarizability for W=    0.000000       29.20 Bohr**3.
 End of Minotr F.D. properties file   721 does not exist.
 End of Minotr F.D. properties file   722 does not exist.
 End of Minotr F.D. properties file   788 does not exist.
 Leave Link 1002 at Thu Jun 13 11:40:39 2024, MaxMem=  1073741824 cpu:        67.9
 (Enter /apps/z_install_tree/linux-rocky8-ivybridge/gcc-12.2.0/gaussian-09-D.01-wczn3gur5lpur3omlkzwa2l5ecyxp5ef/g09/l601.exe)
 Copying SCF densities to generalized density rwf, IOpCl= 0 IROHF=0.

 **********************************************************************

            Population analysis using the SCF density.

 **********************************************************************

 Alpha  occ. eigenvalues -- -101.59542 -24.75236 -24.75217 -24.75216 -10.50395
 Alpha  occ. eigenvalues --   -9.51009  -7.27535  -7.26439  -7.26439  -1.36573
 Alpha  occ. eigenvalues --   -1.27434  -1.27411  -0.90314  -0.73202  -0.64335
 Alpha  occ. eigenvalues --   -0.64326  -0.60611  -0.51225  -0.51222  -0.47822
 Alpha  occ. eigenvalues --   -0.47812  -0.45200  -0.43859  -0.36164  -0.36163
 Alpha virt. eigenvalues --   -0.03221   0.00936   0.04168   0.05149   0.05151
 Alpha virt. eigenvalues --    0.07613   0.07616   0.09509   0.12961   0.12982
 Alpha virt. eigenvalues --    0.15981   0.18060   0.20789   0.20792   0.24939
 Alpha virt. eigenvalues --    0.24943   0.26047   0.30736   0.31553   0.31557
 Alpha virt. eigenvalues --    0.33175   0.33540   0.35526   0.35529   0.38988
 Alpha virt. eigenvalues --    0.41830   0.41837   0.45216   0.45217   0.53384
 Alpha virt. eigenvalues --    0.53390   0.55270   0.69174   0.69193   0.72878
 Alpha virt. eigenvalues --    0.89734   0.93895   0.93901   1.00902   1.10968
 Alpha virt. eigenvalues --    1.10975   1.19885   1.22963   1.22973   1.30905
 Alpha virt. eigenvalues --    1.30912   1.33603   1.36345   1.42077   1.44864
 Alpha virt. eigenvalues --    1.44866   1.85276   1.85286   1.92600   1.93798
 Alpha virt. eigenvalues --    1.93814   1.95910   2.01355   2.02587   2.02617
 Alpha virt. eigenvalues --    2.11339   2.15066   2.15071   2.26597   2.26611
 Alpha virt. eigenvalues --    2.36102   2.39293   2.39296   2.49123   2.49149
 Alpha virt. eigenvalues --    2.55051   2.56052   2.56108   2.63966   2.88181
 Alpha virt. eigenvalues --    2.88202   2.96230   3.29290   3.29304   3.39900
 Alpha virt. eigenvalues --    3.39936   3.45431   3.56215   4.12395   4.12402
 Alpha virt. eigenvalues --    6.23147   6.23154   6.30048   6.30798   6.30800
 Alpha virt. eigenvalues --    6.31058   6.36527   6.69778   6.69879   8.96213
 Alpha virt. eigenvalues --    8.97979   8.97995   9.08154   9.08156   9.08798
 Alpha virt. eigenvalues --    9.10280   9.18043   9.18045   9.36881   9.52660
 Alpha virt. eigenvalues --    9.52670   9.53027   9.71348   9.71355   9.71519
 Alpha virt. eigenvalues --   23.79116  25.91563  25.91573  27.14360  66.76024
 Alpha virt. eigenvalues --   66.76040  66.80248 215.69918
          Condensed to atoms (all electrons):
               1          2          3          4          5
     1  C    4.257956   0.433796   0.209674   0.209702   0.209702
     2  Cl   0.433796  16.714085  -0.077922  -0.077862  -0.077830
     3  F    0.209674  -0.077922   9.131296  -0.003986  -0.004076
     4  F    0.209702  -0.077862  -0.003986   9.130968  -0.003974
     5  F    0.209702  -0.077830  -0.004076  -0.003974   9.131247
 Mulliken charges:
               1
     1  C    0.679170
     2  Cl   0.085733
     3  F   -0.254986
     4  F   -0.254848
     5  F   -0.255069
 Sum of Mulliken charges =   0.00000
 Mulliken charges with hydrogens summed into heavy atoms:
               1
     1  C    0.679170
     2  Cl   0.085733
     3  F   -0.254986
     4  F   -0.254848
     5  F   -0.255069
 APT charges:
               1
     1  C    1.931034
     2  Cl  -0.263327
     3  F   -0.555917
     4  F   -0.555867
     5  F   -0.555922
 Sum of APT charges =   0.00000
 APT charges with hydrogens summed into heavy atoms:
               1
     1  C    1.931034
     2  Cl  -0.263327
     3  F   -0.555917
     4  F   -0.555867
     5  F   -0.555922
 Electronic spatial extent (au):  <R**2>=         867115.1385
 Charge=              0.0000 electrons
 Dipole moment (field-independent basis, Debye):
    X=              0.0837    Y=             -0.1756    Z=              0.4311  Tot=              0.4730
 Quadrupole moment (field-independent basis, Debye-Ang):
   XX=            -25.3898   YY=            -46.0178   ZZ=             -3.7916
   XY=             -5.9629   XZ=             24.6711   YZ=              8.8223
 Traceless Quadrupole moment (field-independent basis, Debye-Ang):
   XX=             -0.3234   YY=            -20.9514   ZZ=             21.2748
   XY=             -5.9629   XZ=             24.6711   YZ=              8.8223
 Octapole moment (field-independent basis, Debye-Ang**2):
  XXX=          -4450.2201  YYY=          -4223.0336  ZZZ=          -1789.7656  XYY=          -2211.2899
  XXY=          -1350.5321  XXZ=            272.3507  XZZ=            -79.0870  YZZ=           -367.8048
  YYZ=          -1026.5203  XYZ=            546.1006
 Hexadecapole moment (field-independent basis, Debye-Ang**3):
 XXXX=        -467444.4874 YYYY=        -283261.6048 ZZZZ=        -149713.8884 XXXY=        -180299.6035
 XXXZ=         -90766.5100 YYYX=        -208517.0381 YYYZ=        -122913.0239 ZZZX=         -85733.5392
 ZZZY=         -71743.4535 XXYY=        -148303.1114 XXZZ=         -35443.4904 YYZZ=         -58093.3917
 XXYZ=          -6922.0879 YYXZ=         -47971.3789 ZZXY=         -14675.0411
 N-N= 2.489285521714D+02 E-N=-2.394861333865D+03  KE= 7.959668673951D+02
  Exact polarizability:  26.324  -0.605  27.321   1.504  -3.183  33.957
 Approx polarizability:  37.325  -0.858  38.743   2.132  -4.517  48.162
 No NMR shielding tensors so no spin-rotation constants.
 Leave Link  601 at Thu Jun 13 11:40:39 2024, MaxMem=  1073741824 cpu:         1.6
 (Enter /apps/z_install_tree/linux-rocky8-ivybridge/gcc-12.2.0/gaussian-09-D.01-wczn3gur5lpur3omlkzwa2l5ecyxp5ef/g09/l701.exe)
 Compute integral second derivatives.
 ... and contract with generalized density number  0.
 R6Disp: Adding Grimme-D3 dispersion energy 2nd derivatives to the Hessian.
 Leave Link  701 at Thu Jun 13 11:40:39 2024, MaxMem=  1073741824 cpu:         2.1
 (Enter /apps/z_install_tree/linux-rocky8-ivybridge/gcc-12.2.0/gaussian-09-D.01-wczn3gur5lpur3omlkzwa2l5ecyxp5ef/g09/l702.exe)
 L702 exits ... SP integral derivatives will be done elsewhere.
 Leave Link  702 at Thu Jun 13 11:40:39 2024, MaxMem=  1073741824 cpu:         0.2
 (Enter /apps/z_install_tree/linux-rocky8-ivybridge/gcc-12.2.0/gaussian-09-D.01-wczn3gur5lpur3omlkzwa2l5ecyxp5ef/g09/l703.exe)
 Compute integral second derivatives, UseDBF=F ICtDFT=           0.
 Integral derivatives from FoFJK, PRISM(SPDF).
 Calling FoFJK, ICntrl=    100127 FMM=F ISym2X=0 I1Cent= 0 IOpClX= 0 NMat=1 NMatS=1 NMatT=0.
 FoFJK:  IHMeth= 1 ICntrl=  100127 DoSepK=F KAlg= 0 I1Cent=   0 FoldK=F
 IRaf=         0 NMat=   1 IRICut=       1 DoRegI=T DoRafI=F ISym2E= 0.
 FoFCou: FMM=F IPFlag=           0 FMFlag=      100000 FMFlg1=         800
         NFxFlg=           0 DoJE=F BraDBF=F KetDBF=F FulRan=T
         wScrn=  0.000000 ICntrl=  100127 IOpCl=  0 I1Cent=           0 NGrid=           0
         NMat0=    1 NMatS0=      1 NMatT0=    0 NMatD0=    1 NMtDS0=    0 NMtDT0=    0
 Symmetry not used in FoFCou.
 Leave Link  703 at Thu Jun 13 11:40:44 2024, MaxMem=  1073741824 cpu:        88.8
 (Enter /apps/z_install_tree/linux-rocky8-ivybridge/gcc-12.2.0/gaussian-09-D.01-wczn3gur5lpur3omlkzwa2l5ecyxp5ef/g09/l716.exe)
 Dipole        = 3.29371524D-02-6.91046141D-02 1.69599646D-01
 Polarizability= 2.63239527D+01-6.04846550D-01 2.73211067D+01
                 1.50385001D+00-3.18263772D+00 3.39570690D+01
 Full mass-weighted force constant matrix:
 Low frequencies ---   -0.0041   -0.0031   -0.0028    4.0150    5.9412    8.4238
 Low frequencies ---  337.9708  337.9918  454.5847
 Diagonal vibrational polarizability:
        6.2385108       7.0538244      12.4331119
 Harmonic frequencies (cm**-1), IR intensities (KM/Mole), Raman scattering
 activities (A**4/AMU), depolarization ratios for plane and unpolarized
 incident light, reduced masses (AMU), force constants (mDyne/A),
 and normal coordinates:
                      1                      2                      3
                      A                      A                      A
 Frequencies --    337.9708               337.9918               454.5847
 Red. masses --     20.3333                20.3327                26.3085
 Frc consts  --      1.3684                 1.3685                 3.2031
 IR Inten    --      0.0016                 0.0015                 0.8505
  Atom  AN      X      Y      Z        X      Y      Z        X      Y      Z
     1   6    -0.05  -0.21  -0.07    -0.22   0.03   0.05    -0.02   0.04  -0.09
     2  17     0.07   0.30   0.11     0.31  -0.04  -0.08     0.12  -0.25   0.62
     3   9     0.02  -0.15  -0.38    -0.12   0.35  -0.51     0.06   0.18  -0.37
     4   9    -0.26  -0.03  -0.39    -0.03  -0.33   0.48    -0.16   0.23  -0.31
     5   9     0.15  -0.24   0.62    -0.29   0.05   0.14    -0.11   0.02  -0.40
                      4                      5                      6
                      A                      A                      A
 Frequencies --    548.9625               549.1261               765.3225
 Red. masses --     18.2075                18.2067                17.5623
 Frc consts  --      3.2328                 3.2346                 6.0607
 IR Inten    --      0.9990                 1.0113                40.2339
  Atom  AN      X      Y      Z        X      Y      Z        X      Y      Z
     1   6     0.32   0.17   0.01     0.16  -0.29  -0.15    -0.09   0.19  -0.46
     2  17    -0.08  -0.05   0.00    -0.04   0.08   0.04     0.03  -0.06   0.14
     3   9     0.52  -0.04   0.05     0.01   0.49   0.23    -0.47  -0.13   0.05
     4   9    -0.29  -0.42  -0.16     0.40  -0.16  -0.30     0.33  -0.32  -0.17
     5   9    -0.28   0.44   0.11    -0.44  -0.29   0.09     0.15   0.44   0.16
                      7                      8                      9
                      A                      A                      A
 Frequencies --   1063.0486              1173.8640              1175.1804
 Red. masses --     13.4847                13.1791                13.1800
 Frc consts  --      8.9784                10.6997                10.7244
 IR Inten    --    493.4095               303.3053               303.4242
  Atom  AN      X      Y      Z        X      Y      Z        X      Y      Z
     1   6     0.16  -0.33   0.81     0.55   0.71   0.18     0.71  -0.47  -0.33
     2  17    -0.01   0.01  -0.04    -0.01  -0.01   0.00    -0.01   0.01   0.00
     3   9    -0.23   0.01  -0.13    -0.24  -0.06  -0.08    -0.21   0.01  -0.03
     4   9     0.11  -0.07  -0.23    -0.01  -0.07  -0.05    -0.19   0.15   0.22
     5   9     0.03   0.25  -0.09    -0.09  -0.30   0.01    -0.03   0.12   0.01

 -------------------
 - Thermochemistry -
 -------------------
 Temperature   298.150 Kelvin.  Pressure   1.00000 Atm.
 Atom     1 has atomic number  6 and mass  12.00000
 Atom     2 has atomic number 17 and mass  34.96885
 Atom     3 has atomic number  9 and mass  18.99840
 Atom     4 has atomic number  9 and mass  18.99840
 Atom     5 has atomic number  9 and mass  18.99840
 Molecular mass:   103.96406 amu.
 Principal axes and moments of inertia in atomic units:
                           1         2         3
     Eigenvalues --   317.36864 552.60365 552.68178
           X            0.17351  -0.25559   0.95109
           Y           -0.36737   0.87923   0.30330
           Z            0.91375   0.40203  -0.05866
 This molecule is an asymmetric top.
 Rotational symmetry number  1.
 Rotational temperatures (Kelvin)      0.27291     0.15674     0.15672
 Rotational constants (GHZ):           5.68658     3.26589     3.26543
 Zero-point vibrational energy      38316.7 (Joules/Mol)
                                    9.15791 (Kcal/Mol)
 Warning -- explicit consideration of   5 degrees of freedom as
           vibrations may cause significant error
 Vibrational temperatures:    486.26   486.29   654.05   789.83   790.07
          (Kelvin)           1101.13  1529.49  1688.93  1690.82
 
 Zero-point correction=                           0.014594 (Hartree/Particle)
 Thermal correction to Energy=                    0.018972
 Thermal correction to Enthalpy=                  0.019916
 Thermal correction to Gibbs Free Energy=        -0.013642
 Sum of electronic and zero-point Energies=           -797.960221
 Sum of electronic and thermal Energies=              -797.955843
 Sum of electronic and thermal Enthalpies=            -797.954899
 Sum of electronic and thermal Free Energies=         -797.988457
 
                     E (Thermal)             CV                S
                      KCal/Mol        Cal/Mol-Kelvin    Cal/Mol-Kelvin
 Total                   11.905             14.262             70.628
 Electronic               0.000              0.000              0.000
 Translational            0.889              2.981             39.834
 Rotational               0.889              2.981             26.075
 Vibrational             10.127              8.300              4.719
 Vibration     1          0.718              1.600              1.222
 Vibration     2          0.718              1.600              1.222
 Vibration     3          0.813              1.351              0.782
 Vibration     4          0.904              1.142              0.546
 Vibration     5          0.904              1.142              0.546
                       Q            Log10(Q)             Ln(Q)
 Total Bot       0.188287D+07          6.274820         14.448308
 Total V=0       0.971868D+13         12.987607         29.905071
 Vib (Bot)       0.405478D-06         -6.392033        -14.718199
 Vib (Bot)    1  0.550115D+00         -0.259547         -0.597629
 Vib (Bot)    2  0.550073D+00         -0.259580         -0.597704
 Vib (Bot)    3  0.375832D+00         -0.425006         -0.978612
 Vib (Bot)    4  0.286156D+00         -0.543398         -1.251219
 Vib (Bot)    5  0.286026D+00         -0.543595         -1.251674
 Vib (V=0)       0.209293D+01          0.320754          0.738564
 Vib (V=0)    1  0.124339D+01          0.094607          0.217840
 Vib (V=0)    2  0.124336D+01          0.094596          0.217815
 Vib (V=0)    3  0.112550D+01          0.051345          0.118227
 Vib (V=0)    4  0.107609D+01          0.031850          0.073338
 Vib (V=0)    5  0.107603D+01          0.031824          0.073278
 Electronic      0.100000D+01          0.000000          0.000000
 Translational   0.416658D+08          7.619780         17.545192
 Rotational      0.111448D+06          5.047073         11.621315
 
                                                        chlorotrifluoromethane
                                                             IR Spectrum
 
     11           1                                                                                                                  
     11           0                               7                      5         4            3                                    
     77           6                               6                      4         5            3                                    
     54           3                               5                      9         5            8                                    
 
     XX           X                               X                      X         X                                                 
     XX           X                               X                                                                                  
     XX           X                                                                                                                  
     XX           X                                                                                                                  
     XX           X                                                                                                                  
     XX           X                                                                                                                  
     XX           X                                                                                                                  
     XX           X                                                                                                                  
     XX           X                                                                                                                  
     XX           X                                                                                                                  
     XX           X                                                                                                                  
     XX           X                                                                                                                  
                  X                                                                                                                  
                  X                                                                                                                  
                  X                                                                                                                  
                  X                                                                                                                  
                  X                                                                                                                  
                  X                                                                                                                  
                  X                                                                                                                  
                  X                                                                                                                  
 
 -------------------------------------------------------------------
 Center     Atomic                   Forces (Hartrees/Bohr)
 Number     Number              X              Y              Z
 -------------------------------------------------------------------
      1        6          -0.000214340    0.000274545   -0.000023801
      2       17           0.000031599    0.000037356   -0.000073106
      3        9           0.000036465   -0.000059815    0.000034611
      4        9           0.000086210   -0.000022132    0.000009196
      5        9           0.000060065   -0.000229954    0.000053100
 -------------------------------------------------------------------
 Cartesian Forces:  Max     0.000274545 RMS     0.000116344
 Force constants in Cartesian coordinates: 
                1             2             3             4             5 
      1  0.485795D+00
      2  0.474849D-02  0.476994D+00
      3 -0.129059D-01  0.269262D-01  0.422085D+00
      4 -0.376478D-01  0.389264D-02 -0.970974D-02  0.406346D-01
      5  0.388609D-02 -0.440384D-01  0.205269D-01 -0.110854D-01  0.587864D-01
      6 -0.968782D-02  0.205228D-01 -0.869239D-01  0.276135D-01 -0.583495D-01
      7 -0.241306D+00 -0.189516D-01 -0.468947D-01 -0.187434D-01  0.596102D-02
      8 -0.129036D-01 -0.742260D-01 -0.349343D-02  0.909288D-02  0.727383D-02
      9 -0.604724D-01 -0.670487D-02 -0.898042D-01 -0.351039D-01  0.724813D-02
     10 -0.126557D+00  0.448427D-01  0.676598D-01  0.660804D-02  0.635803D-03
     11  0.428356D-01 -0.108426D+00 -0.537645D-01 -0.402009D-03  0.936002D-02
     12  0.778908D-01 -0.648047D-01 -0.171031D+00  0.157645D-01 -0.479011D-02
     13 -0.802839D-01 -0.345322D-01  0.185055D-02  0.914856D-02  0.602439D-03
     14 -0.385667D-01 -0.250304D+00  0.980485D-02 -0.149816D-02 -0.313818D-01
     15  0.517529D-02  0.240605D-01 -0.743265D-01  0.143569D-02  0.353647D-01
                6             7             8             9            10 
      6  0.180645D+00
      7 -0.281088D-01  0.367020D+00
      8  0.891283D-02  0.383512D-01  0.829484D-01
      9 -0.257188D-01  0.669658D-01  0.109671D-01  0.896927D-01
     10  0.104710D-01 -0.716600D-01  0.242463D-01  0.345834D-01  0.179276D+00
     11  0.920881D-03  0.180772D-01  0.109236D-01 -0.457199D-02 -0.853605D-01
     12 -0.531047D-01  0.184303D-01 -0.255978D-02  0.121898D-01 -0.118188D+00
     13 -0.287872D-03 -0.353106D-01 -0.587868D-01 -0.597294D-02  0.123330D-01
     14  0.279930D-01 -0.434378D-01 -0.269198D-01 -0.693839D-02  0.156357D-01
     15 -0.148978D-01 -0.103926D-01 -0.138267D-01  0.136404D-01  0.547385D-02
               11            12            13            14            15 
     11  0.150819D+00
     12  0.101790D+00  0.210063D+00
     13  0.248497D-01  0.610246D-02  0.941129D-01
     14 -0.626768D-01 -0.296359D-01  0.678669D-01  0.371282D+00
     15 -0.443748D-01  0.188252D-02 -0.169219D-02 -0.122356D-02  0.737014D-01
 FormGI is forming the generalized inverse of G from B-inverse, IUseBI=4.
 Force constants in internal coordinates: 
                1             2             3             4             5 
      1  0.209327D+00
      2  0.369885D-01  0.387360D+00
      3  0.369705D-01  0.545958D-01  0.387985D+00
      4  0.369390D-01  0.545904D-01  0.545324D-01  0.386821D+00
      5  0.753551D-02  0.369151D-02 -0.504336D-02 -0.110787D-01  0.378825D-01
      6  0.116909D-01 -0.330022D-02  0.822951D-02 -0.242270D-01 -0.129202D-01
      7  0.226466D-01 -0.220130D-01 -0.234176D-01  0.786944D-02 -0.194861D-01
      8 -0.357008D-02  0.150809D-01  0.160860D-01 -0.252509D-01 -0.139100D-01
      9 -0.185923D-01  0.303352D-01 -0.225867D-01  0.231745D-01 -0.293179D-01
     10 -0.209355D-01 -0.231399D-01  0.272984D-01  0.303187D-01  0.375863D-01
     11  0.142124D-01  0.120707D-01  0.905220D-02 -0.445582D-01  0.298687D-01
     12 -0.114217D-01 -0.102130D-01  0.348865D-01 -0.586779D-02 -0.160884D-01
     13  0.150794D-01 -0.323114D-01  0.130129D-01 -0.575386D-02 -0.408391D-02
     14  0.265011D-01 -0.220984D-01 -0.218736D-01  0.113931D-03  0.120044D-01
                6             7             8             9            10 
      6  0.757811D-01
      7 -0.363898D-01  0.147707D+00
      8  0.410990D-02  0.348135D-01  0.850451D-01
      9  0.345110D-01 -0.724027D-01 -0.483849D-01  0.172670D+00
     10 -0.658698D-01 -0.569160D-01 -0.624036D-01 -0.550573D-01  0.205095D+00
     11  0.333537D-01 -0.243307D-01  0.393034D-01 -0.455118D-01 -0.338285D-01
     12  0.164182D-01 -0.209610D-01  0.263432D-01 -0.287041D-01  0.235614D-01
     13  0.291114D-01  0.101429D-01 -0.130579D-01 -0.370551D-01  0.138803D-01
     14  0.126933D-01  0.311039D-01 -0.394011D-01 -0.835100D-02 -0.968107D-02
               11            12            13            14 
     11  0.822164D-01
     12  0.699626D-02  0.508386D-01
     13  0.461937D-02  0.222412D-01  0.509070D-01
     14 -0.237689D-02 -0.285974D-01  0.286658D-01  0.572632D-01
 Leave Link  716 at Thu Jun 13 11:40:44 2024, MaxMem=  1073741824 cpu:         0.5
 (Enter /apps/z_install_tree/linux-rocky8-ivybridge/gcc-12.2.0/gaussian-09-D.01-wczn3gur5lpur3omlkzwa2l5ecyxp5ef/g09/l103.exe)

 GradGradGradGradGradGradGradGradGradGradGradGradGradGradGradGradGradGrad
 Berny optimization.
 Red2BG is reusing G-inverse.
 Internal  Forces:  Max     0.000212600 RMS     0.000084752
 Search for a local minimum.
 Step number   1 out of a maximum of    2
 All quantities printed in internal units (Hartrees-Bohrs-Radians)
 Second derivative matrix not updated -- analytic derivatives used.
 The second derivative matrix:
                          R1        R2        R3        R4        A1
           R1           0.20933
           R2           0.03699   0.38736
           R3           0.03697   0.05460   0.38799
           R4           0.03694   0.05459   0.05453   0.38682
           A1           0.00754   0.00369  -0.00504  -0.01108   0.03788
           A2           0.01169  -0.00330   0.00823  -0.02423  -0.01292
           A3           0.02265  -0.02201  -0.02342   0.00787  -0.01949
           A4          -0.00357   0.01508   0.01609  -0.02525  -0.01391
           A5          -0.01859   0.03034  -0.02259   0.02317  -0.02932
           A6          -0.02094  -0.02314   0.02730   0.03032   0.03759
           D1           0.01421   0.01207   0.00905  -0.04456   0.02987
           D2          -0.01142  -0.01021   0.03489  -0.00587  -0.01609
           D3           0.01508  -0.03231   0.01301  -0.00575  -0.00408
           D4           0.02650  -0.02210  -0.02187   0.00011   0.01200
                          A2        A3        A4        A5        A6
           A2           0.07578
           A3          -0.03639   0.14771
           A4           0.00411   0.03481   0.08505
           A5           0.03451  -0.07240  -0.04838   0.17267
           A6          -0.06587  -0.05692  -0.06240  -0.05506   0.20510
           D1           0.03335  -0.02433   0.03930  -0.04551  -0.03383
           D2           0.01642  -0.02096   0.02634  -0.02870   0.02356
           D3           0.02911   0.01014  -0.01306  -0.03706   0.01388
           D4           0.01269   0.03110  -0.03940  -0.00835  -0.00968
                          D1        D2        D3        D4
           D1           0.08222
           D2           0.00700   0.05084
           D3           0.00462   0.02224   0.05091
           D4          -0.00238  -0.02860   0.02867   0.05726
 ITU=  0
     Eigenvalues ---    0.08379   0.10102   0.15027   0.19964   0.25663
     Eigenvalues ---    0.28951   0.36677   0.37406   0.51522
 Angle between quadratic step and forces=  30.83 degrees.
 Linear search not attempted -- first point.
 Iteration  1 RMS(Cart)=  0.00030375 RMS(Int)=  0.00000013
 Iteration  2 RMS(Cart)=  0.00000014 RMS(Int)=  0.00000006
 ITry= 1 IFail=0 DXMaxC= 5.30D-04 DCOld= 1.00D+10 DXMaxT= 3.00D-01 DXLimC= 3.00D+00 Rises=F
 Variable       Old X    -DE/DX   Delta X   Delta X   Delta X     New X
                                 (Linear)    (Quad)   (Total)
    R1        3.36049  -0.00008   0.00000  -0.00007  -0.00007   3.36042
    R2        2.51567  -0.00004   0.00000  -0.00024  -0.00024   2.51543
    R3        2.51508   0.00005   0.00000   0.00035   0.00035   2.51543
    R4        2.51605  -0.00021   0.00000  -0.00063  -0.00063   2.51543
    A1        1.92434  -0.00001   0.00000   0.00011   0.00011   1.92445
    A2        1.92491  -0.00001   0.00000  -0.00045  -0.00045   1.92446
    A3        1.92474  -0.00008   0.00000  -0.00027  -0.00027   1.92446
    A4        1.89650   0.00000   0.00000   0.00010   0.00010   1.89661
    A5        1.89591   0.00015   0.00000   0.00070   0.00070   1.89661
    A6        1.89678  -0.00005   0.00000  -0.00017  -0.00017   1.89661
    D1        2.11119  -0.00001   0.00000  -0.00008  -0.00008   2.11111
    D2       -2.11071  -0.00003   0.00000  -0.00041  -0.00041  -2.11111
    D3        2.11196  -0.00010   0.00000  -0.00083  -0.00083   2.11113
    D4       -2.06052  -0.00006   0.00000  -0.00042  -0.00042  -2.06094
         Item               Value     Threshold  Converged?
 Maximum Force            0.000213     0.000450     YES
 RMS     Force            0.000085     0.000300     YES
 Maximum Displacement     0.000530     0.001800     YES
 RMS     Displacement     0.000304     0.001200     YES
 Predicted change in Energy=-2.127163D-07
 Optimization completed.
    -- Stationary point found.
                           ----------------------------
                           !   Optimized Parameters   !
                           ! (Angstroms and Degrees)  !
 --------------------------                            --------------------------
 ! Name  Definition              Value          Derivative Info.                !
 --------------------------------------------------------------------------------
 ! R1    R(1,2)                  1.7783         -DE/DX =   -0.0001              !
 ! R2    R(1,3)                  1.3312         -DE/DX =    0.0                 !
 ! R3    R(1,4)                  1.3309         -DE/DX =    0.0001              !
 ! R4    R(1,5)                  1.3314         -DE/DX =   -0.0002              !
 ! A1    A(2,1,3)              110.2567         -DE/DX =    0.0                 !
 ! A2    A(2,1,4)              110.2893         -DE/DX =    0.0                 !
 ! A3    A(2,1,5)              110.2794         -DE/DX =   -0.0001              !
 ! A4    A(3,1,4)              108.6616         -DE/DX =    0.0                 !
 ! A5    A(3,1,5)              108.6275         -DE/DX =    0.0001              !
 ! A6    A(4,1,5)              108.6772         -DE/DX =    0.0                 !
 ! D1    D(2,1,4,3)            120.9623         -DE/DX =    0.0                 !
 ! D2    D(2,1,5,3)           -120.9347         -DE/DX =    0.0                 !
 ! D3    D(2,1,5,4)            121.0062         -DE/DX =   -0.0001              !
 ! D4    D(3,1,5,4)           -118.0591         -DE/DX =   -0.0001              !
 --------------------------------------------------------------------------------
 GradGradGradGradGradGradGradGradGradGradGradGradGradGradGradGradGradGrad

 Leave Link  103 at Thu Jun 13 11:40:44 2024, MaxMem=  1073741824 cpu:         0.6
 (Enter /apps/z_install_tree/linux-rocky8-ivybridge/gcc-12.2.0/gaussian-09-D.01-wczn3gur5lpur3omlkzwa2l5ecyxp5ef/g09/l9999.exe)
 1\1\GINC-K152\Freq\RB3LYP\Gen\C1Cl1F3\Z5112331\13-Jun-2024\0\\#P Geom=
 AllCheck Guess=TCheck SCRF=Check GenChk RB3LYP/ChkBas Freq\\chlorotrif
 luoromethane\\0,1\C,50.0625559876,35.5262339442,32.672619767\Cl,50.370
 984067,34.873287882,34.2976940765\F,48.7812510787,35.3681072225,32.347
 9015906\F,50.8112997276,34.8945383475,31.7716772006\F,50.3539091391,36
 .8248326038,32.6341073654\\Version=ES64L-G09RevD.01\HF=-797.9748151\RM
 SD=2.902e-09\RMSF=1.163e-04\ZeroPoint=0.0145941\Thermal=0.0189716\Dipo
 le=0.0329372,-0.0691046,0.1695996\DipoleDeriv=1.7311471,-0.0422278,0.1
 044584,-0.0421404,1.8003309,-0.2210197,0.104211,-0.2209896,2.261623,-0
 .0796138,0.0385459,-0.0959232,0.0386045,-0.1431436,0.2032771,-0.096050
 2,0.2032559,-0.5672246,-0.9105406,-0.0268324,-0.2857605,-0.0377449,-0.
 2807691,0.0297706,-0.2609326,0.0355749,-0.4764405,-0.4534405,0.1564302
 ,0.2759436,0.1601735,-0.3943882,-0.1877635,0.2574631,-0.1675823,-0.819
 7734,-0.2875522,-0.1259158,0.0012817,-0.1188927,-0.9820301,0.1757356,-
 0.0046912,0.1497412,-0.3981844\Polar=26.3239527,-0.6048465,27.3211067,
 1.50385,-3.1826377,33.957069\PG=C01 [X(C1Cl1F3)]\NImag=0\\0.48579543,0
 .00474849,0.47699443,-0.01290589,0.02692623,0.42208523,-0.03764778,0.0
 0389264,-0.00970974,0.04063461,0.00388609,-0.04403843,0.02052686,-0.01
 108536,0.05878642,-0.00968782,0.02052283,-0.08692388,0.02761348,-0.058
 34953,0.18064516,-0.24130638,-0.01895157,-0.04689472,-0.01874343,0.005
 96102,-0.02810875,0.36702037,-0.01290358,-0.07422599,-0.00349343,0.009
 09288,0.00727383,0.00891283,0.03835122,0.08294841,-0.06047237,-0.00670
 487,-0.08980416,-0.03510393,0.00724813,-0.02571879,0.06696584,0.010967
 11,0.08969271,-0.12655741,0.04484266,0.06765980,0.00660804,0.00063580,
 0.01047097,-0.07165996,0.02424632,0.03458340,0.17927629,0.04283565,-0.
 10842621,-0.05376452,-0.00040201,0.00936002,0.00092088,0.01807716,0.01
 092356,-0.00457199,-0.08536048,0.15081942,0.07789079,-0.06480466,-0.17
 103065,0.01576450,-0.00479011,-0.05310472,0.01843027,-0.00255978,0.012
 18984,-0.11818802,0.10179044,0.21006301,-0.08028386,-0.03453222,0.0018
 5055,0.00914856,0.00060244,-0.00028787,-0.03531060,-0.05878684,-0.0059
 7294,0.01233303,0.02484968,0.00610246,0.09411286,-0.03856665,-0.250303
 80,0.00980485,-0.00149816,-0.03138184,0.02799299,-0.04343782,-0.026919
 81,-0.00693839,0.01563569,-0.06267680,-0.02963590,0.06786694,0.3712822
 6,0.00517529,0.02406047,-0.07432655,0.00143569,0.03536465,-0.01489777,
 -0.01039264,-0.01382674,0.01364040,0.00547385,-0.04437482,0.00188252,-
 0.00169219,-0.00122356,0.07370140\\0.00021434,-0.00027455,0.00002380,-
 0.00003160,-0.00003736,0.00007311,-0.00003647,0.00005981,-0.00003461,-
 0.00008621,0.00002213,-0.00000920,-0.00006007,0.00022995,-0.00005310\\
 \@


 AN AIRPLANE IS A COLLECTION OF SPARE PARTS
 FLYING IN CLOSE FORMATION.
 Job cpu time:       0 days  0 hours  3 minutes 53.1 seconds.
 File lengths (MBytes):  RWF=    132 Int=      0 D2E=      0 Chk=      3 Scr=      2
 Normal termination of Gaussian 09 at Thu Jun 13 11:40:44 2024.
