 Entering Gaussian System, Link 0=g09
 Initial command:
 /apps/z_install_tree/linux-rocky8-ivybridge/gcc-12.2.0/gaussian-09-D.01-wczn3gur5lpur3omlkzwa2l5ecyxp5ef/g09/l1.exe "/srv/scratch/z5112331/GMX/ligands/dichlorodifluoropropane/Gau-392350.inp" -scrdir="/srv/scratch/z5112331/GMX/ligands/dichlorodifluoropropane/"
 Entering Link 1 = /apps/z_install_tree/linux-rocky8-ivybridge/gcc-12.2.0/gaussian-09-D.01-wczn3gur5lpur3omlkzwa2l5ecyxp5ef/g09/l1.exe PID=    392431.
  
 Copyright (c) 1988,1990,1992,1993,1995,1998,2003,2009,2013,
            Gaussian, Inc.  All Rights Reserved.
  
 This is part of the Gaussian(R) 09 program.  It is based on
 the Gaussian(R) 03 system (copyright 2003, Gaussian, Inc.),
 the Gaussian(R) 98 system (copyright 1998, Gaussian, Inc.),
 the Gaussian(R) 94 system (copyright 1995, Gaussian, Inc.),
 the Gaussian 92(TM) system (copyright 1992, Gaussian, Inc.),
 the Gaussian 90(TM) system (copyright 1990, Gaussian, Inc.),
 the Gaussian 88(TM) system (copyright 1988, Gaussian, Inc.),
 the Gaussian 86(TM) system (copyright 1986, Carnegie Mellon
 University), and the Gaussian 82(TM) system (copyright 1983,
 Carnegie Mellon University). Gaussian is a federally registered
 trademark of Gaussian, Inc.
  
 This software contains proprietary and confidential information,
 including trade secrets, belonging to Gaussian, Inc.
  
 This software is provided under written license and may be
 used, copied, transmitted, or stored only in accord with that
 written license.
  
 The following legend is applicable only to US Government
 contracts under FAR:
  
                    RESTRICTED RIGHTS LEGEND
  
 Use, reproduction and disclosure by the US Government is
 subject to restrictions as set forth in subparagraphs (a)
 and (c) of the Commercial Computer Software - Restricted
 Rights clause in FAR 52.227-19.
  
 Gaussian, Inc.
 340 Quinnipiac St., Bldg. 40, Wallingford CT 06492
  
  
 ---------------------------------------------------------------
 Warning -- This program may not be used in any manner that
 competes with the business of Gaussian, Inc. or will provide
 assistance to any competitor of Gaussian, Inc.  The licensee
 of this program is prohibited from giving any competitor of
 Gaussian, Inc. access to this program.  By using this program,
 the user acknowledges that Gaussian, Inc. is engaged in the
 business of creating and licensing software in the field of
 computational chemistry and represents and warrants to the
 licensee that it is not a competitor of Gaussian, Inc. and that
 it will not use this program in any manner prohibited above.
 ---------------------------------------------------------------
  

 Cite this work as:
 Gaussian 09, Revision D.01,
 M. J. Frisch, G. W. Trucks, H. B. Schlegel, G. E. Scuseria, 
 M. A. Robb, J. R. Cheeseman, G. Scalmani, V. Barone, B. Mennucci, 
 G. A. Petersson, H. Nakatsuji, M. Caricato, X. Li, H. P. Hratchian, 
 A. F. Izmaylov, J. Bloino, G. Zheng, J. L. Sonnenberg, M. Hada, 
 M. Ehara, K. Toyota, R. Fukuda, J. Hasegawa, M. Ishida, T. Nakajima, 
 Y. Honda, O. Kitao, H. Nakai, T. Vreven, J. A. Montgomery, Jr., 
 J. E. Peralta, F. Ogliaro, M. Bearpark, J. J. Heyd, E. Brothers, 
 K. N. Kudin, V. N. Staroverov, T. Keith, R. Kobayashi, J. Normand, 
 K. Raghavachari, A. Rendell, J. C. Burant, S. S. Iyengar, J. Tomasi, 
 M. Cossi, N. Rega, J. M. Millam, M. Klene, J. E. Knox, J. B. Cross, 
 V. Bakken, C. Adamo, J. Jaramillo, R. Gomperts, R. E. Stratmann, 
 O. Yazyev, A. J. Austin, R. Cammi, C. Pomelli, J. W. Ochterski, 
 R. L. Martin, K. Morokuma, V. G. Zakrzewski, G. A. Voth, 
 P. Salvador, J. J. Dannenberg, S. Dapprich, A. D. Daniels, 
 O. Farkas, J. B. Foresman, J. V. Ortiz, J. Cioslowski, 
 and D. J. Fox, Gaussian, Inc., Wallingford CT, 2013.
 
 ******************************************
 Gaussian 09:  ES64L-G09RevD.01 24-Apr-2013
                13-Jun-2024 
 ******************************************
 %chk=dichlorodifluoropropane.chk
 %mem=8GB
 %nprocshared=20
 Will use up to   20 processors via shared memory.
 -------------------------------------------------------------------
 #p opt freq b3lyp/gen nosymm em=gd3 int=ultrafine scf=xqc scfcyc=96
 -------------------------------------------------------------------
 1/14=-1,18=20,19=15,26=4,38=1/1,3;
 2/9=110,12=2,15=1,17=6,18=5,40=1/2;
 3/5=7,11=2,16=1,25=1,30=1,71=1,74=-5,75=-5,124=31/1,2,3;
 4//1;
 5/5=2,7=96,8=3,13=1,38=5/2,8;
 6/7=2,8=2,9=2,10=2,28=1/1;
 7/30=1/1,2,3,16;
 1/14=-1,18=20,19=15,26=4/3(2);
 2/9=110,15=1/2;
 99//99;
 2/9=110,15=1/2;
 3/5=7,6=1,11=2,16=1,25=1,30=1,71=1,74=-5,75=-5,82=7,124=31/1,2,3;
 4/5=5,16=3,69=1/1;
 5/5=2,7=96,8=3,13=1,38=5/2,8;
 7/30=1/1,2,3,16;
 1/14=-1,18=20,19=15,26=4/3(-5);
 2/9=110,15=1/2;
 6/7=2,8=2,9=2,10=2,19=2,28=1/1;
 99/9=1/99;
 Leave Link    1 at Thu Jun 13 12:21:15 2024, MaxMem=  1073741824 cpu:         1.8
 (Enter /apps/z_install_tree/linux-rocky8-ivybridge/gcc-12.2.0/gaussian-09-D.01-wczn3gur5lpur3omlkzwa2l5ecyxp5ef/g09/l101.exe)
 -----------------------
 dichlorodifluoropropane
 -----------------------
 Symbolic Z-matrix:
 Charge =  0 Multiplicity = 1
 C                     50.156    35.315    31.965 
 C                     50.054    35.638    33.445 
 C                     51.497    35.707    31.286 
 Cl                    50.596    37.342    33.861 
 F                     48.422    35.372    33.954 
 F                     50.859    34.495    34.416 
 Cl                    51.583    35.195    29.497 
 H                     49.48     36.007    31.449 
 H                     49.984    34.251    31.757 
 H                     52.317    35.127    31.726 
 H                     51.67     36.787    31.211 
 
 Add virtual bond connecting atoms F6         and C2         Dist= 3.22D+00.
 Add virtual bond connecting atoms F5         and C2         Dist= 3.27D+00.
 NAtoms=     11 NQM=       11 NQMF=       0 NMMI=      0 NMMIF=      0
                NMic=       0 NMicF=      0.
                    Isotopes and Nuclear Properties:
 (Nuclear quadrupole moments (NQMom) in fm**2, nuclear magnetic moments (NMagM)
  in nuclear magnetons)

  Atom         1           2           3           4           5           6           7           8           9          10
 IAtWgt=          12          12          12          35          19          19          35           1           1           1
 AtmWgt=  12.0000000  12.0000000  12.0000000  34.9688527  18.9984033  18.9984033  34.9688527   1.0078250   1.0078250   1.0078250
 NucSpn=           0           0           0           3           1           1           3           1           1           1
 AtZEff=   0.0000000   0.0000000   0.0000000   0.0000000   0.0000000   0.0000000   0.0000000   0.0000000   0.0000000   0.0000000
 NQMom=    0.0000000   0.0000000   0.0000000  -8.1650000   0.0000000   0.0000000  -8.1650000   0.0000000   0.0000000   0.0000000
 NMagM=    0.0000000   0.0000000   0.0000000   0.8218740   2.6288670   2.6288670   0.8218740   2.7928460   2.7928460   2.7928460
 AtZNuc=   6.0000000   6.0000000   6.0000000  17.0000000   9.0000000   9.0000000  17.0000000   1.0000000   1.0000000   1.0000000

  Atom        11
 IAtWgt=           1
 AtmWgt=   1.0078250
 NucSpn=           1
 AtZEff=   0.0000000
 NQMom=    0.0000000
 NMagM=    2.7928460
 AtZNuc=   1.0000000
 Leave Link  101 at Thu Jun 13 12:21:15 2024, MaxMem=  1073741824 cpu:         3.0
 (Enter /apps/z_install_tree/linux-rocky8-ivybridge/gcc-12.2.0/gaussian-09-D.01-wczn3gur5lpur3omlkzwa2l5ecyxp5ef/g09/l103.exe)

 GradGradGradGradGradGradGradGradGradGradGradGradGradGradGradGradGradGrad
 Berny optimization.
 Initialization pass.
                           ----------------------------
                           !    Initial Parameters    !
                           ! (Angstroms and Degrees)  !
 --------------------------                            --------------------------
 ! Name  Definition              Value          Derivative Info.                !
 --------------------------------------------------------------------------------
 ! R1    R(1,2)                  1.5183         estimate D2E/DX2                !
 ! R2    R(1,3)                  1.5534         estimate D2E/DX2                !
 ! R3    R(1,8)                  1.0964         estimate D2E/DX2                !
 ! R4    R(1,9)                  1.0977         estimate D2E/DX2                !
 ! R5    R(2,4)                  1.8359         estimate D2E/DX2                !
 ! R6    R(2,5)                  1.7301         estimate D2E/DX2                !
 ! R7    R(2,6)                  1.7022         estimate D2E/DX2                !
 ! R8    R(3,7)                  1.8628         estimate D2E/DX2                !
 ! R9    R(3,10)                 1.0965         estimate D2E/DX2                !
 ! R10   R(3,11)                 1.0963         estimate D2E/DX2                !
 ! A1    A(2,1,3)              115.4933         estimate D2E/DX2                !
 ! A2    A(2,1,8)              106.4437         estimate D2E/DX2                !
 ! A3    A(2,1,9)              112.3582         estimate D2E/DX2                !
 ! A4    A(3,1,8)               99.6293         estimate D2E/DX2                !
 ! A5    A(3,1,9)              107.2803         estimate D2E/DX2                !
 ! A6    A(8,1,9)              115.2134         estimate D2E/DX2                !
 ! A7    A(1,2,4)              113.4851         estimate D2E/DX2                !
 ! A8    A(1,2,5)              108.5088         estimate D2E/DX2                !
 ! A9    A(1,2,6)              112.4234         estimate D2E/DX2                !
 ! A10   A(4,2,5)              110.7644         estimate D2E/DX2                !
 ! A11   A(4,2,6)              110.7557         estimate D2E/DX2                !
 ! A12   A(5,2,6)              100.0811         estimate D2E/DX2                !
 ! A13   A(1,3,7)              112.9723         estimate D2E/DX2                !
 ! A14   A(1,3,10)             109.6754         estimate D2E/DX2                !
 ! A15   A(1,3,11)             114.5016         estimate D2E/DX2                !
 ! A16   A(7,3,10)             101.8564         estimate D2E/DX2                !
 ! A17   A(7,3,11)             101.4068         estimate D2E/DX2                !
 ! A18   A(10,3,11)            115.4994         estimate D2E/DX2                !
 ! D1    D(3,1,2,4)             47.2869         estimate D2E/DX2                !
 ! D2    D(3,1,2,5)            170.866          estimate D2E/DX2                !
 ! D3    D(3,1,2,6)            -79.3893         estimate D2E/DX2                !
 ! D4    D(8,1,2,4)            -62.222          estimate D2E/DX2                !
 ! D5    D(8,1,2,5)             61.3571         estimate D2E/DX2                !
 ! D6    D(8,1,2,6)            171.1018         estimate D2E/DX2                !
 ! D7    D(9,1,2,4)            170.7891         estimate D2E/DX2                !
 ! D8    D(9,1,2,5)            -65.6318         estimate D2E/DX2                !
 ! D9    D(9,1,2,6)             44.1129         estimate D2E/DX2                !
 ! D10   D(2,1,3,7)            176.8123         estimate D2E/DX2                !
 ! D11   D(2,1,3,10)            63.9468         estimate D2E/DX2                !
 ! D12   D(2,1,3,11)           -67.7666         estimate D2E/DX2                !
 ! D13   D(8,1,3,7)            -69.6726         estimate D2E/DX2                !
 ! D14   D(8,1,3,10)           177.4619         estimate D2E/DX2                !
 ! D15   D(8,1,3,11)            45.7484         estimate D2E/DX2                !
 ! D16   D(9,1,3,7)             50.6775         estimate D2E/DX2                !
 ! D17   D(9,1,3,10)           -62.1879         estimate D2E/DX2                !
 ! D18   D(9,1,3,11)           166.0986         estimate D2E/DX2                !
 --------------------------------------------------------------------------------
 Trust Radius=3.00D-01 FncErr=1.00D-07 GrdErr=1.00D-06
 Number of steps in this run=     56 maximum allowed number of steps=    100.
 GradGradGradGradGradGradGradGradGradGradGradGradGradGradGradGradGradGrad

 Leave Link  103 at Thu Jun 13 12:21:15 2024, MaxMem=  1073741824 cpu:         0.2
 (Enter /apps/z_install_tree/linux-rocky8-ivybridge/gcc-12.2.0/gaussian-09-D.01-wczn3gur5lpur3omlkzwa2l5ecyxp5ef/g09/l202.exe)
                          Input orientation:                          
 ---------------------------------------------------------------------
 Center     Atomic      Atomic             Coordinates (Angstroms)
 Number     Number       Type             X           Y           Z
 ---------------------------------------------------------------------
      1          6           0       50.156000   35.315000   31.965000
      2          6           0       50.054000   35.638000   33.445000
      3          6           0       51.497000   35.707000   31.286000
      4         17           0       50.596000   37.342000   33.861000
      5          9           0       48.422000   35.372000   33.954000
      6          9           0       50.859000   34.495000   34.416000
      7         17           0       51.583000   35.195000   29.497000
      8          1           0       49.480000   36.007000   31.449000
      9          1           0       49.984000   34.251000   31.757000
     10          1           0       52.317000   35.127000   31.726000
     11          1           0       51.670000   36.787000   31.211000
 ---------------------------------------------------------------------
                    Distance matrix (angstroms):
                    1          2          3          4          5
     1  C    0.000000
     2  C    1.518266   0.000000
     3  C    1.553379   2.597747   0.000000
     4  Cl   2.810186   1.835875   3.180511   0.000000
     5  F    2.639342   1.730104   4.084859   2.935273   0.000000
     6  F    2.678434   1.702150   3.416561   2.912491   2.630882
     7  Cl   2.853376   4.256853   1.862810   4.962688   5.467001
     8  H    1.096401   2.109420   2.045693   2.974126   2.792421
     9  H    1.097699   2.185867   2.151963   3.788884   2.919468
    10  H    2.182289   2.887430   1.096540   3.525094   4.493889
    11  H    2.242208   2.987041   1.096337   2.912731   4.480600
                    6          7          8          9         10
     6  F    0.000000
     7  Cl   5.021029   0.000000
     8  H    3.604286   2.981989   0.000000
     9  H    2.809883   2.924985   1.852678   0.000000
    10  H    3.124306   2.347727   2.983236   2.492233   0.000000
    11  H    4.022811   2.340903   2.336909   3.093866   1.854571
                   11
    11  H    0.000000
 Symmetry turned off by external request.
 Stoichiometry    C3H4Cl2F2
 Framework group  C1[X(C3H4Cl2F2)]
 Deg. of freedom    27
 Full point group                 C1      NOp   1
 Rotational constants (GHZ):      2.4559722      0.7480686      0.6837310
 Leave Link  202 at Thu Jun 13 12:21:15 2024, MaxMem=  1073741824 cpu:         0.8
 (Enter /apps/z_install_tree/linux-rocky8-ivybridge/gcc-12.2.0/gaussian-09-D.01-wczn3gur5lpur3omlkzwa2l5ecyxp5ef/g09/l301.exe)
 General basis read from cards:  (5D, 7F)
 Centers:       4      7      5      6      1      2      3      8      9     10
 Centers:      11
 6-311+g(2d,2p)
 ****
 Ernie: Thresh=  0.10000D-02 Tol=  0.10000D-05 Strict=F.
   241 basis functions,   372 primitive gaussians,   255 cartesian basis functions
    37 alpha electrons       37 beta electrons
       nuclear repulsion energy       421.8283331514 Hartrees.
 IExCor=  402 DFT=T Ex+Corr=B3LYP ExCW=0 ScaHFX=  0.200000
 ScaDFX=  0.800000  0.720000  1.000000  0.810000 ScalE2=  1.000000  1.000000
 IRadAn=      5 IRanWt=     -1 IRanGd=            0 ICorTp=0 IEmpDi=131
 NAtoms=   11 NActive=   11 NUniq=   11 SFac= 1.00D+00 NAtFMM=   60 NAOKFM=F Big=F
 Integral buffers will be    131072 words long.
 Raffenetti 2 integral format.
 Two-electron integral symmetry is turned off.
 R6Disp:  Grimme-D3 Dispersion energy=       -0.0100364121 Hartrees.
 Nuclear repulsion after empirical dispersion term =      421.8182967392 Hartrees.
 Leave Link  301 at Thu Jun 13 12:21:16 2024, MaxMem=  1073741824 cpu:         1.1
 (Enter /apps/z_install_tree/linux-rocky8-ivybridge/gcc-12.2.0/gaussian-09-D.01-wczn3gur5lpur3omlkzwa2l5ecyxp5ef/g09/l302.exe)
 NPDir=0 NMtPBC=     1 NCelOv=     1 NCel=       1 NClECP=     1 NCelD=      1
         NCelK=      1 NCelE2=     1 NClLst=     1 CellRange=     0.0.
 One-electron integrals computed using PRISM.
 NBasis=   241 RedAO= T EigKep=  2.63D-05  NBF=   241
 NBsUse=   241 1.00D-06 EigRej= -1.00D+00 NBFU=   241
 Precomputing XC quadrature grid using
 IXCGrd= 4 IRadAn=           5 IRanWt=          -1 IRanGd=           0 AccXCQ= 0.00D+00.
 Generated NRdTot=       0 NPtTot=           0 NUsed=           0 NTot=          32
 NSgBfM=   254   254   254   254   254 MxSgAt=    11 MxSgA2=    11.
 Leave Link  302 at Thu Jun 13 12:21:16 2024, MaxMem=  1073741824 cpu:         4.3
 (Enter /apps/z_install_tree/linux-rocky8-ivybridge/gcc-12.2.0/gaussian-09-D.01-wczn3gur5lpur3omlkzwa2l5ecyxp5ef/g09/l303.exe)
 DipDrv:  MaxL=1.
 Leave Link  303 at Thu Jun 13 12:21:17 2024, MaxMem=  1073741824 cpu:         3.4
 (Enter /apps/z_install_tree/linux-rocky8-ivybridge/gcc-12.2.0/gaussian-09-D.01-wczn3gur5lpur3omlkzwa2l5ecyxp5ef/g09/l401.exe)
 ExpMin= 4.38D-02 ExpMax= 1.06D+05 ExpMxC= 3.62D+03 IAcc=3 IRadAn=         5 AccDes= 0.00D+00
 Harris functional with IExCor=  402 and IRadAn=       5 diagonalized for initial guess.
 HarFok:  IExCor=  402 AccDes= 0.00D+00 IRadAn=         5 IDoV= 1 UseB2=F ITyADJ=14
 ICtDFT=  3500011 ScaDFX=  1.000000  1.000000  1.000000  1.000000
 FoFCou: FMM=F IPFlag=           0 FMFlag=      100000 FMFlg1=           0
         NFxFlg=           0 DoJE=T BraDBF=F KetDBF=T FulRan=T
         wScrn=  0.000000 ICntrl=     500 IOpCl=  0 I1Cent=   200000004 NGrid=           0
         NMat0=    1 NMatS0=      1 NMatT0=    0 NMatD0=    1 NMtDS0=    0 NMtDT0=    0
 Symmetry not used in FoFCou.
 Harris En= -1236.79767262474    
 JPrj=0 DoOrth=F DoCkMO=F.
 Leave Link  401 at Thu Jun 13 12:21:17 2024, MaxMem=  1073741824 cpu:        12.2
 (Enter /apps/z_install_tree/linux-rocky8-ivybridge/gcc-12.2.0/gaussian-09-D.01-wczn3gur5lpur3omlkzwa2l5ecyxp5ef/g09/l502.exe)
 Closed shell SCF:
 Using DIIS extrapolation, IDIIS=  1040.
 Two-electron integral symmetry not used.
 Keep R1 ints in memory in canonical form, NReq=433797970.
 IVT=      212949 IEndB=      212949 NGot=  1073741824 MDV=   648332335
 LenX=   648332335 LenY=   648266869
 Requested convergence on RMS density matrix=1.00D-08 within  96 cycles.
 Requested convergence on MAX density matrix=1.00D-06.
 Requested convergence on             energy=1.00D-06.
 No special actions if energy rises.
 FoFCou: FMM=F IPFlag=           0 FMFlag=           0 FMFlg1=           0
         NFxFlg=           0 DoJE=F BraDBF=F KetDBF=F FulRan=T
         wScrn=  0.000000 ICntrl=     600 IOpCl=  0 I1Cent=           0 NGrid=           0
         NMat0=    1 NMatS0=  29161 NMatT0=    0 NMatD0=    1 NMtDS0=    0 NMtDT0=    0
 Symmetry not used in FoFCou.

 Cycle   1  Pass 1  IDiag  1:
 E= -1236.67710314736    
 DIIS: error= 2.32D-02 at cycle   1 NSaved=   1.
 NSaved= 1 IEnMin= 1 EnMin= -1236.67710314736     IErMin= 1 ErrMin= 2.32D-02
 ErrMax= 2.32D-02  0.00D+00 EMaxC= 1.00D-01 BMatC= 2.91D-01 BMatP= 2.91D-01
 IDIUse=3 WtCom= 7.68D-01 WtEn= 2.32D-01
 Coeff-Com:  0.100D+01
 Coeff-En:   0.100D+01
 Coeff:      0.100D+01
 Gap=     0.211 Goal=   None    Shift=    0.000
 GapD=    0.211 DampG=1.000 DampE=0.500 DampFc=0.5000 IDamp=-1.
 Damping current iteration by 5.00D-01
 RMSDP=5.93D-03 MaxDP=3.23D-01              OVMax= 2.92D-01

 Cycle   2  Pass 1  IDiag  1:
 E= -1236.59144108065     Delta-E=        0.085662066711 Rises=F Damp=T
 DIIS: error= 2.06D-02 at cycle   2 NSaved=   2.
 NSaved= 2 IEnMin= 1 EnMin= -1236.67710314736     IErMin= 2 ErrMin= 2.06D-02
 ErrMax= 2.06D-02  0.00D+00 EMaxC= 1.00D-01 BMatC= 1.61D-01 BMatP= 2.91D-01
 IDIUse=3 WtCom= 7.94D-01 WtEn= 2.06D-01
 Coeff-Com:  0.405D+00 0.595D+00
 Coeff-En:   0.610D+00 0.390D+00
 Coeff:      0.447D+00 0.553D+00
 Gap=     0.312 Goal=   None    Shift=    0.000
 RMSDP=2.52D-03 MaxDP=2.01D-01 DE= 8.57D-02 OVMax= 3.06D-01

 Cycle   3  Pass 1  IDiag  1:
 E= -1236.85032040065     Delta-E=       -0.258879319993 Rises=F Damp=F
 DIIS: error= 8.60D-03 at cycle   3 NSaved=   3.
 NSaved= 3 IEnMin= 3 EnMin= -1236.85032040065     IErMin= 3 ErrMin= 8.60D-03
 ErrMax= 8.60D-03  0.00D+00 EMaxC= 1.00D-01 BMatC= 3.78D-02 BMatP= 1.61D-01
 IDIUse=3 WtCom= 9.14D-01 WtEn= 8.60D-02
 Coeff-Com:  0.127D+00 0.308D+00 0.566D+00
 Coeff-En:   0.000D+00 0.000D+00 0.100D+01
 Coeff:      0.116D+00 0.281D+00 0.603D+00
 Gap=     0.208 Goal=   None    Shift=    0.000
 RMSDP=1.05D-03 MaxDP=3.99D-02 DE=-2.59D-01 OVMax= 6.05D-02

 Cycle   4  Pass 1  IDiag  1:
 E= -1236.87188894989     Delta-E=       -0.021568549248 Rises=F Damp=F
 DIIS: error= 5.21D-03 at cycle   4 NSaved=   4.
 NSaved= 4 IEnMin= 4 EnMin= -1236.87188894989     IErMin= 4 ErrMin= 5.21D-03
 ErrMax= 5.21D-03  0.00D+00 EMaxC= 1.00D-01 BMatC= 1.20D-02 BMatP= 3.78D-02
 IDIUse=3 WtCom= 9.48D-01 WtEn= 5.21D-02
 Coeff-Com: -0.564D-02 0.631D-01 0.376D+00 0.567D+00
 Coeff-En:   0.000D+00 0.000D+00 0.289D+00 0.711D+00
 Coeff:     -0.534D-02 0.598D-01 0.371D+00 0.574D+00
 Gap=     0.211 Goal=   None    Shift=    0.000
 RMSDP=6.36D-04 MaxDP=2.29D-02 DE=-2.16D-02 OVMax= 2.84D-02

 Cycle   5  Pass 1  IDiag  1:
 E= -1236.88287677063     Delta-E=       -0.010987820739 Rises=F Damp=F
 DIIS: error= 9.86D-04 at cycle   5 NSaved=   5.
 NSaved= 5 IEnMin= 5 EnMin= -1236.88287677063     IErMin= 5 ErrMin= 9.86D-04
 ErrMax= 9.86D-04  0.00D+00 EMaxC= 1.00D-01 BMatC= 6.43D-04 BMatP= 1.20D-02
 IDIUse=3 WtCom= 9.90D-01 WtEn= 9.86D-03
 Coeff-Com: -0.787D-02 0.219D-01 0.189D+00 0.334D+00 0.463D+00
 Coeff-En:   0.000D+00 0.000D+00 0.000D+00 0.000D+00 0.100D+01
 Coeff:     -0.779D-02 0.217D-01 0.187D+00 0.330D+00 0.468D+00
 Gap=     0.208 Goal=   None    Shift=    0.000
 RMSDP=1.50D-04 MaxDP=4.98D-03 DE=-1.10D-02 OVMax= 5.17D-03

 Cycle   6  Pass 1  IDiag  1:
 E= -1236.88339214523     Delta-E=       -0.000515374593 Rises=F Damp=F
 DIIS: error= 4.21D-04 at cycle   6 NSaved=   6.
 NSaved= 6 IEnMin= 6 EnMin= -1236.88339214523     IErMin= 6 ErrMin= 4.21D-04
 ErrMax= 4.21D-04  0.00D+00 EMaxC= 1.00D-01 BMatC= 7.30D-05 BMatP= 6.43D-04
 IDIUse=3 WtCom= 9.96D-01 WtEn= 4.21D-03
 Coeff-Com: -0.379D-02 0.509D-02 0.696D-01 0.133D+00 0.278D+00 0.518D+00
 Coeff-En:   0.000D+00 0.000D+00 0.000D+00 0.000D+00 0.000D+00 0.100D+01
 Coeff:     -0.377D-02 0.507D-02 0.694D-01 0.132D+00 0.277D+00 0.520D+00
 Gap=     0.207 Goal=   None    Shift=    0.000
 RMSDP=4.17D-05 MaxDP=1.84D-03 DE=-5.15D-04 OVMax= 2.37D-03

 Cycle   7  Pass 1  IDiag  1:
 E= -1236.88342990493     Delta-E=       -0.000037759705 Rises=F Damp=F
 DIIS: error= 2.09D-04 at cycle   7 NSaved=   7.
 NSaved= 7 IEnMin= 7 EnMin= -1236.88342990493     IErMin= 7 ErrMin= 2.09D-04
 ErrMax= 2.09D-04  0.00D+00 EMaxC= 1.00D-01 BMatC= 1.73D-05 BMatP= 7.30D-05
 IDIUse=3 WtCom= 9.98D-01 WtEn= 2.09D-03
 Coeff-Com: -0.105D-02-0.578D-03 0.156D-01 0.329D-01 0.100D+00 0.350D+00
 Coeff-Com:  0.503D+00
 Coeff-En:   0.000D+00 0.000D+00 0.000D+00 0.000D+00 0.000D+00 0.214D+00
 Coeff-En:   0.786D+00
 Coeff:     -0.105D-02-0.577D-03 0.155D-01 0.328D-01 0.100D+00 0.350D+00
 Coeff:      0.503D+00
 Gap=     0.207 Goal=   None    Shift=    0.000
 RMSDP=1.52D-05 MaxDP=4.19D-04 DE=-3.78D-05 OVMax= 8.25D-04

 Cycle   8  Pass 1  IDiag  1:
 E= -1236.88344195234     Delta-E=       -0.000012047414 Rises=F Damp=F
 DIIS: error= 3.45D-05 at cycle   8 NSaved=   8.
 NSaved= 8 IEnMin= 8 EnMin= -1236.88344195234     IErMin= 8 ErrMin= 3.45D-05
 ErrMax= 3.45D-05  0.00D+00 EMaxC= 1.00D-01 BMatC= 6.89D-07 BMatP= 1.73D-05
 IDIUse=1 WtCom= 1.00D+00 WtEn= 0.00D+00
 Coeff-Com: -0.129D-04-0.849D-03 0.244D-03 0.148D-02 0.160D-01 0.107D+00
 Coeff-Com:  0.241D+00 0.635D+00
 Coeff:     -0.129D-04-0.849D-03 0.244D-03 0.148D-02 0.160D-01 0.107D+00
 Coeff:      0.241D+00 0.635D+00
 Gap=     0.207 Goal=   None    Shift=    0.000
 RMSDP=6.29D-06 MaxDP=3.22D-04 DE=-1.20D-05 OVMax= 1.74D-04

 Cycle   9  Pass 1  IDiag  1:
 E= -1236.88344254072     Delta-E=       -0.000000588374 Rises=F Damp=F
 DIIS: error= 8.38D-06 at cycle   9 NSaved=   9.
 NSaved= 9 IEnMin= 9 EnMin= -1236.88344254072     IErMin= 9 ErrMin= 8.38D-06
 ErrMax= 8.38D-06  0.00D+00 EMaxC= 1.00D-01 BMatC= 3.50D-08 BMatP= 6.89D-07
 IDIUse=1 WtCom= 1.00D+00 WtEn= 0.00D+00
 Coeff-Com:  0.391D-04-0.283D-03-0.193D-03-0.265D-03 0.206D-02 0.227D-01
 Coeff-Com:  0.676D-01 0.261D+00 0.648D+00
 Coeff:      0.391D-04-0.283D-03-0.193D-03-0.265D-03 0.206D-02 0.227D-01
 Coeff:      0.676D-01 0.261D+00 0.648D+00
 Gap=     0.207 Goal=   None    Shift=    0.000
 RMSDP=1.43D-06 MaxDP=5.23D-05 DE=-5.88D-07 OVMax= 6.81D-05

 Cycle  10  Pass 1  IDiag  1:
 E= -1236.88344256707     Delta-E=       -0.000000026352 Rises=F Damp=F
 DIIS: error= 3.87D-06 at cycle  10 NSaved=  10.
 NSaved=10 IEnMin=10 EnMin= -1236.88344256707     IErMin=10 ErrMin= 3.87D-06
 ErrMax= 3.87D-06  0.00D+00 EMaxC= 1.00D-01 BMatC= 1.06D-08 BMatP= 3.50D-08
 IDIUse=1 WtCom= 1.00D+00 WtEn= 0.00D+00
 Coeff-Com:  0.441D-04-0.981D-04-0.396D-03-0.826D-03-0.139D-02 0.777D-04
 Coeff-Com:  0.124D-01 0.900D-01 0.388D+00 0.512D+00
 Coeff:      0.441D-04-0.981D-04-0.396D-03-0.826D-03-0.139D-02 0.777D-04
 Coeff:      0.124D-01 0.900D-01 0.388D+00 0.512D+00
 Gap=     0.207 Goal=   None    Shift=    0.000
 RMSDP=6.31D-07 MaxDP=3.04D-05 DE=-2.64D-08 OVMax= 2.54D-05

 Cycle  11  Pass 1  IDiag  1:
 E= -1236.88344257716     Delta-E=       -0.000000010093 Rises=F Damp=F
 DIIS: error= 7.72D-07 at cycle  11 NSaved=  11.
 NSaved=11 IEnMin=11 EnMin= -1236.88344257716     IErMin=11 ErrMin= 7.72D-07
 ErrMax= 7.72D-07  0.00D+00 EMaxC= 1.00D-01 BMatC= 3.85D-10 BMatP= 1.06D-08
 IDIUse=1 WtCom= 1.00D+00 WtEn= 0.00D+00
 Coeff-Com:  0.131D-04-0.121D-04-0.794D-04-0.212D-03-0.503D-03-0.186D-02
 Coeff-Com: -0.237D-02 0.819D-02 0.686D-01 0.195D+00 0.733D+00
 Coeff:      0.131D-04-0.121D-04-0.794D-04-0.212D-03-0.503D-03-0.186D-02
 Coeff:     -0.237D-02 0.819D-02 0.686D-01 0.195D+00 0.733D+00
 Gap=     0.207 Goal=   None    Shift=    0.000
 RMSDP=1.50D-07 MaxDP=9.19D-06 DE=-1.01D-08 OVMax= 4.81D-06

 Cycle  12  Pass 1  IDiag  1:
 E= -1236.88344257758     Delta-E=       -0.000000000417 Rises=F Damp=F
 DIIS: error= 8.50D-08 at cycle  12 NSaved=  12.
 NSaved=12 IEnMin=12 EnMin= -1236.88344257758     IErMin=12 ErrMin= 8.50D-08
 ErrMax= 8.50D-08  0.00D+00 EMaxC= 1.00D-01 BMatC= 6.47D-12 BMatP= 3.85D-10
 IDIUse=1 WtCom= 1.00D+00 WtEn= 0.00D+00
 Coeff-Com:  0.173D-05-0.264D-06-0.526D-05-0.231D-04-0.744D-04-0.542D-03
 Coeff-Com: -0.123D-02-0.181D-02 0.108D-02 0.293D-01 0.185D+00 0.788D+00
 Coeff:      0.173D-05-0.264D-06-0.526D-05-0.231D-04-0.744D-04-0.542D-03
 Coeff:     -0.123D-02-0.181D-02 0.108D-02 0.293D-01 0.185D+00 0.788D+00
 Gap=     0.207 Goal=   None    Shift=    0.000
 RMSDP=3.39D-08 MaxDP=1.64D-06 DE=-4.17D-10 OVMax= 8.31D-07

 Cycle  13  Pass 1  IDiag  1:
 E= -1236.88344257758     Delta-E=        0.000000000001 Rises=F Damp=F
 DIIS: error= 3.01D-08 at cycle  13 NSaved=  13.
 NSaved=13 IEnMin=12 EnMin= -1236.88344257758     IErMin=13 ErrMin= 3.01D-08
 ErrMax= 3.01D-08  0.00D+00 EMaxC= 1.00D-01 BMatC= 7.02D-13 BMatP= 6.47D-12
 IDIUse=1 WtCom= 1.00D+00 WtEn= 0.00D+00
 Coeff-Com: -0.139D-06 0.360D-06 0.443D-05 0.774D-05 0.113D-04-0.268D-04
 Coeff-Com: -0.178D-03-0.105D-02-0.416D-02-0.488D-02 0.671D-02 0.256D+00
 Coeff-Com:  0.748D+00
 Coeff:     -0.139D-06 0.360D-06 0.443D-05 0.774D-05 0.113D-04-0.268D-04
 Coeff:     -0.178D-03-0.105D-02-0.416D-02-0.488D-02 0.671D-02 0.256D+00
 Coeff:      0.748D+00
 Gap=     0.207 Goal=   None    Shift=    0.000
 RMSDP=7.90D-09 MaxDP=3.17D-07 DE= 9.09D-13 OVMax= 2.47D-07

 SCF Done:  E(RB3LYP) =  -1236.88344258     A.U. after   13 cycles
            NFock= 13  Conv=0.79D-08     -V/T= 2.0034
 KE= 1.232642842786D+03 PE=-3.777702057016D+03 EE= 8.863574749134D+02
 Leave Link  502 at Thu Jun 13 12:21:32 2024, MaxMem=  1073741824 cpu:       135.1
 (Enter /apps/z_install_tree/linux-rocky8-ivybridge/gcc-12.2.0/gaussian-09-D.01-wczn3gur5lpur3omlkzwa2l5ecyxp5ef/g09/l508.exe)
 QCSCF skips out because SCF is already converged.
 Leave Link  508 at Thu Jun 13 12:21:33 2024, MaxMem=  1073741824 cpu:         0.0
 (Enter /apps/z_install_tree/linux-rocky8-ivybridge/gcc-12.2.0/gaussian-09-D.01-wczn3gur5lpur3omlkzwa2l5ecyxp5ef/g09/l601.exe)
 Copying SCF densities to generalized density rwf, IOpCl= 0 IROHF=0.

 **********************************************************************

            Population analysis using the SCF density.

 **********************************************************************

 Alpha  occ. eigenvalues -- -101.62697-101.56854 -24.69434 -24.68649 -10.45617
 Alpha  occ. eigenvalues --  -10.27891 -10.25841  -9.53865  -9.48177  -7.30426
 Alpha  occ. eigenvalues --   -7.29336  -7.29288  -7.24660  -7.23663  -7.23637
 Alpha  occ. eigenvalues --   -1.16488  -1.14430  -0.92393  -0.88131  -0.81735
 Alpha  occ. eigenvalues --   -0.70255  -0.62831  -0.54981  -0.51519  -0.50965
 Alpha  occ. eigenvalues --   -0.49324  -0.44510  -0.43061  -0.42198  -0.41585
 Alpha  occ. eigenvalues --   -0.40838  -0.39937  -0.39553  -0.37770  -0.37665
 Alpha  occ. eigenvalues --   -0.33063  -0.32690
 Alpha virt. eigenvalues --   -0.11952  -0.09270  -0.05527  -0.03064  -0.00704
 Alpha virt. eigenvalues --    0.01803   0.01972   0.03303   0.04776   0.06009
 Alpha virt. eigenvalues --    0.06650   0.07290   0.07423   0.08744   0.09354
 Alpha virt. eigenvalues --    0.09610   0.10643   0.11169   0.11482   0.13126
 Alpha virt. eigenvalues --    0.13597   0.14321   0.15313   0.16229   0.17868
 Alpha virt. eigenvalues --    0.19002   0.20064   0.20998   0.21394   0.25071
 Alpha virt. eigenvalues --    0.26121   0.28939   0.32112   0.32511   0.34075
 Alpha virt. eigenvalues --    0.34600   0.35706   0.36206   0.37746   0.37924
 Alpha virt. eigenvalues --    0.38468   0.39148   0.39703   0.40324   0.40539
 Alpha virt. eigenvalues --    0.41400   0.42079   0.42596   0.44056   0.44913
 Alpha virt. eigenvalues --    0.45221   0.46452   0.47993   0.48702   0.49580
 Alpha virt. eigenvalues --    0.51715   0.53428   0.55694   0.57172   0.58260
 Alpha virt. eigenvalues --    0.59762   0.61689   0.63208   0.64904   0.70010
 Alpha virt. eigenvalues --    0.71134   0.73438   0.74845   0.77365   0.78415
 Alpha virt. eigenvalues --    0.80533   0.86974   0.89569   0.93336   0.95425
 Alpha virt. eigenvalues --    0.96853   0.99476   1.03649   1.05312   1.08198
 Alpha virt. eigenvalues --    1.11618   1.12185   1.15631   1.16272   1.18506
 Alpha virt. eigenvalues --    1.19940   1.25295   1.27428   1.28411   1.30977
 Alpha virt. eigenvalues --    1.34541   1.35412   1.37455   1.39187   1.40537
 Alpha virt. eigenvalues --    1.42730   1.43296   1.43726   1.46028   1.47602
 Alpha virt. eigenvalues --    1.49109   1.52124   1.53669   1.55147   1.57613
 Alpha virt. eigenvalues --    1.90020   1.96210   2.01787   2.03345   2.04398
 Alpha virt. eigenvalues --    2.07662   2.07826   2.16694   2.22233   2.22703
 Alpha virt. eigenvalues --    2.25147   2.27936   2.28001   2.28940   2.31490
 Alpha virt. eigenvalues --    2.34415   2.35208   2.35586   2.38191   2.38855
 Alpha virt. eigenvalues --    2.41859   2.45772   2.48268   2.50330   2.51882
 Alpha virt. eigenvalues --    2.54758   2.60485   2.63362   2.70411   2.75838
 Alpha virt. eigenvalues --    2.82415   2.87691   2.93593   2.97724   3.16693
 Alpha virt. eigenvalues --    3.19584   3.22882   3.26248   3.29936   3.31451
 Alpha virt. eigenvalues --    3.34528   3.38679   3.43947   3.45219   3.47598
 Alpha virt. eigenvalues --    3.48466   3.49401   3.54513   3.56994   3.58393
 Alpha virt. eigenvalues --    3.60273   3.64557   3.69754   3.71145   3.84919
 Alpha virt. eigenvalues --    3.90991   3.92615   4.00951   4.02912   4.05570
 Alpha virt. eigenvalues --    4.10868   4.11396   4.17169   4.24048   4.59580
 Alpha virt. eigenvalues --    4.71523   4.97769   5.05227   6.34069   6.36011
 Alpha virt. eigenvalues --    6.37316   6.41490   6.45877   6.46944   9.03780
 Alpha virt. eigenvalues --    9.05037   9.06782   9.07910   9.08415   9.19212
 Alpha virt. eigenvalues --    9.20182   9.26732   9.39013   9.45319   9.72098
 Alpha virt. eigenvalues --    9.76356  23.34559  23.76849  23.82473  25.85723
 Alpha virt. eigenvalues --   25.91818  25.93128  25.96738  26.98495  27.07363
 Alpha virt. eigenvalues --   66.78382  66.79387 215.70236 215.76250
          Condensed to atoms (all electrons):
               1          2          3          4          5          6
     1  C    5.765017  -0.261306  -0.211405   0.094648  -0.114168  -0.033415
     2  C   -0.261306   5.426254   0.169311   0.007282   0.306123   0.295738
     3  C   -0.211405   0.169311   5.362186   0.048754   0.014975  -0.028343
     4  Cl   0.094648   0.007282   0.048754  16.831595  -0.055646  -0.061505
     5  F   -0.114168   0.306123   0.014975  -0.055646   9.117465  -0.018360
     6  F   -0.033415   0.295738  -0.028343  -0.061505  -0.018360   9.090259
     7  Cl   0.043455  -0.018528   0.258088  -0.007875   0.000523   0.000515
     8  H    0.414045  -0.014484  -0.049806  -0.007740  -0.000949   0.001549
     9  H    0.408810  -0.037872  -0.003603   0.006679   0.000489  -0.006207
    10  H   -0.087797   0.021539   0.449582  -0.000323  -0.000053   0.002306
    11  H   -0.007845  -0.023977   0.409623  -0.003343  -0.000175  -0.000255
               7          8          9         10         11
     1  C    0.043455   0.414045   0.408810  -0.087797  -0.007845
     2  C   -0.018528  -0.014484  -0.037872   0.021539  -0.023977
     3  C    0.258088  -0.049806  -0.003603   0.449582   0.409623
     4  Cl  -0.007875  -0.007740   0.006679  -0.000323  -0.003343
     5  F    0.000523  -0.000949   0.000489  -0.000053  -0.000175
     6  F    0.000515   0.001549  -0.006207   0.002306  -0.000255
     7  Cl  16.787505  -0.003000  -0.008613  -0.049477  -0.045215
     8  H   -0.003000   0.519256  -0.015553   0.006395  -0.008099
     9  H   -0.008613  -0.015553   0.511450  -0.004433   0.004244
    10  H   -0.049477   0.006395  -0.004433   0.540752  -0.029349
    11  H   -0.045215  -0.008099   0.004244  -0.029349   0.556355
 Mulliken charges:
               1
     1  C   -0.010041
     2  C    0.129920
     3  C   -0.419363
     4  Cl   0.147475
     5  F   -0.250225
     6  F   -0.242281
     7  Cl   0.042623
     8  H    0.158386
     9  H    0.144609
    10  H    0.150860
    11  H    0.148036
 Sum of Mulliken charges =   0.00000
 Mulliken charges with hydrogens summed into heavy atoms:
               1
     1  C    0.292954
     2  C    0.129920
     3  C   -0.120467
     4  Cl   0.147475
     5  F   -0.250225
     6  F   -0.242281
     7  Cl   0.042623
 Electronic spatial extent (au):  <R**2>=        1293020.5408
 Charge=              0.0000 electrons
 Dipole moment (field-independent basis, Debye):
    X=              1.3430    Y=              2.0715    Z=             -1.7879  Tot=              3.0482
 Quadrupole moment (field-independent basis, Debye-Ang):
   XX=             77.1275   YY=             95.3049   ZZ=           -180.5614
   XY=            153.1935   XZ=            -42.4589   YZ=              6.4790
 Traceless Quadrupole moment (field-independent basis, Debye-Ang):
   XX=             79.8372   YY=             98.0146   ZZ=           -177.8518
   XY=            153.1935   XZ=            -42.4589   YZ=              6.4790
 Octapole moment (field-independent basis, Debye-Ang**2):
  XXX=           1396.1432  YYY=           2285.5601  ZZZ=         -11904.4634  XYY=           6563.2844
  XXY=           8099.2308  XXZ=          -1625.7057  XZZ=          -7437.6822  YZZ=          -4058.1126
  YYZ=           1042.1996  XYZ=           2054.7668
 Hexadecapole moment (field-independent basis, Debye-Ang**3):
 XXXX=        -206661.4492 YYYY=         -25719.2730 ZZZZ=        -649977.6207 XXXY=         321293.7778
 XXXZ=        -151952.7797 YYYX=         178259.4609 YYYZ=           5375.6558 ZZZX=        -542572.0314
 ZZZY=        -343924.0956 XXYY=         345050.2109 XXZZ=        -352495.3538 YYZZ=        -114756.3346
 XXYZ=         123210.4142 YYXZ=         114868.9710 ZZXY=        -144299.6715
 N-N= 4.218182967392D+02 E-N=-3.777702042991D+03  KE= 1.232642842786D+03
 No NMR shielding tensors so no spin-rotation constants.
 Leave Link  601 at Thu Jun 13 12:21:33 2024, MaxMem=  1073741824 cpu:         4.4
 (Enter /apps/z_install_tree/linux-rocky8-ivybridge/gcc-12.2.0/gaussian-09-D.01-wczn3gur5lpur3omlkzwa2l5ecyxp5ef/g09/l701.exe)
 Compute integral first derivatives.
 ... and contract with generalized density number  0.
 R6Disp: Adding Grimme-D3 dispersion energy 1st derivatives to the gradient.
 Leave Link  701 at Thu Jun 13 12:21:33 2024, MaxMem=  1073741824 cpu:         2.4
 (Enter /apps/z_install_tree/linux-rocky8-ivybridge/gcc-12.2.0/gaussian-09-D.01-wczn3gur5lpur3omlkzwa2l5ecyxp5ef/g09/l702.exe)
 L702 exits ... SP integral derivatives will be done elsewhere.
 Leave Link  702 at Thu Jun 13 12:21:33 2024, MaxMem=  1073741824 cpu:         0.3
 (Enter /apps/z_install_tree/linux-rocky8-ivybridge/gcc-12.2.0/gaussian-09-D.01-wczn3gur5lpur3omlkzwa2l5ecyxp5ef/g09/l703.exe)
 Compute integral first derivatives, UseDBF=F ICtDFT=           0.
 Integral derivatives from FoFJK, PRISM(SPDF).
 Calling FoFJK, ICntrl=      2127 FMM=F ISym2X=0 I1Cent= 0 IOpClX= 0 NMat=1 NMatS=1 NMatT=0.
 FoFJK:  IHMeth= 1 ICntrl=    2127 DoSepK=F KAlg= 0 I1Cent=   0 FoldK=F
 IRaf=         0 NMat=   1 IRICut=       1 DoRegI=T DoRafI=F ISym2E= 0.
 FoFCou: FMM=F IPFlag=           0 FMFlag=      100000 FMFlg1=         800
         NFxFlg=           0 DoJE=F BraDBF=F KetDBF=F FulRan=T
         wScrn=  0.000000 ICntrl=    2127 IOpCl=  0 I1Cent=           0 NGrid=           0
         NMat0=    1 NMatS0=      1 NMatT0=    0 NMatD0=    1 NMtDS0=    0 NMtDT0=    0
 Symmetry not used in FoFCou.
 Leave Link  703 at Thu Jun 13 12:21:35 2024, MaxMem=  1073741824 cpu:        35.8
 (Enter /apps/z_install_tree/linux-rocky8-ivybridge/gcc-12.2.0/gaussian-09-D.01-wczn3gur5lpur3omlkzwa2l5ecyxp5ef/g09/l716.exe)
 Dipole        = 5.28383745D-01 8.15001891D-01-7.03415966D-01
 -------------------------------------------------------------------
 Center     Atomic                   Forces (Hartrees/Bohr)
 Number     Number              X              Y              Z
 -------------------------------------------------------------------
      1        6           0.007908485    0.009084572   -0.008956951
      2        6          -0.021028434   -0.034657225    0.055511208
      3        6           0.016962050   -0.011594324   -0.000899481
      4       17          -0.017438732   -0.046506946    0.000083161
      5        9           0.089851848    0.017218356   -0.027480482
      6        9          -0.043152539    0.066907161   -0.055871739
      7       17          -0.009724878    0.000606503    0.013572546
      8        1          -0.013822058   -0.012988703    0.007742265
      9        1          -0.007982690    0.008983218    0.005972898
     10        1          -0.001757958    0.013049134    0.000059113
     11        1           0.000184906   -0.010101745    0.010267461
 -------------------------------------------------------------------
 Cartesian Forces:  Max     0.089851848 RMS     0.028964588
 Leave Link  716 at Thu Jun 13 12:21:36 2024, MaxMem=  1073741824 cpu:         2.5
 (Enter /apps/z_install_tree/linux-rocky8-ivybridge/gcc-12.2.0/gaussian-09-D.01-wczn3gur5lpur3omlkzwa2l5ecyxp5ef/g09/l103.exe)

 GradGradGradGradGradGradGradGradGradGradGradGradGradGradGradGradGradGrad
 Berny optimization.
 FormGI is forming the generalized inverse of G from B-inverse, IUseBI=4.
 Internal  Forces:  Max     0.097208740 RMS     0.023394869
 Search for a local minimum.
 Step number   1 out of a maximum of   56
 All quantities printed in internal units (Hartrees-Bohrs-Radians)
 RMS Force = .23395D-01 SwitMx=.10000D-02 MixMth= 1
 Mixed Optimization -- RFO/linear search
 Second derivative matrix not updated -- first step.
 ITU=  0
     Eigenvalues ---    0.00230   0.00524   0.03445   0.04981   0.05083
     Eigenvalues ---    0.05558   0.07642   0.08548   0.09132   0.12384
     Eigenvalues ---    0.16000   0.16000   0.16636   0.17903   0.21734
     Eigenvalues ---    0.22333   0.22385   0.23483   0.25000   0.25000
     Eigenvalues ---    0.25000   0.27366   0.30534   0.33938   0.34068
     Eigenvalues ---    0.34083   0.34091
 RFO step:  Lambda=-9.19814684D-02 EMin= 2.30000000D-03
 Linear search not attempted -- first point.
 Maximum step size (   0.300) exceeded in Quadratic search.
    -- Step size scaled by   0.523
 Iteration  1 RMS(Cart)=  0.05593358 RMS(Int)=  0.00055269
 Iteration  2 RMS(Cart)=  0.00074683 RMS(Int)=  0.00020233
 Iteration  3 RMS(Cart)=  0.00000033 RMS(Int)=  0.00020233
 ITry= 1 IFail=0 DXMaxC= 2.08D-01 DCOld= 1.00D+10 DXMaxT= 3.00D-01 DXLimC= 3.00D+00 Rises=F
 Variable       Old X    -DE/DX   Delta X   Delta X   Delta X     New X
                                 (Linear)    (Quad)   (Total)
    R1        2.86911  -0.02698   0.00000  -0.03548  -0.03548   2.83362
    R2        2.93546  -0.00719   0.00000  -0.01028  -0.01028   2.92518
    R3        2.07190  -0.00332   0.00000  -0.00401  -0.00401   2.06789
    R4        2.07435  -0.00859   0.00000  -0.01040  -0.01040   2.06395
    R5        3.46930  -0.04830   0.00000  -0.07722  -0.07722   3.39208
    R6        3.26942  -0.09549   0.00000  -0.19314  -0.19314   3.07629
    R7        3.21660  -0.09721   0.00000  -0.18742  -0.18742   3.02918
    R8        3.52020  -0.01365   0.00000  -0.02306  -0.02306   3.49714
    R9        2.07216  -0.00819   0.00000  -0.00989  -0.00989   2.06227
   R10        2.07178  -0.01062   0.00000  -0.01282  -0.01282   2.05895
    A1        2.01574  -0.01733   0.00000  -0.02625  -0.02610   1.98964
    A2        1.85779  -0.00252   0.00000  -0.00789  -0.00751   1.85028
    A3        1.96102  -0.00027   0.00000  -0.01121  -0.01118   1.94984
    A4        1.73886   0.01790   0.00000   0.04881   0.04870   1.78756
    A5        1.87240   0.00946   0.00000   0.01818   0.01776   1.89016
    A6        2.01085  -0.00660   0.00000  -0.01747  -0.01832   1.99253
    A7        1.98069   0.02657   0.00000   0.04130   0.04127   2.02196
    A8        1.89384  -0.00200   0.00000  -0.00338  -0.00345   1.89039
    A9        1.96216  -0.00688   0.00000  -0.01085  -0.01084   1.95132
   A10        1.93320  -0.01234   0.00000  -0.01813  -0.01822   1.91498
   A11        1.93305  -0.01140   0.00000  -0.01689  -0.01686   1.91620
   A12        1.74675   0.00244   0.00000   0.00215   0.00212   1.74887
   A13        1.97174  -0.02264   0.00000  -0.03560  -0.03558   1.93615
   A14        1.91420   0.00982   0.00000   0.01916   0.01931   1.93351
   A15        1.99843  -0.00287   0.00000  -0.00953  -0.00961   1.98882
   A16        1.77773   0.00866   0.00000   0.01917   0.01943   1.79716
   A17        1.76988   0.01317   0.00000   0.02377   0.02357   1.79346
   A18        2.01585  -0.00671   0.00000  -0.01665  -0.01662   1.99923
    D1        0.82531   0.00487   0.00000   0.01886   0.01877   0.84408
    D2        2.98217   0.00580   0.00000   0.02146   0.02141   3.00358
    D3       -1.38560   0.00413   0.00000   0.01668   0.01663  -1.36897
    D4       -1.08598  -0.00686   0.00000  -0.02264  -0.02264  -1.10862
    D5        1.07088  -0.00593   0.00000  -0.02004  -0.02000   1.05088
    D6        2.98629  -0.00760   0.00000  -0.02482  -0.02478   2.96151
    D7        2.98083   0.00361   0.00000   0.01311   0.01311   2.99395
    D8       -1.14549   0.00454   0.00000   0.01570   0.01575  -1.12974
    D9        0.76991   0.00287   0.00000   0.01092   0.01098   0.78089
   D10        3.08596  -0.00028   0.00000  -0.00301  -0.00307   3.08289
   D11        1.11608  -0.00406   0.00000  -0.01802  -0.01789   1.09819
   D12       -1.18275  -0.00117   0.00000  -0.00389  -0.00377  -1.18652
   D13       -1.21602   0.00058   0.00000   0.00640   0.00594  -1.21008
   D14        3.09729  -0.00319   0.00000  -0.00861  -0.00888   3.08841
   D15        0.79846  -0.00031   0.00000   0.00552   0.00524   0.80370
   D16        0.88449   0.00504   0.00000   0.01627   0.01643   0.90092
   D17       -1.08538   0.00127   0.00000   0.00126   0.00160  -1.08378
   D18        2.89897   0.00416   0.00000   0.01539   0.01572   2.91469
         Item               Value     Threshold  Converged?
 Maximum Force            0.097209     0.000450     NO 
 RMS     Force            0.023395     0.000300     NO 
 Maximum Displacement     0.207856     0.001800     NO 
 RMS     Displacement     0.055829     0.001200     NO 
 Predicted change in Energy=-3.983306D-02
 Lowest energy point so far.  Saving SCF results.
 GradGradGradGradGradGradGradGradGradGradGradGradGradGradGradGradGradGrad

 Leave Link  103 at Thu Jun 13 12:21:36 2024, MaxMem=  1073741824 cpu:         7.2
 (Enter /apps/z_install_tree/linux-rocky8-ivybridge/gcc-12.2.0/gaussian-09-D.01-wczn3gur5lpur3omlkzwa2l5ecyxp5ef/g09/l202.exe)
                          Input orientation:                          
 ---------------------------------------------------------------------
 Center     Atomic      Atomic             Coordinates (Angstroms)
 Number     Number       Type             X           Y           Z
 ---------------------------------------------------------------------
      1          6           0       50.149873   35.317362   31.958837
      2          6           0       50.062210   35.641468   33.420253
      3          6           0       51.501172   35.701442   31.308767
      4         17           0       50.574599   37.297324   33.886803
      5          9           0       48.531992   35.381258   33.910951
      6          9           0       50.835567   34.561136   34.317092
      7         17           0       51.555141   35.174942   29.535455
      8          1           0       49.447800   35.990688   31.457662
      9          1           0       49.966536   34.257681   31.768172
     10          1           0       52.320704   35.137069   31.756869
     11          1           0       51.672405   36.775629   31.246138
 ---------------------------------------------------------------------
                    Distance matrix (angstroms):
                    1          2          3          4          5
     1  C    0.000000
     2  C    1.499490   0.000000
     3  C    1.547940   2.555892   0.000000
     4  Cl   2.796015   1.795013   3.170434   0.000000
     5  F    2.536212   1.627900   3.961049   2.800738   0.000000
     6  F    2.569712   1.602972   3.285323   2.782082   2.478711
     7  Cl   2.804967   4.187857   1.850608   4.939656   5.322308
     8  H    1.094281   2.085957   2.078983   2.979547   2.688631
     9  H    1.092194   2.157172   2.156526   3.754699   2.812800
    10  H    2.187647   2.849923   1.091304   3.500315   4.365092
    11  H    2.225440   2.933569   1.089550   2.906967   4.348297
                    6          7          8          9         10
     6  F    0.000000
     7  Cl   4.874279   0.000000
     8  H    3.485090   2.966683   0.000000
     9  H    2.710035   2.889646   1.835433   0.000000
    10  H    3.015306   2.349937   3.011937   2.513077   0.000000
    11  H    3.877503   2.345716   2.368490   3.085865   1.834670
                   11
    11  H    0.000000
 Symmetry turned off by external request.
 Stoichiometry    C3H4Cl2F2
 Framework group  C1[X(C3H4Cl2F2)]
 Deg. of freedom    27
 Full point group                 C1      NOp   1
 Rotational constants (GHZ):      2.6718571      0.7768249      0.7099985
 Leave Link  202 at Thu Jun 13 12:21:36 2024, MaxMem=  1073741824 cpu:         0.8
 (Enter /apps/z_install_tree/linux-rocky8-ivybridge/gcc-12.2.0/gaussian-09-D.01-wczn3gur5lpur3omlkzwa2l5ecyxp5ef/g09/l301.exe)
 Basis read from rwf:  (5D, 7F)
 No pseudopotential information found on rwf file.
   241 basis functions,   372 primitive gaussians,   255 cartesian basis functions
    37 alpha electrons       37 beta electrons
       nuclear repulsion energy       432.4572512543 Hartrees.
 IExCor=  402 DFT=T Ex+Corr=B3LYP ExCW=0 ScaHFX=  0.200000
 ScaDFX=  0.800000  0.720000  1.000000  0.810000 ScalE2=  1.000000  1.000000
 IRadAn=      5 IRanWt=     -1 IRanGd=            0 ICorTp=0 IEmpDi=131
 NAtoms=   11 NActive=   11 NUniq=   11 SFac= 1.00D+00 NAtFMM=   60 NAOKFM=F Big=F
 Integral buffers will be    131072 words long.
 Raffenetti 2 integral format.
 Two-electron integral symmetry is turned off.
 R6Disp:  Grimme-D3 Dispersion energy=       -0.0099196633 Hartrees.
 Nuclear repulsion after empirical dispersion term =      432.4473315909 Hartrees.
 No density basis found on file   724.
 Leave Link  301 at Thu Jun 13 12:21:37 2024, MaxMem=  1073741824 cpu:         2.1
 (Enter /apps/z_install_tree/linux-rocky8-ivybridge/gcc-12.2.0/gaussian-09-D.01-wczn3gur5lpur3omlkzwa2l5ecyxp5ef/g09/l302.exe)
 NPDir=0 NMtPBC=     1 NCelOv=     1 NCel=       1 NClECP=     1 NCelD=      1
         NCelK=      1 NCelE2=     1 NClLst=     1 CellRange=     0.0.
 One-electron integrals computed using PRISM.
 NBasis=   241 RedAO= T EigKep=  2.43D-05  NBF=   241
 NBsUse=   241 1.00D-06 EigRej= -1.00D+00 NBFU=   241
 Precomputing XC quadrature grid using
 IXCGrd= 4 IRadAn=           5 IRanWt=          -1 IRanGd=           0 AccXCQ= 0.00D+00.
 Generated NRdTot=       0 NPtTot=           0 NUsed=           0 NTot=          32
 NSgBfM=   254   254   254   254   254 MxSgAt=    11 MxSgA2=    11.
 Leave Link  302 at Thu Jun 13 12:21:37 2024, MaxMem=  1073741824 cpu:         3.0
 (Enter /apps/z_install_tree/linux-rocky8-ivybridge/gcc-12.2.0/gaussian-09-D.01-wczn3gur5lpur3omlkzwa2l5ecyxp5ef/g09/l303.exe)
 DipDrv:  MaxL=1.
 Leave Link  303 at Thu Jun 13 12:21:37 2024, MaxMem=  1073741824 cpu:         4.1
 (Enter /apps/z_install_tree/linux-rocky8-ivybridge/gcc-12.2.0/gaussian-09-D.01-wczn3gur5lpur3omlkzwa2l5ecyxp5ef/g09/l401.exe)
 Initial guess from the checkpoint file:  "dichlorodifluoropropane.chk"
 B after Tr=    -0.100221    0.066362    0.064964
         Rot=    1.000000   -0.000539   -0.000739    0.000060 Ang=  -0.11 deg.
 Guess basis will be translated and rotated to current coordinates.
 JPrj=2 DoOrth=T DoCkMO=T.
 Generating alternative initial guess.
 ExpMin= 4.38D-02 ExpMax= 1.06D+05 ExpMxC= 3.62D+03 IAcc=2 IRadAn=         4 AccDes= 0.00D+00
 Harris functional with IExCor=  402 and IRadAn=       4 diagonalized for initial guess.
 HarFok:  IExCor=  402 AccDes= 0.00D+00 IRadAn=         4 IDoV= 1 UseB2=F ITyADJ=14
 ICtDFT=  3500011 ScaDFX=  1.000000  1.000000  1.000000  1.000000
 FoFCou: FMM=F IPFlag=           0 FMFlag=      100000 FMFlg1=           0
         NFxFlg=           0 DoJE=T BraDBF=F KetDBF=T FulRan=T
         wScrn=  0.000000 ICntrl=     500 IOpCl=  0 I1Cent=   200000004 NGrid=           0
         NMat0=    1 NMatS0=      1 NMatT0=    0 NMatD0=    1 NMtDS0=    0 NMtDT0=    0
 Symmetry not used in FoFCou.
 Harris En= -1236.82924724254    
 Leave Link  401 at Thu Jun 13 12:21:38 2024, MaxMem=  1073741824 cpu:        14.0
 (Enter /apps/z_install_tree/linux-rocky8-ivybridge/gcc-12.2.0/gaussian-09-D.01-wczn3gur5lpur3omlkzwa2l5ecyxp5ef/g09/l502.exe)
 Closed shell SCF:
 Using DIIS extrapolation, IDIIS=  1040.
 Two-electron integral symmetry not used.
 Keep R1 ints in memory in canonical form, NReq=433797970.
 IVT=      212949 IEndB=      212949 NGot=  1073741824 MDV=   648332335
 LenX=   648332335 LenY=   648266869
 Requested convergence on RMS density matrix=1.00D-08 within  96 cycles.
 Requested convergence on MAX density matrix=1.00D-06.
 Requested convergence on             energy=1.00D-06.
 No special actions if energy rises.
 FoFCou: FMM=F IPFlag=           0 FMFlag=           0 FMFlg1=           0
         NFxFlg=           0 DoJE=F BraDBF=F KetDBF=F FulRan=T
         wScrn=  0.000000 ICntrl=     600 IOpCl=  0 I1Cent=           0 NGrid=           0
         NMat0=    1 NMatS0=  29161 NMatT0=    0 NMatD0=    1 NMtDS0=    0 NMtDT0=    0
 Symmetry not used in FoFCou.

 Cycle   1  Pass 1  IDiag  1:
 E= -1236.92337164925    
 DIIS: error= 1.95D-03 at cycle   1 NSaved=   1.
 NSaved= 1 IEnMin= 1 EnMin= -1236.92337164925     IErMin= 1 ErrMin= 1.95D-03
 ErrMax= 1.95D-03  0.00D+00 EMaxC= 1.00D-01 BMatC= 3.88D-03 BMatP= 3.88D-03
 IDIUse=3 WtCom= 9.80D-01 WtEn= 1.95D-02
 Coeff-Com:  0.100D+01
 Coeff-En:   0.100D+01
 Coeff:      0.100D+01
 Gap=     0.525 Goal=   None    Shift=    0.000
 GapD=    0.525 DampG=2.000 DampE=1.000 DampFc=2.0000 IDamp=-1.
 RMSDP=7.84D-04 MaxDP=2.36D-02              OVMax= 1.89D-02

 Cycle   2  Pass 1  IDiag  1:
 E= -1236.92811827887     Delta-E=       -0.004746629624 Rises=F Damp=F
 DIIS: error= 7.35D-04 at cycle   2 NSaved=   2.
 NSaved= 2 IEnMin= 2 EnMin= -1236.92811827887     IErMin= 2 ErrMin= 7.35D-04
 ErrMax= 7.35D-04  0.00D+00 EMaxC= 1.00D-01 BMatC= 2.36D-04 BMatP= 3.88D-03
 IDIUse=3 WtCom= 9.93D-01 WtEn= 7.35D-03
 Coeff-Com:  0.720D-01 0.928D+00
 Coeff-En:   0.000D+00 0.100D+01
 Coeff:      0.714D-01 0.929D+00
 Gap=     0.252 Goal=   None    Shift=    0.000
 RMSDP=9.94D-05 MaxDP=3.35D-03 DE=-4.75D-03 OVMax= 5.64D-03

 Cycle   3  Pass 1  IDiag  1:
 E= -1236.92805261822     Delta-E=        0.000065660648 Rises=F Damp=F
 DIIS: error= 9.20D-04 at cycle   3 NSaved=   3.
 NSaved= 3 IEnMin= 2 EnMin= -1236.92811827887     IErMin= 2 ErrMin= 7.35D-04
 ErrMax= 9.20D-04  0.00D+00 EMaxC= 1.00D-01 BMatC= 3.67D-04 BMatP= 2.36D-04
 IDIUse=3 WtCom= 2.48D-01 WtEn= 7.52D-01
 Coeff-Com: -0.120D-01 0.561D+00 0.451D+00
 Coeff-En:   0.000D+00 0.579D+00 0.421D+00
 Coeff:     -0.297D-02 0.574D+00 0.429D+00
 Gap=     0.250 Goal=   None    Shift=    0.000
 RMSDP=7.50D-05 MaxDP=3.84D-03 DE= 6.57D-05 OVMax= 3.35D-03

 Cycle   4  Pass 1  IDiag  1:
 E= -1236.92828237147     Delta-E=       -0.000229753250 Rises=F Damp=F
 DIIS: error= 2.36D-04 at cycle   4 NSaved=   4.
 NSaved= 4 IEnMin= 4 EnMin= -1236.92828237147     IErMin= 4 ErrMin= 2.36D-04
 ErrMax= 2.36D-04  0.00D+00 EMaxC= 1.00D-01 BMatC= 1.31D-05 BMatP= 2.36D-04
 IDIUse=3 WtCom= 9.98D-01 WtEn= 2.36D-03
 Coeff-Com: -0.134D-01 0.207D+00 0.226D+00 0.580D+00
 Coeff-En:   0.000D+00 0.000D+00 0.000D+00 0.100D+01
 Coeff:     -0.134D-01 0.207D+00 0.226D+00 0.581D+00
 Gap=     0.250 Goal=   None    Shift=    0.000
 RMSDP=1.93D-05 MaxDP=6.52D-04 DE=-2.30D-04 OVMax= 1.04D-03

 Cycle   5  Pass 1  IDiag  1:
 E= -1236.92828971419     Delta-E=       -0.000007342717 Rises=F Damp=F
 DIIS: error= 8.30D-05 at cycle   5 NSaved=   5.
 NSaved= 5 IEnMin= 5 EnMin= -1236.92828971419     IErMin= 5 ErrMin= 8.30D-05
 ErrMax= 8.30D-05  0.00D+00 EMaxC= 1.00D-01 BMatC= 2.74D-06 BMatP= 1.31D-05
 IDIUse=1 WtCom= 1.00D+00 WtEn= 0.00D+00
 Coeff-Com: -0.483D-02 0.607D-01 0.826D-01 0.357D+00 0.504D+00
 Coeff:     -0.483D-02 0.607D-01 0.826D-01 0.357D+00 0.504D+00
 Gap=     0.250 Goal=   None    Shift=    0.000
 RMSDP=7.44D-06 MaxDP=3.77D-04 DE=-7.34D-06 OVMax= 4.35D-04

 Cycle   6  Pass 1  IDiag  1:
 E= -1236.92829208286     Delta-E=       -0.000002368668 Rises=F Damp=F
 DIIS: error= 2.18D-05 at cycle   6 NSaved=   6.
 NSaved= 6 IEnMin= 6 EnMin= -1236.92829208286     IErMin= 6 ErrMin= 2.18D-05
 ErrMax= 2.18D-05  0.00D+00 EMaxC= 1.00D-01 BMatC= 2.56D-07 BMatP= 2.74D-06
 IDIUse=1 WtCom= 1.00D+00 WtEn= 0.00D+00
 Coeff-Com: -0.820D-03 0.391D-03 0.717D-02 0.992D-01 0.277D+00 0.617D+00
 Coeff:     -0.820D-03 0.391D-03 0.717D-02 0.992D-01 0.277D+00 0.617D+00
 Gap=     0.250 Goal=   None    Shift=    0.000
 RMSDP=3.32D-06 MaxDP=1.35D-04 DE=-2.37D-06 OVMax= 1.16D-04

 Cycle   7  Pass 1  IDiag  1:
 E= -1236.92829233086     Delta-E=       -0.000000247999 Rises=F Damp=F
 DIIS: error= 2.98D-06 at cycle   7 NSaved=   7.
 NSaved= 7 IEnMin= 7 EnMin= -1236.92829233086     IErMin= 7 ErrMin= 2.98D-06
 ErrMax= 2.98D-06  0.00D+00 EMaxC= 1.00D-01 BMatC= 7.88D-09 BMatP= 2.56D-07
 IDIUse=1 WtCom= 1.00D+00 WtEn= 0.00D+00
 Coeff-Com:  0.122D-04-0.363D-02-0.316D-02 0.158D-01 0.808D-01 0.226D+00
 Coeff-Com:  0.684D+00
 Coeff:      0.122D-04-0.363D-02-0.316D-02 0.158D-01 0.808D-01 0.226D+00
 Coeff:      0.684D+00
 Gap=     0.250 Goal=   None    Shift=    0.000
 RMSDP=8.65D-07 MaxDP=5.25D-05 DE=-2.48D-07 OVMax= 2.18D-05

 Cycle   8  Pass 1  IDiag  1:
 E= -1236.92829233645     Delta-E=       -0.000000005592 Rises=F Damp=F
 DIIS: error= 1.97D-06 at cycle   8 NSaved=   8.
 NSaved= 8 IEnMin= 8 EnMin= -1236.92829233645     IErMin= 8 ErrMin= 1.97D-06
 ErrMax= 1.97D-06  0.00D+00 EMaxC= 1.00D-01 BMatC= 1.96D-09 BMatP= 7.88D-09
 IDIUse=1 WtCom= 1.00D+00 WtEn= 0.00D+00
 Coeff-Com:  0.529D-04-0.214D-02-0.234D-02 0.311D-02 0.308D-01 0.923D-01
 Coeff-Com:  0.401D+00 0.477D+00
 Coeff:      0.529D-04-0.214D-02-0.234D-02 0.311D-02 0.308D-01 0.923D-01
 Coeff:      0.401D+00 0.477D+00
 Gap=     0.250 Goal=   None    Shift=    0.000
 RMSDP=1.90D-07 MaxDP=6.25D-06 DE=-5.59D-09 OVMax= 8.84D-06

 Cycle   9  Pass 1  IDiag  1:
 E= -1236.92829233763     Delta-E=       -0.000000001180 Rises=F Damp=F
 DIIS: error= 7.44D-07 at cycle   9 NSaved=   9.
 NSaved= 9 IEnMin= 9 EnMin= -1236.92829233763     IErMin= 9 ErrMin= 7.44D-07
 ErrMax= 7.44D-07  0.00D+00 EMaxC= 1.00D-01 BMatC= 2.67D-10 BMatP= 1.96D-09
 IDIUse=1 WtCom= 1.00D+00 WtEn= 0.00D+00
 Coeff-Com:  0.287D-04-0.653D-03-0.877D-03-0.129D-02 0.304D-02 0.119D-01
 Coeff-Com:  0.119D+00 0.295D+00 0.574D+00
 Coeff:      0.287D-04-0.653D-03-0.877D-03-0.129D-02 0.304D-02 0.119D-01
 Coeff:      0.119D+00 0.295D+00 0.574D+00
 Gap=     0.250 Goal=   None    Shift=    0.000
 RMSDP=6.31D-08 MaxDP=1.83D-06 DE=-1.18D-09 OVMax= 3.68D-06

 Cycle  10  Pass 1  IDiag  1:
 E= -1236.92829233781     Delta-E=       -0.000000000182 Rises=F Damp=F
 DIIS: error= 1.66D-07 at cycle  10 NSaved=  10.
 NSaved=10 IEnMin=10 EnMin= -1236.92829233781     IErMin=10 ErrMin= 1.66D-07
 ErrMax= 1.66D-07  0.00D+00 EMaxC= 1.00D-01 BMatC= 1.78D-11 BMatP= 2.67D-10
 IDIUse=1 WtCom= 1.00D+00 WtEn= 0.00D+00
 Coeff-Com:  0.914D-05-0.881D-04-0.158D-03-0.965D-03-0.216D-02-0.479D-02
 Coeff-Com:  0.119D-01 0.904D-01 0.284D+00 0.622D+00
 Coeff:      0.914D-05-0.881D-04-0.158D-03-0.965D-03-0.216D-02-0.479D-02
 Coeff:      0.119D-01 0.904D-01 0.284D+00 0.622D+00
 Gap=     0.250 Goal=   None    Shift=    0.000
 RMSDP=2.28D-08 MaxDP=8.40D-07 DE=-1.82D-10 OVMax= 9.51D-07

 Cycle  11  Pass 1  IDiag  1:
 E= -1236.92829233783     Delta-E=       -0.000000000012 Rises=F Damp=F
 DIIS: error= 4.31D-08 at cycle  11 NSaved=  11.
 NSaved=11 IEnMin=11 EnMin= -1236.92829233783     IErMin=11 ErrMin= 4.31D-08
 ErrMax= 4.31D-08  0.00D+00 EMaxC= 1.00D-01 BMatC= 9.94D-13 BMatP= 1.78D-11
 IDIUse=1 WtCom= 1.00D+00 WtEn= 0.00D+00
 Coeff-Com:  0.153D-05 0.177D-04 0.169D-04-0.268D-03-0.111D-02-0.278D-02
 Coeff-Com: -0.432D-02 0.146D-01 0.723D-01 0.251D+00 0.671D+00
 Coeff:      0.153D-05 0.177D-04 0.169D-04-0.268D-03-0.111D-02-0.278D-02
 Coeff:     -0.432D-02 0.146D-01 0.723D-01 0.251D+00 0.671D+00
 Gap=     0.250 Goal=   None    Shift=    0.000
 RMSDP=8.37D-09 MaxDP=4.42D-07 DE=-1.23D-11 OVMax= 2.59D-07

 SCF Done:  E(RB3LYP) =  -1236.92829234     A.U. after   11 cycles
            NFock= 11  Conv=0.84D-08     -V/T= 2.0033
 KE= 1.232920805173D+03 PE=-3.799257482519D+03 EE= 8.969610534179D+02
 Leave Link  502 at Thu Jun 13 12:21:52 2024, MaxMem=  1073741824 cpu:       122.3
 (Enter /apps/z_install_tree/linux-rocky8-ivybridge/gcc-12.2.0/gaussian-09-D.01-wczn3gur5lpur3omlkzwa2l5ecyxp5ef/g09/l508.exe)
 QCSCF skips out because SCF is already converged.
 Leave Link  508 at Thu Jun 13 12:21:52 2024, MaxMem=  1073741824 cpu:         0.0
 (Enter /apps/z_install_tree/linux-rocky8-ivybridge/gcc-12.2.0/gaussian-09-D.01-wczn3gur5lpur3omlkzwa2l5ecyxp5ef/g09/l701.exe)
 Compute integral first derivatives.
 ... and contract with generalized density number  0.
 R6Disp: Adding Grimme-D3 dispersion energy 1st derivatives to the gradient.
 Leave Link  701 at Thu Jun 13 12:21:52 2024, MaxMem=  1073741824 cpu:         4.0
 (Enter /apps/z_install_tree/linux-rocky8-ivybridge/gcc-12.2.0/gaussian-09-D.01-wczn3gur5lpur3omlkzwa2l5ecyxp5ef/g09/l702.exe)
 L702 exits ... SP integral derivatives will be done elsewhere.
 Leave Link  702 at Thu Jun 13 12:21:53 2024, MaxMem=  1073741824 cpu:         0.2
 (Enter /apps/z_install_tree/linux-rocky8-ivybridge/gcc-12.2.0/gaussian-09-D.01-wczn3gur5lpur3omlkzwa2l5ecyxp5ef/g09/l703.exe)
 Compute integral first derivatives, UseDBF=F ICtDFT=           0.
 Integral derivatives from FoFJK, PRISM(SPDF).
 Calling FoFJK, ICntrl=      2127 FMM=F ISym2X=0 I1Cent= 0 IOpClX= 0 NMat=1 NMatS=1 NMatT=0.
 FoFJK:  IHMeth= 1 ICntrl=    2127 DoSepK=F KAlg= 0 I1Cent=   0 FoldK=F
 IRaf=         0 NMat=   1 IRICut=       1 DoRegI=T DoRafI=F ISym2E= 0.
 FoFCou: FMM=F IPFlag=           0 FMFlag=      100000 FMFlg1=         800
         NFxFlg=           0 DoJE=F BraDBF=F KetDBF=F FulRan=T
         wScrn=  0.000000 ICntrl=    2127 IOpCl=  0 I1Cent=           0 NGrid=           0
         NMat0=    1 NMatS0=      1 NMatT0=    0 NMatD0=    1 NMtDS0=    0 NMtDT0=    0
 Symmetry not used in FoFCou.
 Leave Link  703 at Thu Jun 13 12:21:55 2024, MaxMem=  1073741824 cpu:        36.9
 (Enter /apps/z_install_tree/linux-rocky8-ivybridge/gcc-12.2.0/gaussian-09-D.01-wczn3gur5lpur3omlkzwa2l5ecyxp5ef/g09/l716.exe)
 Dipole        = 4.26759153D-01 6.98823711D-01-5.25158547D-01
 -------------------------------------------------------------------
 Center     Atomic                   Forces (Hartrees/Bohr)
 Number     Number              X              Y              Z
 -------------------------------------------------------------------
      1        6           0.010571610    0.013174589   -0.010830318
      2        6          -0.028497170   -0.047939697    0.065755808
      3        6           0.007678830   -0.012367661   -0.004353274
      4       17          -0.011231532   -0.030378042   -0.001403294
      5        9           0.082170134    0.017146751   -0.026663778
      6        9          -0.038630771    0.061124827   -0.050327607
      7       17          -0.005975688    0.001047020    0.009601738
      8        1          -0.009555859   -0.011028909    0.004148212
      9        1          -0.006551380    0.005507616    0.004757490
     10        1          -0.000805577    0.009304275    0.001283826
     11        1           0.000827403   -0.005590769    0.008031199
 -------------------------------------------------------------------
 Cartesian Forces:  Max     0.082170134 RMS     0.027676307
 Leave Link  716 at Thu Jun 13 12:21:55 2024, MaxMem=  1073741824 cpu:         0.9
 (Enter /apps/z_install_tree/linux-rocky8-ivybridge/gcc-12.2.0/gaussian-09-D.01-wczn3gur5lpur3omlkzwa2l5ecyxp5ef/g09/l103.exe)

 GradGradGradGradGradGradGradGradGradGradGradGradGradGradGradGradGradGrad
 Berny optimization.
 Using GEDIIS/GDIIS optimizer.
 FormGI is forming the generalized inverse of G from B-inverse, IUseBI=4.
 Internal  Forces:  Max     0.088017698 RMS     0.019863020
 Search for a local minimum.
 Step number   2 out of a maximum of   56
 All quantities printed in internal units (Hartrees-Bohrs-Radians)
 RMS Force = .19863D-01 SwitMx=.10000D-02 MixMth= 1
 Mixed Optimization -- RFO/linear search
 Update second derivatives using D2CorX and points    1    2
 DE= -4.48D-02 DEPred=-3.98D-02 R= 1.13D+00
 TightC=F SS=  1.41D+00  RLast= 3.07D-01 DXNew= 5.0454D-01 9.2034D-01
 Trust test= 1.13D+00 RLast= 3.07D-01 DXMaxT set to 5.05D-01
 ITU=  1  0
 Use linear search instead of GDIIS.
 Linear search step of   0.600 exceeds DXMaxT=   0.505 but not scaled.
 Quartic linear search produced a step of  2.00000.
 Iteration  1 RMS(Cart)=  0.08309375 RMS(Int)=  0.03792777
 Iteration  2 RMS(Cart)=  0.03592926 RMS(Int)=  0.00115111
 Iteration  3 RMS(Cart)=  0.00006684 RMS(Int)=  0.00114989
 Iteration  4 RMS(Cart)=  0.00000002 RMS(Int)=  0.00114989
 ITry= 1 IFail=0 DXMaxC= 4.14D-01 DCOld= 1.00D+10 DXMaxT= 5.05D-01 DXLimC= 3.00D+00 Rises=F
 Variable       Old X    -DE/DX   Delta X   Delta X   Delta X     New X
                                 (Linear)    (Quad)   (Total)
    R1        2.83362  -0.01255  -0.07097   0.00000  -0.07097   2.76266
    R2        2.92518  -0.00650  -0.02056   0.00000  -0.02056   2.90462
    R3        2.06789  -0.00256  -0.00802   0.00000  -0.00802   2.05988
    R4        2.06395  -0.00507  -0.02081   0.00000  -0.02081   2.04314
    R5        3.39208  -0.03159  -0.15444   0.00000  -0.15444   3.23765
    R6        3.07629  -0.08802  -0.38628   0.00000  -0.38628   2.69001
    R7        3.02918  -0.08799  -0.37484   0.00000  -0.37484   2.65434
    R8        3.49714  -0.00967  -0.04612   0.00000  -0.04612   3.45102
    R9        2.06227  -0.00489  -0.01979   0.00000  -0.01979   2.04248
   R10        2.05895  -0.00584  -0.02565   0.00000  -0.02565   2.03330
    A1        1.98964  -0.00968  -0.05220   0.00000  -0.05110   1.93854
    A2        1.85028  -0.00045  -0.01502   0.00000  -0.01281   1.83747
    A3        1.94984  -0.00192  -0.02236   0.00000  -0.02208   1.92776
    A4        1.78756   0.01172   0.09740   0.00000   0.09656   1.88412
    A5        1.89016   0.00605   0.03553   0.00000   0.03283   1.92299
    A6        1.99253  -0.00537  -0.03664   0.00000  -0.04132   1.95122
    A7        2.02196   0.01594   0.08255   0.00000   0.08239   2.10435
    A8        1.89039  -0.00127  -0.00689   0.00000  -0.00730   1.88309
    A9        1.95132  -0.00567  -0.02169   0.00000  -0.02164   1.92967
   A10        1.91498  -0.00809  -0.03644   0.00000  -0.03693   1.87805
   A11        1.91620  -0.00677  -0.03371   0.00000  -0.03352   1.88267
   A12        1.74887   0.00391   0.00424   0.00000   0.00403   1.75289
   A13        1.93615  -0.01327  -0.07117   0.00000  -0.07106   1.86510
   A14        1.93351   0.00600   0.03862   0.00000   0.03941   1.97292
   A15        1.98882  -0.00250  -0.01921   0.00000  -0.01963   1.96920
   A16        1.79716   0.00611   0.03885   0.00000   0.04032   1.83748
   A17        1.79346   0.00851   0.04715   0.00000   0.04590   1.83935
   A18        1.99923  -0.00478  -0.03324   0.00000  -0.03302   1.96621
    D1        0.84408   0.00368   0.03754   0.00000   0.03700   0.88108
    D2        3.00358   0.00344   0.04281   0.00000   0.04248   3.04607
    D3       -1.36897   0.00459   0.03326   0.00000   0.03298  -1.33599
    D4       -1.10862  -0.00537  -0.04528   0.00000  -0.04524  -1.15386
    D5        1.05088  -0.00561  -0.04000   0.00000  -0.03975   1.01113
    D6        2.96151  -0.00446  -0.04955   0.00000  -0.04926   2.91225
    D7        2.99395   0.00283   0.02623   0.00000   0.02626   3.02021
    D8       -1.12974   0.00259   0.03150   0.00000   0.03175  -1.09799
    D9        0.78089   0.00374   0.02195   0.00000   0.02224   0.80314
   D10        3.08289  -0.00107  -0.00614   0.00000  -0.00654   3.07635
   D11        1.09819  -0.00428  -0.03579   0.00000  -0.03508   1.06311
   D12       -1.18652  -0.00083  -0.00754   0.00000  -0.00680  -1.19332
   D13       -1.21008   0.00101   0.01188   0.00000   0.00934  -1.20074
   D14        3.08841  -0.00220  -0.01776   0.00000  -0.01921   3.06921
   D15        0.80370   0.00125   0.01048   0.00000   0.00908   0.81278
   D16        0.90092   0.00367   0.03285   0.00000   0.03354   0.93446
   D17       -1.08378   0.00046   0.00320   0.00000   0.00500  -1.07878
   D18        2.91469   0.00391   0.03145   0.00000   0.03329   2.94798
         Item               Value     Threshold  Converged?
 Maximum Force            0.088018     0.000450     NO 
 RMS     Force            0.019863     0.000300     NO 
 Maximum Displacement     0.413905     0.001800     NO 
 RMS     Displacement     0.110990     0.001200     NO 
 Predicted change in Energy=-6.721885D-02
 Lowest energy point so far.  Saving SCF results.
 GradGradGradGradGradGradGradGradGradGradGradGradGradGradGradGradGradGrad

 Leave Link  103 at Thu Jun 13 12:21:55 2024, MaxMem=  1073741824 cpu:         4.8
 (Enter /apps/z_install_tree/linux-rocky8-ivybridge/gcc-12.2.0/gaussian-09-D.01-wczn3gur5lpur3omlkzwa2l5ecyxp5ef/g09/l202.exe)
                          Input orientation:                          
 ---------------------------------------------------------------------
 Center     Atomic      Atomic             Coordinates (Angstroms)
 Number     Number       Type             X           Y           Z
 ---------------------------------------------------------------------
      1          6           0       50.139165   35.322776   31.947888
      2          6           0       50.079141   35.647535   33.372031
      3          6           0       51.508420   35.690854   31.354411
      4         17           0       50.535534   37.201275   33.931456
      5          9           0       48.751022   35.401197   33.821190
      6          9           0       50.783458   34.694083   34.125565
      7         17           0       51.497472   35.137612   29.614061
      8          1           0       49.387550   35.956329   31.476856
      9          1           0       49.934703   34.272774   31.790883
     10          1           0       52.327103   35.158340   31.817427
     11          1           0       51.674433   36.753226   31.315232
 ---------------------------------------------------------------------
                    Distance matrix (angstroms):
                    1          2          3          4          5
     1  C    0.000000
     2  C    1.461936   0.000000
     3  C    1.537061   2.472955   0.000000
     4  Cl   2.760509   1.713289   3.141502   0.000000
     5  F    2.332885   1.423491   3.711085   2.537110   0.000000
     6  F    2.356405   1.404615   3.032890   2.526886   2.173350
     7  Cl   2.706664   4.048954   1.826203   4.880976   5.031143
     8  H    1.090039   2.040917   2.140925   2.982083   2.491835
     9  H    1.081184   2.100205   2.162879   3.676842   2.607027
    10  H    2.197983   2.776587   1.080831   3.442734   4.106385
    11  H    2.191686   2.828061   1.075978   2.888332   4.080948
                    6          7          8          9         10
     6  F    0.000000
     7  Cl   4.589140   0.000000
     8  H    3.249228   2.931224   0.000000
     9  H    2.519648   2.815802   1.797872   0.000000
    10  H    2.815293   2.354473   3.064922   2.551177   0.000000
    11  H    3.596092   2.352766   2.427138   3.066846   1.794949
                   11
    11  H    0.000000
 Symmetry turned off by external request.
 Stoichiometry    C3H4Cl2F2
 Framework group  C1[X(C3H4Cl2F2)]
 Deg. of freedom    27
 Full point group                 C1      NOp   1
 Rotational constants (GHZ):      3.2112930      0.8380986      0.7674192
 Leave Link  202 at Thu Jun 13 12:21:55 2024, MaxMem=  1073741824 cpu:         0.1
 (Enter /apps/z_install_tree/linux-rocky8-ivybridge/gcc-12.2.0/gaussian-09-D.01-wczn3gur5lpur3omlkzwa2l5ecyxp5ef/g09/l301.exe)
 Basis read from rwf:  (5D, 7F)
 No pseudopotential information found on rwf file.
   241 basis functions,   372 primitive gaussians,   255 cartesian basis functions
    37 alpha electrons       37 beta electrons
       nuclear repulsion energy       456.6672698339 Hartrees.
 IExCor=  402 DFT=T Ex+Corr=B3LYP ExCW=0 ScaHFX=  0.200000
 ScaDFX=  0.800000  0.720000  1.000000  0.810000 ScalE2=  1.000000  1.000000
 IRadAn=      5 IRanWt=     -1 IRanGd=            0 ICorTp=0 IEmpDi=131
 NAtoms=   11 NActive=   11 NUniq=   11 SFac= 1.00D+00 NAtFMM=   60 NAOKFM=F Big=F
 Integral buffers will be    131072 words long.
 Raffenetti 2 integral format.
 Two-electron integral symmetry is turned off.
 R6Disp:  Grimme-D3 Dispersion energy=       -0.0096930790 Hartrees.
 Nuclear repulsion after empirical dispersion term =      456.6575767549 Hartrees.
 No density basis found on file   724.
 Leave Link  301 at Thu Jun 13 12:21:55 2024, MaxMem=  1073741824 cpu:         0.8
 (Enter /apps/z_install_tree/linux-rocky8-ivybridge/gcc-12.2.0/gaussian-09-D.01-wczn3gur5lpur3omlkzwa2l5ecyxp5ef/g09/l302.exe)
 NPDir=0 NMtPBC=     1 NCelOv=     1 NCel=       1 NClECP=     1 NCelD=      1
         NCelK=      1 NCelE2=     1 NClLst=     1 CellRange=     0.0.
 One-electron integrals computed using PRISM.
 NBasis=   241 RedAO= T EigKep=  2.12D-05  NBF=   241
 NBsUse=   241 1.00D-06 EigRej= -1.00D+00 NBFU=   241
 Precomputing XC quadrature grid using
 IXCGrd= 4 IRadAn=           5 IRanWt=          -1 IRanGd=           0 AccXCQ= 0.00D+00.
 Generated NRdTot=       0 NPtTot=           0 NUsed=           0 NTot=          32
 NSgBfM=   255   255   255   255   255 MxSgAt=    11 MxSgA2=    11.
 Leave Link  302 at Thu Jun 13 12:21:56 2024, MaxMem=  1073741824 cpu:         4.1
 (Enter /apps/z_install_tree/linux-rocky8-ivybridge/gcc-12.2.0/gaussian-09-D.01-wczn3gur5lpur3omlkzwa2l5ecyxp5ef/g09/l303.exe)
 DipDrv:  MaxL=1.
 Leave Link  303 at Thu Jun 13 12:21:56 2024, MaxMem=  1073741824 cpu:         3.1
 (Enter /apps/z_install_tree/linux-rocky8-ivybridge/gcc-12.2.0/gaussian-09-D.01-wczn3gur5lpur3omlkzwa2l5ecyxp5ef/g09/l401.exe)
 Initial guess from the checkpoint file:  "dichlorodifluoropropane.chk"
 B after Tr=    -0.283328    0.284071    0.090546
         Rot=    0.999998   -0.001332   -0.001456    0.000753 Ang=  -0.24 deg.
 Guess basis will be translated and rotated to current coordinates.
 JPrj=2 DoOrth=T DoCkMO=T.
 Generating alternative initial guess.
 ExpMin= 4.38D-02 ExpMax= 1.06D+05 ExpMxC= 3.62D+03 IAcc=2 IRadAn=         4 AccDes= 0.00D+00
 Harris functional with IExCor=  402 and IRadAn=       4 diagonalized for initial guess.
 HarFok:  IExCor=  402 AccDes= 0.00D+00 IRadAn=         4 IDoV= 1 UseB2=F ITyADJ=14
 ICtDFT=  3500011 ScaDFX=  1.000000  1.000000  1.000000  1.000000
 FoFCou: FMM=F IPFlag=           0 FMFlag=      100000 FMFlg1=           0
         NFxFlg=           0 DoJE=T BraDBF=F KetDBF=T FulRan=T
         wScrn=  0.000000 ICntrl=     500 IOpCl=  0 I1Cent=   200000004 NGrid=           0
         NMat0=    1 NMatS0=      1 NMatT0=    0 NMatD0=    1 NMtDS0=    0 NMtDT0=    0
 Symmetry not used in FoFCou.
 Harris En= -1236.85049022282    
 Leave Link  401 at Thu Jun 13 12:21:57 2024, MaxMem=  1073741824 cpu:         6.5
 (Enter /apps/z_install_tree/linux-rocky8-ivybridge/gcc-12.2.0/gaussian-09-D.01-wczn3gur5lpur3omlkzwa2l5ecyxp5ef/g09/l502.exe)
 Closed shell SCF:
 Using DIIS extrapolation, IDIIS=  1040.
 Two-electron integral symmetry not used.
 Keep R1 ints in memory in canonical form, NReq=433797970.
 IVT=      212949 IEndB=      212949 NGot=  1073741824 MDV=   648332335
 LenX=   648332335 LenY=   648266869
 Requested convergence on RMS density matrix=1.00D-08 within  96 cycles.
 Requested convergence on MAX density matrix=1.00D-06.
 Requested convergence on             energy=1.00D-06.
 No special actions if energy rises.
 FoFCou: FMM=F IPFlag=           0 FMFlag=           0 FMFlg1=           0
         NFxFlg=           0 DoJE=F BraDBF=F KetDBF=F FulRan=T
         wScrn=  0.000000 ICntrl=     600 IOpCl=  0 I1Cent=           0 NGrid=           0
         NMat0=    1 NMatS0=  29161 NMatT0=    0 NMatD0=    1 NMtDS0=    0 NMtDT0=    0
 Symmetry not used in FoFCou.

 Cycle   1  Pass 1  IDiag  1:
 E= -1236.95121722659    
 DIIS: error= 5.47D-03 at cycle   1 NSaved=   1.
 NSaved= 1 IEnMin= 1 EnMin= -1236.95121722659     IErMin= 1 ErrMin= 5.47D-03
 ErrMax= 5.47D-03  0.00D+00 EMaxC= 1.00D-01 BMatC= 2.71D-02 BMatP= 2.71D-02
 IDIUse=3 WtCom= 9.45D-01 WtEn= 5.47D-02
 Coeff-Com:  0.100D+01
 Coeff-En:   0.100D+01
 Coeff:      0.100D+01
 Gap=     0.538 Goal=   None    Shift=    0.000
 GapD=    0.538 DampG=2.000 DampE=1.000 DampFc=2.0000 IDamp=-1.
 RMSDP=1.66D-03 MaxDP=5.04D-02              OVMax= 4.70D-02

 Cycle   2  Pass 1  IDiag  1:
 E= -1236.97848139212     Delta-E=       -0.027264165537 Rises=F Damp=F
 DIIS: error= 2.03D-03 at cycle   2 NSaved=   2.
 NSaved= 2 IEnMin= 2 EnMin= -1236.97848139212     IErMin= 2 ErrMin= 2.03D-03
 ErrMax= 2.03D-03  0.00D+00 EMaxC= 1.00D-01 BMatC= 1.62D-03 BMatP= 2.71D-02
 IDIUse=3 WtCom= 9.80D-01 WtEn= 2.03D-02
 Coeff-Com:  0.965D-01 0.903D+00
 Coeff-En:   0.000D+00 0.100D+01
 Coeff:      0.946D-01 0.905D+00
 Gap=     0.297 Goal=   None    Shift=    0.000
 RMSDP=2.91D-04 MaxDP=1.82D-02 DE=-2.73D-02 OVMax= 1.29D-02

 Cycle   3  Pass 1  IDiag  1:
 E= -1236.97843047504     Delta-E=        0.000050917082 Rises=F Damp=F
 DIIS: error= 1.78D-03 at cycle   3 NSaved=   3.
 NSaved= 3 IEnMin= 2 EnMin= -1236.97848139212     IErMin= 3 ErrMin= 1.78D-03
 ErrMax= 1.78D-03  0.00D+00 EMaxC= 1.00D-01 BMatC= 1.55D-03 BMatP= 1.62D-03
 IDIUse=3 WtCom= 9.82D-01 WtEn= 1.78D-02
 Coeff-Com: -0.124D-01 0.492D+00 0.520D+00
 Coeff-En:   0.000D+00 0.509D+00 0.491D+00
 Coeff:     -0.122D-01 0.493D+00 0.520D+00
 Gap=     0.295 Goal=   None    Shift=    0.000
 RMSDP=1.86D-04 MaxDP=9.70D-03 DE= 5.09D-05 OVMax= 9.43D-03

 Cycle   4  Pass 1  IDiag  1:
 E= -1236.97971164746     Delta-E=       -0.001281172423 Rises=F Damp=F
 DIIS: error= 3.81D-04 at cycle   4 NSaved=   4.
 NSaved= 4 IEnMin= 4 EnMin= -1236.97971164746     IErMin= 4 ErrMin= 3.81D-04
 ErrMax= 3.81D-04  0.00D+00 EMaxC= 1.00D-01 BMatC= 8.44D-05 BMatP= 1.55D-03
 IDIUse=3 WtCom= 9.96D-01 WtEn= 3.81D-03
 Coeff-Com: -0.965D-02 0.180D+00 0.267D+00 0.563D+00
 Coeff-En:   0.000D+00 0.000D+00 0.000D+00 0.100D+01
 Coeff:     -0.961D-02 0.179D+00 0.266D+00 0.565D+00
 Gap=     0.296 Goal=   None    Shift=    0.000
 RMSDP=5.43D-05 MaxDP=2.40D-03 DE=-1.28D-03 OVMax= 1.92D-03

 Cycle   5  Pass 1  IDiag  1:
 E= -1236.97978323298     Delta-E=       -0.000071585514 Rises=F Damp=F
 DIIS: error= 1.09D-04 at cycle   5 NSaved=   5.
 NSaved= 5 IEnMin= 5 EnMin= -1236.97978323298     IErMin= 5 ErrMin= 1.09D-04
 ErrMax= 1.09D-04  0.00D+00 EMaxC= 1.00D-01 BMatC= 6.50D-06 BMatP= 8.44D-05
 IDIUse=3 WtCom= 9.99D-01 WtEn= 1.09D-03
 Coeff-Com: -0.382D-02 0.462D-01 0.909D-01 0.282D+00 0.584D+00
 Coeff-En:   0.000D+00 0.000D+00 0.000D+00 0.000D+00 0.100D+01
 Coeff:     -0.382D-02 0.462D-01 0.908D-01 0.282D+00 0.585D+00
 Gap=     0.296 Goal=   None    Shift=    0.000
 RMSDP=1.66D-05 MaxDP=9.45D-04 DE=-7.16D-05 OVMax= 4.34D-04

 Cycle   6  Pass 1  IDiag  1:
 E= -1236.97978696847     Delta-E=       -0.000003735488 Rises=F Damp=F
 DIIS: error= 3.17D-05 at cycle   6 NSaved=   6.
 NSaved= 6 IEnMin= 6 EnMin= -1236.97978696847     IErMin= 6 ErrMin= 3.17D-05
 ErrMax= 3.17D-05  0.00D+00 EMaxC= 1.00D-01 BMatC= 8.39D-07 BMatP= 6.50D-06
 IDIUse=1 WtCom= 1.00D+00 WtEn= 0.00D+00
 Coeff-Com: -0.653D-03 0.295D-02 0.127D-01 0.717D-01 0.308D+00 0.606D+00
 Coeff:     -0.653D-03 0.295D-02 0.127D-01 0.717D-01 0.308D+00 0.606D+00
 Gap=     0.296 Goal=   None    Shift=    0.000
 RMSDP=4.24D-06 MaxDP=1.18D-04 DE=-3.74D-06 OVMax= 1.88D-04

 Cycle   7  Pass 1  IDiag  1:
 E= -1236.97978755074     Delta-E=       -0.000000582273 Rises=F Damp=F
 DIIS: error= 7.35D-06 at cycle   7 NSaved=   7.
 NSaved= 7 IEnMin= 7 EnMin= -1236.97978755074     IErMin= 7 ErrMin= 7.35D-06
 ErrMax= 7.35D-06  0.00D+00 EMaxC= 1.00D-01 BMatC= 3.78D-08 BMatP= 8.39D-07
 IDIUse=1 WtCom= 1.00D+00 WtEn= 0.00D+00
 Coeff-Com: -0.207D-04-0.213D-02-0.150D-02 0.116D-01 0.920D-01 0.254D+00
 Coeff-Com:  0.646D+00
 Coeff:     -0.207D-04-0.213D-02-0.150D-02 0.116D-01 0.920D-01 0.254D+00
 Coeff:      0.646D+00
 Gap=     0.296 Goal=   None    Shift=    0.000
 RMSDP=1.94D-06 MaxDP=1.18D-04 DE=-5.82D-07 OVMax= 5.04D-05

 Cycle   8  Pass 1  IDiag  1:
 E= -1236.97978757957     Delta-E=       -0.000000028831 Rises=F Damp=F
 DIIS: error= 2.67D-06 at cycle   8 NSaved=   8.
 NSaved= 8 IEnMin= 8 EnMin= -1236.97978757957     IErMin= 8 ErrMin= 2.67D-06
 ErrMax= 2.67D-06  0.00D+00 EMaxC= 1.00D-01 BMatC= 3.01D-09 BMatP= 3.78D-08
 IDIUse=1 WtCom= 1.00D+00 WtEn= 0.00D+00
 Coeff-Com:  0.224D-04-0.107D-02-0.147D-02 0.123D-02 0.231D-01 0.776D-01
 Coeff-Com:  0.298D+00 0.603D+00
 Coeff:      0.224D-04-0.107D-02-0.147D-02 0.123D-02 0.231D-01 0.776D-01
 Coeff:      0.298D+00 0.603D+00
 Gap=     0.296 Goal=   None    Shift=    0.000
 RMSDP=3.95D-07 MaxDP=2.22D-05 DE=-2.88D-08 OVMax= 1.06D-05

 Cycle   9  Pass 1  IDiag  1:
 E= -1236.97978758196     Delta-E=       -0.000000002385 Rises=F Damp=F
 DIIS: error= 7.37D-07 at cycle   9 NSaved=   9.
 NSaved= 9 IEnMin= 9 EnMin= -1236.97978758196     IErMin= 9 ErrMin= 7.37D-07
 ErrMax= 7.37D-07  0.00D+00 EMaxC= 1.00D-01 BMatC= 3.18D-10 BMatP= 3.01D-09
 IDIUse=1 WtCom= 1.00D+00 WtEn= 0.00D+00
 Coeff-Com:  0.139D-04-0.329D-03-0.618D-03-0.722D-03 0.129D-02 0.106D-01
 Coeff-Com:  0.812D-01 0.297D+00 0.611D+00
 Coeff:      0.139D-04-0.329D-03-0.618D-03-0.722D-03 0.129D-02 0.106D-01
 Coeff:      0.812D-01 0.297D+00 0.611D+00
 Gap=     0.296 Goal=   None    Shift=    0.000
 RMSDP=1.05D-07 MaxDP=5.57D-06 DE=-2.38D-09 OVMax= 3.10D-06

 Cycle  10  Pass 1  IDiag  1:
 E= -1236.97978758213     Delta-E=       -0.000000000176 Rises=F Damp=F
 DIIS: error= 3.03D-07 at cycle  10 NSaved=  10.
 NSaved=10 IEnMin=10 EnMin= -1236.97978758213     IErMin=10 ErrMin= 3.03D-07
 ErrMax= 3.03D-07  0.00D+00 EMaxC= 1.00D-01 BMatC= 5.52D-11 BMatP= 3.18D-10
 IDIUse=1 WtCom= 1.00D+00 WtEn= 0.00D+00
 Coeff-Com:  0.528D-05-0.532D-04-0.160D-03-0.556D-03-0.231D-02-0.402D-02
 Coeff-Com:  0.849D-02 0.966D-01 0.349D+00 0.553D+00
 Coeff:      0.528D-05-0.532D-04-0.160D-03-0.556D-03-0.231D-02-0.402D-02
 Coeff:      0.849D-02 0.966D-01 0.349D+00 0.553D+00
 Gap=     0.296 Goal=   None    Shift=    0.000
 RMSDP=3.27D-08 MaxDP=1.22D-06 DE=-1.76D-10 OVMax= 1.15D-06

 Cycle  11  Pass 1  IDiag  1:
 E= -1236.97978758217     Delta-E=       -0.000000000038 Rises=F Damp=F
 DIIS: error= 5.73D-08 at cycle  11 NSaved=  11.
 NSaved=11 IEnMin=11 EnMin= -1236.97978758217     IErMin=11 ErrMin= 5.73D-08
 ErrMax= 5.73D-08  0.00D+00 EMaxC= 1.00D-01 BMatC= 2.08D-12 BMatP= 5.52D-11
 IDIUse=1 WtCom= 1.00D+00 WtEn= 0.00D+00
 Coeff-Com:  0.931D-06 0.989D-05-0.203D-05-0.139D-03-0.101D-02-0.226D-02
 Coeff-Com: -0.308D-02 0.152D-01 0.860D-01 0.216D+00 0.689D+00
 Coeff:      0.931D-06 0.989D-05-0.203D-05-0.139D-03-0.101D-02-0.226D-02
 Coeff:     -0.308D-02 0.152D-01 0.860D-01 0.216D+00 0.689D+00
 Gap=     0.296 Goal=   None    Shift=    0.000
 RMSDP=1.43D-08 MaxDP=7.70D-07 DE=-3.75D-11 OVMax= 4.19D-07

 Cycle  12  Pass 1  IDiag  1:
 E= -1236.97978758217     Delta-E=       -0.000000000001 Rises=F Damp=F
 DIIS: error= 1.84D-08 at cycle  12 NSaved=  12.
 NSaved=12 IEnMin=12 EnMin= -1236.97978758217     IErMin=12 ErrMin= 1.84D-08
 ErrMax= 1.84D-08  0.00D+00 EMaxC= 1.00D-01 BMatC= 1.48D-13 BMatP= 2.08D-12
 IDIUse=1 WtCom= 1.00D+00 WtEn= 0.00D+00
 Coeff-Com:  0.133D-07 0.463D-05 0.928D-05-0.127D-04-0.182D-03-0.449D-03
 Coeff-Com: -0.156D-02-0.138D-02 0.423D-02 0.350D-01 0.261D+00 0.703D+00
 Coeff:      0.133D-07 0.463D-05 0.928D-05-0.127D-04-0.182D-03-0.449D-03
 Coeff:     -0.156D-02-0.138D-02 0.423D-02 0.350D-01 0.261D+00 0.703D+00
 Gap=     0.296 Goal=   None    Shift=    0.000
 RMSDP=2.69D-09 MaxDP=1.36D-07 DE=-1.14D-12 OVMax= 8.49D-08

 SCF Done:  E(RB3LYP) =  -1236.97978758     A.U. after   12 cycles
            NFock= 12  Conv=0.27D-08     -V/T= 2.0026
 KE= 1.233806090744D+03 PE=-3.848412622375D+03 EE= 9.209691672944D+02
 Leave Link  502 at Thu Jun 13 12:22:10 2024, MaxMem=  1073741824 cpu:       137.0
 (Enter /apps/z_install_tree/linux-rocky8-ivybridge/gcc-12.2.0/gaussian-09-D.01-wczn3gur5lpur3omlkzwa2l5ecyxp5ef/g09/l508.exe)
 QCSCF skips out because SCF is already converged.
 Leave Link  508 at Thu Jun 13 12:22:10 2024, MaxMem=  1073741824 cpu:         0.0
 (Enter /apps/z_install_tree/linux-rocky8-ivybridge/gcc-12.2.0/gaussian-09-D.01-wczn3gur5lpur3omlkzwa2l5ecyxp5ef/g09/l701.exe)
 Compute integral first derivatives.
 ... and contract with generalized density number  0.
 R6Disp: Adding Grimme-D3 dispersion energy 1st derivatives to the gradient.
 Leave Link  701 at Thu Jun 13 12:22:10 2024, MaxMem=  1073741824 cpu:         2.2
 (Enter /apps/z_install_tree/linux-rocky8-ivybridge/gcc-12.2.0/gaussian-09-D.01-wczn3gur5lpur3omlkzwa2l5ecyxp5ef/g09/l702.exe)
 L702 exits ... SP integral derivatives will be done elsewhere.
 Leave Link  702 at Thu Jun 13 12:22:11 2024, MaxMem=  1073741824 cpu:         0.2
 (Enter /apps/z_install_tree/linux-rocky8-ivybridge/gcc-12.2.0/gaussian-09-D.01-wczn3gur5lpur3omlkzwa2l5ecyxp5ef/g09/l703.exe)
 Compute integral first derivatives, UseDBF=F ICtDFT=           0.
 Integral derivatives from FoFJK, PRISM(SPDF).
 Calling FoFJK, ICntrl=      2127 FMM=F ISym2X=0 I1Cent= 0 IOpClX= 0 NMat=1 NMatS=1 NMatT=0.
 FoFJK:  IHMeth= 1 ICntrl=    2127 DoSepK=F KAlg= 0 I1Cent=   0 FoldK=F
 IRaf=         0 NMat=   1 IRICut=       1 DoRegI=T DoRafI=F ISym2E= 0.
 FoFCou: FMM=F IPFlag=           0 FMFlag=      100000 FMFlg1=         800
         NFxFlg=           0 DoJE=F BraDBF=F KetDBF=F FulRan=T
         wScrn=  0.000000 ICntrl=    2127 IOpCl=  0 I1Cent=           0 NGrid=           0
         NMat0=    1 NMatS0=      1 NMatT0=    0 NMatD0=    1 NMtDS0=    0 NMtDT0=    0
 Symmetry not used in FoFCou.
 Leave Link  703 at Thu Jun 13 12:22:13 2024, MaxMem=  1073741824 cpu:        37.3
 (Enter /apps/z_install_tree/linux-rocky8-ivybridge/gcc-12.2.0/gaussian-09-D.01-wczn3gur5lpur3omlkzwa2l5ecyxp5ef/g09/l716.exe)
 Dipole        = 2.28371480D-01 4.31344376D-01-1.93472450D-01
 -------------------------------------------------------------------
 Center     Atomic                   Forces (Hartrees/Bohr)
 Number     Number              X              Y              Z
 -------------------------------------------------------------------
      1        6           0.016919634    0.022970142   -0.022712070
      2        6          -0.034281934   -0.056558803    0.055172357
      3        6          -0.009890620   -0.013644242   -0.012756920
      4       17           0.007347314    0.023520114    0.001353169
      5        9           0.017968728    0.010635398   -0.012548959
      6        9           0.001709794    0.014268532   -0.014429573
      7       17           0.002354134    0.001102625   -0.000885264
      8        1          -0.001926966   -0.006057050   -0.003946579
      9        1          -0.004002184   -0.002015819    0.003063369
     10        1           0.001555622    0.001623693    0.003980057
     11        1           0.002246478    0.004155411    0.003710414
 -------------------------------------------------------------------
 Cartesian Forces:  Max     0.056558803 RMS     0.018225663
 Leave Link  716 at Thu Jun 13 12:22:13 2024, MaxMem=  1073741824 cpu:         0.4
 (Enter /apps/z_install_tree/linux-rocky8-ivybridge/gcc-12.2.0/gaussian-09-D.01-wczn3gur5lpur3omlkzwa2l5ecyxp5ef/g09/l103.exe)

 GradGradGradGradGradGradGradGradGradGradGradGradGradGradGradGradGradGrad
 Berny optimization.
 Using GEDIIS/GDIIS optimizer.
 FormGI is forming the generalized inverse of G from B-inverse, IUseBI=4.
 Internal  Forces:  Max     0.027273817 RMS     0.008209807
 Search for a local minimum.
 Step number   3 out of a maximum of   56
 All quantities printed in internal units (Hartrees-Bohrs-Radians)
 RMS Force = .82098D-02 SwitMx=.10000D-02 MixMth= 1
 Mixed Optimization -- RFO/linear search
 Update second derivatives using D2CorX and points    2    3
 ITU=  0  1  0
 Use linear search instead of GDIIS.
     Eigenvalues ---    0.00230   0.00524   0.03809   0.05045   0.05112
     Eigenvalues ---    0.05957   0.06579   0.07931   0.09028   0.11897
     Eigenvalues ---    0.15856   0.16002   0.16010   0.17710   0.21714
     Eigenvalues ---    0.22134   0.22361   0.24352   0.24902   0.25000
     Eigenvalues ---    0.26930   0.27356   0.33298   0.33962   0.34069
     Eigenvalues ---    0.34080   0.34447
 RFO step:  Lambda=-1.59304751D-02 EMin= 2.30005088D-03
 Quartic linear search produced a step of  0.06184.
 Iteration  1 RMS(Cart)=  0.03757258 RMS(Int)=  0.00213024
 Iteration  2 RMS(Cart)=  0.00253170 RMS(Int)=  0.00074721
 Iteration  3 RMS(Cart)=  0.00000635 RMS(Int)=  0.00074719
 Iteration  4 RMS(Cart)=  0.00000001 RMS(Int)=  0.00074719
 ITry= 1 IFail=0 DXMaxC= 8.77D-02 DCOld= 1.00D+10 DXMaxT= 5.05D-01 DXLimC= 3.00D+00 Rises=F
 Variable       Old X    -DE/DX   Delta X   Delta X   Delta X     New X
                                 (Linear)    (Quad)   (Total)
    R1        2.76266   0.02727  -0.00439   0.08575   0.08136   2.84402
    R2        2.90462  -0.00265  -0.00127  -0.00986  -0.01113   2.89350
    R3        2.05988  -0.00049  -0.00050  -0.00167  -0.00216   2.05771
    R4        2.04314   0.00227  -0.00129   0.00585   0.00457   2.04771
    R5        3.23765   0.02373  -0.00955   0.09556   0.08601   3.32366
    R6        2.69001  -0.02256  -0.02389  -0.12458  -0.14847   2.54154
    R7        2.65434  -0.01657  -0.02318  -0.08621  -0.10939   2.54495
    R8        3.45102   0.00050  -0.00285   0.00150  -0.00135   3.44967
    R9        2.04248   0.00208  -0.00122   0.00533   0.00410   2.04658
   R10        2.03330   0.00431  -0.00159   0.01157   0.00998   2.04328
    A1        1.93854   0.00707  -0.00316   0.03674   0.03260   1.97114
    A2        1.83747   0.00214  -0.00079   0.04321   0.04099   1.87846
    A3        1.92776  -0.00661  -0.00137  -0.05564  -0.05657   1.87119
    A4        1.88412  -0.00091   0.00597   0.01729   0.02126   1.90537
    A5        1.92299  -0.00003   0.00203  -0.00535  -0.00294   1.92005
    A6        1.95122  -0.00135  -0.00256  -0.03241  -0.03451   1.91670
    A7        2.10435  -0.01429   0.00509  -0.07473  -0.07140   2.03295
    A8        1.88309  -0.00135  -0.00045   0.00766   0.00659   1.88968
    A9        1.92967  -0.00449  -0.00134  -0.01262  -0.01555   1.91413
   A10        1.87805   0.00546  -0.00228   0.00734   0.00424   1.88230
   A11        1.88267   0.00735  -0.00207   0.00633   0.00186   1.88453
   A12        1.75289   0.01240   0.00025   0.09899   0.09897   1.85187
   A13        1.86510   0.00813  -0.00439   0.04351   0.03910   1.90420
   A14        1.97292  -0.00238   0.00244  -0.01881  -0.01696   1.95595
   A15        1.96920  -0.00159  -0.00121  -0.01398  -0.01585   1.95335
   A16        1.83748  -0.00081   0.00249   0.01518   0.01773   1.85521
   A17        1.83935  -0.00137   0.00284   0.01273   0.01550   1.85486
   A18        1.96621  -0.00116  -0.00204  -0.02859  -0.03170   1.93452
    D1        0.88108   0.00114   0.00229   0.04600   0.04919   0.93027
    D2        3.04607  -0.00372   0.00263   0.00450   0.00778   3.05384
    D3       -1.33599   0.00795   0.00204   0.11795   0.11999  -1.21600
    D4       -1.15386  -0.00253  -0.00280  -0.01727  -0.02023  -1.17409
    D5        1.01113  -0.00739  -0.00246  -0.05877  -0.06164   0.94948
    D6        2.91225   0.00428  -0.00305   0.05469   0.05057   2.96282
    D7        3.02021   0.00138   0.00162   0.02578   0.02782   3.04803
    D8       -1.09799  -0.00349   0.00196  -0.01572  -0.01359  -1.11158
    D9        0.80314   0.00819   0.00138   0.09774   0.09862   0.90176
   D10        3.07635  -0.00288  -0.00040  -0.03526  -0.03591   3.04044
   D11        1.06311  -0.00561  -0.00217  -0.07029  -0.07239   0.99072
   D12       -1.19332  -0.00043  -0.00042  -0.00083  -0.00170  -1.19502
   D13       -1.20074   0.00296   0.00058   0.04618   0.04693  -1.15381
   D14        3.06921   0.00023  -0.00119   0.01115   0.01045   3.07965
   D15        0.81278   0.00541   0.00056   0.08062   0.08113   0.89392
   D16        0.93446   0.00071   0.00207   0.01406   0.01611   0.95057
   D17       -1.07878  -0.00202   0.00031  -0.02096  -0.02037  -1.09915
   D18        2.94798   0.00315   0.00206   0.04850   0.05032   2.99830
         Item               Value     Threshold  Converged?
 Maximum Force            0.027274     0.000450     NO 
 RMS     Force            0.008210     0.000300     NO 
 Maximum Displacement     0.087663     0.001800     NO 
 RMS     Displacement     0.036949     0.001200     NO 
 Predicted change in Energy=-9.758202D-03
 Lowest energy point so far.  Saving SCF results.
 GradGradGradGradGradGradGradGradGradGradGradGradGradGradGradGradGradGrad

 Leave Link  103 at Thu Jun 13 12:22:13 2024, MaxMem=  1073741824 cpu:         4.6
 (Enter /apps/z_install_tree/linux-rocky8-ivybridge/gcc-12.2.0/gaussian-09-D.01-wczn3gur5lpur3omlkzwa2l5ecyxp5ef/g09/l202.exe)
                          Input orientation:                          
 ---------------------------------------------------------------------
 Center     Atomic      Atomic             Coordinates (Angstroms)
 Number     Number       Type             X           Y           Z
 ---------------------------------------------------------------------
      1          6           0       50.130899   35.339933   31.940445
      2          6           0       50.055337   35.613555   33.418421
      3          6           0       51.499574   35.674201   31.340876
      4         17           0       50.517732   37.227772   33.941765
      5          9           0       48.791655   35.395043   33.823622
      6          9           0       50.819582   34.726194   34.083400
      7         17           0       51.531975   35.144947   29.594097
      8          1           0       49.369281   35.946873   31.453359
      9          1           0       49.910064   34.288780   31.797264
     10          1           0       52.301712   35.140179   31.835132
     11          1           0       51.690188   36.738523   31.338619
 ---------------------------------------------------------------------
                    Distance matrix (angstroms):
                    1          2          3          4          5
     1  C    0.000000
     2  C    1.504988   0.000000
     3  C    1.531172   2.530946   0.000000
     4  Cl   2.778283   1.758805   3.184685   0.000000
     5  F    2.311486   1.344926   3.684397   2.520356   0.000000
     6  F    2.333070   1.346728   2.980360   2.523701   2.151123
     7  Cl   2.739778   4.126198   1.825486   4.926365   5.045868
     8  H    1.088895   2.107900   2.150616   3.025195   2.501262
     9  H    1.083601   2.098637   2.157364   3.688606   2.565304
    10  H    2.182527   2.788743   1.083003   3.461002   4.042221
    11  H    2.179365   2.874695   1.081259   2.896617   4.047428
                    6          7          8          9         10
     6  F    0.000000
     7  Cl   4.564724   0.000000
     8  H    3.241997   2.962632   0.000000
     9  H    2.498994   2.866629   1.777636   0.000000
    10  H    2.724482   2.369548   3.065234   2.538955   0.000000
    11  H    3.513012   2.368095   2.454890   3.062750   1.781907
                   11
    11  H    0.000000
 Symmetry turned off by external request.
 Stoichiometry    C3H4Cl2F2
 Framework group  C1[X(C3H4Cl2F2)]
 Deg. of freedom    27
 Full point group                 C1      NOp   1
 Rotational constants (GHZ):      3.2479140      0.8298574      0.7603356
 Leave Link  202 at Thu Jun 13 12:22:13 2024, MaxMem=  1073741824 cpu:         1.0
 (Enter /apps/z_install_tree/linux-rocky8-ivybridge/gcc-12.2.0/gaussian-09-D.01-wczn3gur5lpur3omlkzwa2l5ecyxp5ef/g09/l301.exe)
 Basis read from rwf:  (5D, 7F)
 No pseudopotential information found on rwf file.
   241 basis functions,   372 primitive gaussians,   255 cartesian basis functions
    37 alpha electrons       37 beta electrons
       nuclear repulsion energy       457.1019422111 Hartrees.
 IExCor=  402 DFT=T Ex+Corr=B3LYP ExCW=0 ScaHFX=  0.200000
 ScaDFX=  0.800000  0.720000  1.000000  0.810000 ScalE2=  1.000000  1.000000
 IRadAn=      5 IRanWt=     -1 IRanGd=            0 ICorTp=0 IEmpDi=131
 NAtoms=   11 NActive=   11 NUniq=   11 SFac= 1.00D+00 NAtFMM=   60 NAOKFM=F Big=F
 Integral buffers will be    131072 words long.
 Raffenetti 2 integral format.
 Two-electron integral symmetry is turned off.
 R6Disp:  Grimme-D3 Dispersion energy=       -0.0097321202 Hartrees.
 Nuclear repulsion after empirical dispersion term =      457.0922100909 Hartrees.
 No density basis found on file   724.
 Leave Link  301 at Thu Jun 13 12:22:14 2024, MaxMem=  1073741824 cpu:         2.1
 (Enter /apps/z_install_tree/linux-rocky8-ivybridge/gcc-12.2.0/gaussian-09-D.01-wczn3gur5lpur3omlkzwa2l5ecyxp5ef/g09/l302.exe)
 NPDir=0 NMtPBC=     1 NCelOv=     1 NCel=       1 NClECP=     1 NCelD=      1
         NCelK=      1 NCelE2=     1 NClLst=     1 CellRange=     0.0.
 One-electron integrals computed using PRISM.
 NBasis=   241 RedAO= T EigKep=  2.47D-05  NBF=   241
 NBsUse=   241 1.00D-06 EigRej= -1.00D+00 NBFU=   241
 Precomputing XC quadrature grid using
 IXCGrd= 4 IRadAn=           5 IRanWt=          -1 IRanGd=           0 AccXCQ= 0.00D+00.
 Generated NRdTot=       0 NPtTot=           0 NUsed=           0 NTot=          32
 NSgBfM=   255   255   255   255   255 MxSgAt=    11 MxSgA2=    11.
 Leave Link  302 at Thu Jun 13 12:22:14 2024, MaxMem=  1073741824 cpu:         3.8
 (Enter /apps/z_install_tree/linux-rocky8-ivybridge/gcc-12.2.0/gaussian-09-D.01-wczn3gur5lpur3omlkzwa2l5ecyxp5ef/g09/l303.exe)
 DipDrv:  MaxL=1.
 Leave Link  303 at Thu Jun 13 12:22:14 2024, MaxMem=  1073741824 cpu:         0.5
 (Enter /apps/z_install_tree/linux-rocky8-ivybridge/gcc-12.2.0/gaussian-09-D.01-wczn3gur5lpur3omlkzwa2l5ecyxp5ef/g09/l401.exe)
 Initial guess from the checkpoint file:  "dichlorodifluoropropane.chk"
 B after Tr=     0.876674   -1.381630    0.210716
         Rot=    0.999978    0.001315   -0.000211   -0.006491 Ang=   0.76 deg.
 Guess basis will be translated and rotated to current coordinates.
 JPrj=2 DoOrth=T DoCkMO=T.
 Generating alternative initial guess.
 ExpMin= 4.38D-02 ExpMax= 1.06D+05 ExpMxC= 3.62D+03 IAcc=2 IRadAn=         4 AccDes= 0.00D+00
 Harris functional with IExCor=  402 and IRadAn=       4 diagonalized for initial guess.
 HarFok:  IExCor=  402 AccDes= 0.00D+00 IRadAn=         4 IDoV= 1 UseB2=F ITyADJ=14
 ICtDFT=  3500011 ScaDFX=  1.000000  1.000000  1.000000  1.000000
 FoFCou: FMM=F IPFlag=           0 FMFlag=      100000 FMFlg1=           0
         NFxFlg=           0 DoJE=T BraDBF=F KetDBF=T FulRan=T
         wScrn=  0.000000 ICntrl=     500 IOpCl=  0 I1Cent=   200000004 NGrid=           0
         NMat0=    1 NMatS0=      1 NMatT0=    0 NMatD0=    1 NMtDS0=    0 NMtDT0=    0
 Symmetry not used in FoFCou.
 Harris En= -1236.85218250429    
 Leave Link  401 at Thu Jun 13 12:22:15 2024, MaxMem=  1073741824 cpu:         6.9
 (Enter /apps/z_install_tree/linux-rocky8-ivybridge/gcc-12.2.0/gaussian-09-D.01-wczn3gur5lpur3omlkzwa2l5ecyxp5ef/g09/l502.exe)
 Closed shell SCF:
 Using DIIS extrapolation, IDIIS=  1040.
 Two-electron integral symmetry not used.
 Keep R1 ints in memory in canonical form, NReq=433797970.
 IVT=      212949 IEndB=      212949 NGot=  1073741824 MDV=   648332335
 LenX=   648332335 LenY=   648266869
 Requested convergence on RMS density matrix=1.00D-08 within  96 cycles.
 Requested convergence on MAX density matrix=1.00D-06.
 Requested convergence on             energy=1.00D-06.
 No special actions if energy rises.
 FoFCou: FMM=F IPFlag=           0 FMFlag=           0 FMFlg1=           0
         NFxFlg=           0 DoJE=F BraDBF=F KetDBF=F FulRan=T
         wScrn=  0.000000 ICntrl=     600 IOpCl=  0 I1Cent=           0 NGrid=           0
         NMat0=    1 NMatS0=  29161 NMatT0=    0 NMatD0=    1 NMtDS0=    0 NMtDT0=    0
 Symmetry not used in FoFCou.

 Cycle   1  Pass 1  IDiag  1:
 E= -1236.97887210995    
 DIIS: error= 3.03D-03 at cycle   1 NSaved=   1.
 NSaved= 1 IEnMin= 1 EnMin= -1236.97887210995     IErMin= 1 ErrMin= 3.03D-03
 ErrMax= 3.03D-03  0.00D+00 EMaxC= 1.00D-01 BMatC= 8.93D-03 BMatP= 8.93D-03
 IDIUse=3 WtCom= 9.70D-01 WtEn= 3.03D-02
 Coeff-Com:  0.100D+01
 Coeff-En:   0.100D+01
 Coeff:      0.100D+01
 Gap=     0.545 Goal=   None    Shift=    0.000
 GapD=    0.545 DampG=2.000 DampE=1.000 DampFc=2.0000 IDamp=-1.
 RMSDP=1.11D-03 MaxDP=5.11D-02              OVMax= 2.41D-02

 Cycle   2  Pass 1  IDiag  1:
 E= -1236.98859756250     Delta-E=       -0.009725452549 Rises=F Damp=F
 DIIS: error= 1.30D-03 at cycle   2 NSaved=   2.
 NSaved= 2 IEnMin= 2 EnMin= -1236.98859756250     IErMin= 2 ErrMin= 1.30D-03
 ErrMax= 1.30D-03  0.00D+00 EMaxC= 1.00D-01 BMatC= 8.89D-04 BMatP= 8.93D-03
 IDIUse=3 WtCom= 9.87D-01 WtEn= 1.30D-02
 Coeff-Com:  0.110D+00 0.890D+00
 Coeff-En:   0.000D+00 0.100D+01
 Coeff:      0.109D+00 0.891D+00
 Gap=     0.297 Goal=   None    Shift=    0.000
 RMSDP=1.75D-04 MaxDP=6.35D-03 DE=-9.73D-03 OVMax= 9.22D-03

 Cycle   3  Pass 1  IDiag  1:
 E= -1236.98837530141     Delta-E=        0.000222261090 Rises=F Damp=F
 DIIS: error= 1.53D-03 at cycle   3 NSaved=   3.
 NSaved= 3 IEnMin= 2 EnMin= -1236.98859756250     IErMin= 2 ErrMin= 1.30D-03
 ErrMax= 1.53D-03  0.00D+00 EMaxC= 1.00D-01 BMatC= 1.25D-03 BMatP= 8.89D-04
 IDIUse=3 WtCom= 2.03D-01 WtEn= 7.97D-01
 Coeff-Com: -0.118D-01 0.548D+00 0.464D+00
 Coeff-En:   0.000D+00 0.575D+00 0.425D+00
 Coeff:     -0.241D-02 0.569D+00 0.433D+00
 Gap=     0.298 Goal=   None    Shift=    0.000
 RMSDP=9.94D-05 MaxDP=3.47D-03 DE= 2.22D-04 OVMax= 5.94D-03

 Cycle   4  Pass 1  IDiag  1:
 E= -1236.98915580795     Delta-E=       -0.000780506542 Rises=F Damp=F
 DIIS: error= 1.55D-04 at cycle   4 NSaved=   4.
 NSaved= 4 IEnMin= 4 EnMin= -1236.98915580795     IErMin= 4 ErrMin= 1.55D-04
 ErrMax= 1.55D-04  0.00D+00 EMaxC= 1.00D-01 BMatC= 8.45D-06 BMatP= 8.89D-04
 IDIUse=3 WtCom= 9.98D-01 WtEn= 1.55D-03
 Coeff-Com: -0.105D-01 0.149D+00 0.136D+00 0.726D+00
 Coeff-En:   0.000D+00 0.000D+00 0.000D+00 0.100D+01
 Coeff:     -0.105D-01 0.149D+00 0.135D+00 0.726D+00
 Gap=     0.298 Goal=   None    Shift=    0.000
 RMSDP=2.78D-05 MaxDP=1.57D-03 DE=-7.81D-04 OVMax= 5.90D-04

 Cycle   5  Pass 1  IDiag  1:
 E= -1236.98916108483     Delta-E=       -0.000005276877 Rises=F Damp=F
 DIIS: error= 4.57D-05 at cycle   5 NSaved=   5.
 NSaved= 5 IEnMin= 5 EnMin= -1236.98916108483     IErMin= 5 ErrMin= 4.57D-05
 ErrMax= 4.57D-05  0.00D+00 EMaxC= 1.00D-01 BMatC= 9.69D-07 BMatP= 8.45D-06
 IDIUse=1 WtCom= 1.00D+00 WtEn= 0.00D+00
 Coeff-Com: -0.332D-02 0.367D-01 0.361D-01 0.299D+00 0.631D+00
 Coeff:     -0.332D-02 0.367D-01 0.361D-01 0.299D+00 0.631D+00
 Gap=     0.298 Goal=   None    Shift=    0.000
 RMSDP=8.16D-06 MaxDP=3.76D-04 DE=-5.28D-06 OVMax= 2.96D-04

 Cycle   6  Pass 1  IDiag  1:
 E= -1236.98916181798     Delta-E=       -0.000000733149 Rises=F Damp=F
 DIIS: error= 1.76D-05 at cycle   6 NSaved=   6.
 NSaved= 6 IEnMin= 6 EnMin= -1236.98916181798     IErMin= 6 ErrMin= 1.76D-05
 ErrMax= 1.76D-05  0.00D+00 EMaxC= 1.00D-01 BMatC= 1.54D-07 BMatP= 9.69D-07
 IDIUse=1 WtCom= 1.00D+00 WtEn= 0.00D+00
 Coeff-Com: -0.446D-03 0.979D-03 0.249D-02 0.611D-01 0.316D+00 0.620D+00
 Coeff:     -0.446D-03 0.979D-03 0.249D-02 0.611D-01 0.316D+00 0.620D+00
 Gap=     0.298 Goal=   None    Shift=    0.000
 RMSDP=2.67D-06 MaxDP=1.26D-04 DE=-7.33D-07 OVMax= 1.10D-04

 Cycle   7  Pass 1  IDiag  1:
 E= -1236.98916194574     Delta-E=       -0.000000127758 Rises=F Damp=F
 DIIS: error= 4.40D-06 at cycle   7 NSaved=   7.
 NSaved= 7 IEnMin= 7 EnMin= -1236.98916194574     IErMin= 7 ErrMin= 4.40D-06
 ErrMax= 4.40D-06  0.00D+00 EMaxC= 1.00D-01 BMatC= 1.35D-08 BMatP= 1.54D-07
 IDIUse=1 WtCom= 1.00D+00 WtEn= 0.00D+00
 Coeff-Com:  0.349D-04-0.278D-02-0.197D-02 0.517D-02 0.103D+00 0.309D+00
 Coeff-Com:  0.587D+00
 Coeff:      0.349D-04-0.278D-02-0.197D-02 0.517D-02 0.103D+00 0.309D+00
 Coeff:      0.587D+00
 Gap=     0.298 Goal=   None    Shift=    0.000
 RMSDP=6.73D-07 MaxDP=2.58D-05 DE=-1.28D-07 OVMax= 2.27D-05

 Cycle   8  Pass 1  IDiag  1:
 E= -1236.98916195672     Delta-E=       -0.000000010983 Rises=F Damp=F
 DIIS: error= 1.35D-06 at cycle   8 NSaved=   8.
 NSaved= 8 IEnMin= 8 EnMin= -1236.98916195672     IErMin= 8 ErrMin= 1.35D-06
 ErrMax= 1.35D-06  0.00D+00 EMaxC= 1.00D-01 BMatC= 8.52D-10 BMatP= 1.35D-08
 IDIUse=1 WtCom= 1.00D+00 WtEn= 0.00D+00
 Coeff-Com:  0.447D-04-0.146D-02-0.119D-02-0.788D-03 0.330D-01 0.118D+00
 Coeff-Com:  0.293D+00 0.560D+00
 Coeff:      0.447D-04-0.146D-02-0.119D-02-0.788D-03 0.330D-01 0.118D+00
 Coeff:      0.293D+00 0.560D+00
 Gap=     0.298 Goal=   None    Shift=    0.000
 RMSDP=1.63D-07 MaxDP=7.65D-06 DE=-1.10D-08 OVMax= 4.31D-06

 Cycle   9  Pass 1  IDiag  1:
 E= -1236.98916195737     Delta-E=       -0.000000000646 Rises=F Damp=F
 DIIS: error= 2.68D-07 at cycle   9 NSaved=   9.
 NSaved= 9 IEnMin= 9 EnMin= -1236.98916195737     IErMin= 9 ErrMin= 2.68D-07
 ErrMax= 2.68D-07  0.00D+00 EMaxC= 1.00D-01 BMatC= 3.98D-11 BMatP= 8.52D-10
 IDIUse=1 WtCom= 1.00D+00 WtEn= 0.00D+00
 Coeff-Com:  0.121D-04-0.292D-03-0.295D-03-0.714D-03 0.302D-02 0.171D-01
 Coeff-Com:  0.624D-01 0.211D+00 0.707D+00
 Coeff:      0.121D-04-0.292D-03-0.295D-03-0.714D-03 0.302D-02 0.171D-01
 Coeff:      0.624D-01 0.211D+00 0.707D+00
 Gap=     0.298 Goal=   None    Shift=    0.000
 RMSDP=3.76D-08 MaxDP=1.31D-06 DE=-6.46D-10 OVMax= 1.27D-06

 Cycle  10  Pass 1  IDiag  1:
 E= -1236.98916195739     Delta-E=       -0.000000000021 Rises=F Damp=F
 DIIS: error= 1.11D-07 at cycle  10 NSaved=  10.
 NSaved=10 IEnMin=10 EnMin= -1236.98916195739     IErMin=10 ErrMin= 1.11D-07
 ErrMax= 1.11D-07  0.00D+00 EMaxC= 1.00D-01 BMatC= 1.04D-11 BMatP= 3.98D-11
 IDIUse=1 WtCom= 1.00D+00 WtEn= 0.00D+00
 Coeff-Com:  0.320D-05-0.299D-04-0.533D-04-0.259D-03-0.117D-02-0.102D-02
 Coeff-Com:  0.697D-02 0.595D-01 0.395D+00 0.541D+00
 Coeff:      0.320D-05-0.299D-04-0.533D-04-0.259D-03-0.117D-02-0.102D-02
 Coeff:      0.697D-02 0.595D-01 0.395D+00 0.541D+00
 Gap=     0.298 Goal=   None    Shift=    0.000
 RMSDP=1.65D-08 MaxDP=8.09D-07 DE=-2.09D-11 OVMax= 6.00D-07

 Cycle  11  Pass 1  IDiag  1:
 E= -1236.98916195738     Delta-E=        0.000000000011 Rises=F Damp=F
 DIIS: error= 2.33D-08 at cycle  11 NSaved=  11.
 NSaved=11 IEnMin=10 EnMin= -1236.98916195739     IErMin=11 ErrMin= 2.33D-08
 ErrMax= 2.33D-08  0.00D+00 EMaxC= 1.00D-01 BMatC= 3.82D-13 BMatP= 1.04D-11
 IDIUse=1 WtCom= 1.00D+00 WtEn= 0.00D+00
 Coeff-Com:  0.396D-06 0.950D-05 0.365D-05-0.567D-04-0.723D-03-0.168D-02
 Coeff-Com: -0.222D-02 0.617D-02 0.101D+00 0.212D+00 0.686D+00
 Coeff:      0.396D-06 0.950D-05 0.365D-05-0.567D-04-0.723D-03-0.168D-02
 Coeff:     -0.222D-02 0.617D-02 0.101D+00 0.212D+00 0.686D+00
 Gap=     0.298 Goal=   None    Shift=    0.000
 RMSDP=9.33D-09 MaxDP=5.18D-07 DE= 1.09D-11 OVMax= 1.60D-07

 SCF Done:  E(RB3LYP) =  -1236.98916196     A.U. after   11 cycles
            NFock= 11  Conv=0.93D-08     -V/T= 2.0025
 KE= 1.233884024012D+03 PE=-3.849226091187D+03 EE= 9.212606951267D+02
 Leave Link  502 at Thu Jun 13 12:22:27 2024, MaxMem=  1073741824 cpu:       120.0
 (Enter /apps/z_install_tree/linux-rocky8-ivybridge/gcc-12.2.0/gaussian-09-D.01-wczn3gur5lpur3omlkzwa2l5ecyxp5ef/g09/l508.exe)
 QCSCF skips out because SCF is already converged.
 Leave Link  508 at Thu Jun 13 12:22:28 2024, MaxMem=  1073741824 cpu:         0.0
 (Enter /apps/z_install_tree/linux-rocky8-ivybridge/gcc-12.2.0/gaussian-09-D.01-wczn3gur5lpur3omlkzwa2l5ecyxp5ef/g09/l701.exe)
 Compute integral first derivatives.
 ... and contract with generalized density number  0.
 R6Disp: Adding Grimme-D3 dispersion energy 1st derivatives to the gradient.
 Leave Link  701 at Thu Jun 13 12:22:28 2024, MaxMem=  1073741824 cpu:         3.7
 (Enter /apps/z_install_tree/linux-rocky8-ivybridge/gcc-12.2.0/gaussian-09-D.01-wczn3gur5lpur3omlkzwa2l5ecyxp5ef/g09/l702.exe)
 L702 exits ... SP integral derivatives will be done elsewhere.
 Leave Link  702 at Thu Jun 13 12:22:28 2024, MaxMem=  1073741824 cpu:         0.2
 (Enter /apps/z_install_tree/linux-rocky8-ivybridge/gcc-12.2.0/gaussian-09-D.01-wczn3gur5lpur3omlkzwa2l5ecyxp5ef/g09/l703.exe)
 Compute integral first derivatives, UseDBF=F ICtDFT=           0.
 Integral derivatives from FoFJK, PRISM(SPDF).
 Calling FoFJK, ICntrl=      2127 FMM=F ISym2X=0 I1Cent= 0 IOpClX= 0 NMat=1 NMatS=1 NMatT=0.
 FoFJK:  IHMeth= 1 ICntrl=    2127 DoSepK=F KAlg= 0 I1Cent=   0 FoldK=F
 IRaf=         0 NMat=   1 IRICut=       1 DoRegI=T DoRafI=F ISym2E= 0.
 FoFCou: FMM=F IPFlag=           0 FMFlag=      100000 FMFlg1=         800
         NFxFlg=           0 DoJE=F BraDBF=F KetDBF=F FulRan=T
         wScrn=  0.000000 ICntrl=    2127 IOpCl=  0 I1Cent=           0 NGrid=           0
         NMat0=    1 NMatS0=      1 NMatT0=    0 NMatD0=    1 NMtDS0=    0 NMtDT0=    0
 Symmetry not used in FoFCou.
 Leave Link  703 at Thu Jun 13 12:22:30 2024, MaxMem=  1073741824 cpu:        37.2
 (Enter /apps/z_install_tree/linux-rocky8-ivybridge/gcc-12.2.0/gaussian-09-D.01-wczn3gur5lpur3omlkzwa2l5ecyxp5ef/g09/l716.exe)
 Dipole        = 6.31082524D-02 2.03459283D-01-6.20383556D-02
 -------------------------------------------------------------------
 Center     Atomic                   Forces (Hartrees/Bohr)
 Number     Number              X              Y              Z
 -------------------------------------------------------------------
      1        6           0.009865782    0.014233032   -0.010092776
      2        6          -0.005484096   -0.014854739   -0.003542026
      3        6          -0.006016206   -0.005762114   -0.003750119
      4       17           0.004828123    0.015694513    0.001212113
      5        9          -0.011989572   -0.000672537    0.004356435
      6        9           0.009456783   -0.006375250    0.006222015
      7       17           0.000343244    0.001201716    0.002753103
      8        1          -0.000922299   -0.002612008   -0.000331897
      9        1          -0.002525244   -0.002422361    0.001006923
     10        1           0.001182758    0.000351454    0.001072231
     11        1           0.001260728    0.001218295    0.001093997
 -------------------------------------------------------------------
 Cartesian Forces:  Max     0.015694513 RMS     0.006487083
 Leave Link  716 at Thu Jun 13 12:22:30 2024, MaxMem=  1073741824 cpu:         0.3
 (Enter /apps/z_install_tree/linux-rocky8-ivybridge/gcc-12.2.0/gaussian-09-D.01-wczn3gur5lpur3omlkzwa2l5ecyxp5ef/g09/l103.exe)

 GradGradGradGradGradGradGradGradGradGradGradGradGradGradGradGradGradGrad
 Berny optimization.
 Using GEDIIS/GDIIS optimizer.
 FormGI is forming the generalized inverse of G from B-inverse, IUseBI=4.
 Internal  Forces:  Max     0.016034101 RMS     0.004287213
 Search for a local minimum.
 Step number   4 out of a maximum of   56
 All quantities printed in internal units (Hartrees-Bohrs-Radians)
 RMS Force = .42872D-02 SwitMx=.10000D-02 MixMth= 1
 Mixed Optimization -- RFO/linear search
 Update second derivatives using D2CorX and points    3    4
 DE= -9.37D-03 DEPred=-9.76D-03 R= 9.61D-01
 TightC=F SS=  1.41D+00  RLast= 3.57D-01 DXNew= 8.4853D-01 1.0720D+00
 Trust test= 9.61D-01 RLast= 3.57D-01 DXMaxT set to 8.49D-01
 ITU=  1  0  1  0
 Use linear search instead of GDIIS.
     Eigenvalues ---    0.00230   0.00524   0.03603   0.04868   0.05342
     Eigenvalues ---    0.05704   0.07553   0.08050   0.08852   0.12152
     Eigenvalues ---    0.15998   0.16003   0.17247   0.19255   0.21876
     Eigenvalues ---    0.22139   0.22282   0.24592   0.24949   0.25090
     Eigenvalues ---    0.27199   0.29065   0.30821   0.33910   0.34050
     Eigenvalues ---    0.34076   0.34125
 RFO step:  Lambda=-4.21731701D-03 EMin= 2.29989978D-03
 Quartic linear search produced a step of  0.06837.
 Iteration  1 RMS(Cart)=  0.04189497 RMS(Int)=  0.00119156
 Iteration  2 RMS(Cart)=  0.00122832 RMS(Int)=  0.00026680
 Iteration  3 RMS(Cart)=  0.00000091 RMS(Int)=  0.00026680
 ITry= 1 IFail=0 DXMaxC= 1.27D-01 DCOld= 1.00D+10 DXMaxT= 8.49D-01 DXLimC= 3.00D+00 Rises=F
 Variable       Old X    -DE/DX   Delta X   Delta X   Delta X     New X
                                 (Linear)    (Quad)   (Total)
    R1        2.84402   0.00713   0.00556   0.02757   0.03313   2.87714
    R2        2.89350  -0.00400  -0.00076  -0.01629  -0.01705   2.87644
    R3        2.05771  -0.00066  -0.00015  -0.00216  -0.00231   2.05540
    R4        2.04771   0.00273   0.00031   0.00886   0.00917   2.05688
    R5        3.32366   0.01603   0.00588   0.06983   0.07571   3.39937
    R6        2.54154   0.01269  -0.01015   0.04667   0.03652   2.57807
    R7        2.54495   0.01264  -0.00748   0.04474   0.03726   2.58221
    R8        3.44967  -0.00298  -0.00009  -0.01509  -0.01518   3.43449
    R9        2.04658   0.00119   0.00028   0.00406   0.00434   2.05092
   R10        2.04328   0.00142   0.00068   0.00514   0.00582   2.04910
    A1        1.97114   0.00053   0.00223   0.00673   0.00847   1.97961
    A2        1.87846   0.00037   0.00280   0.01335   0.01538   1.89384
    A3        1.87119  -0.00172  -0.00387  -0.03131  -0.03511   1.83608
    A4        1.90537   0.00103   0.00145   0.02950   0.03034   1.93572
    A5        1.92005   0.00064  -0.00020   0.00055   0.00040   1.92045
    A6        1.91670  -0.00094  -0.00236  -0.02053  -0.02276   1.89394
    A7        2.03295  -0.01009  -0.00488  -0.05118  -0.05642   1.97654
    A8        1.88968   0.00366   0.00045   0.02124   0.02142   1.91111
    A9        1.91413   0.00228  -0.00106   0.00969   0.00794   1.92207
   A10        1.88230   0.00208   0.00029   0.00458   0.00491   1.88721
   A11        1.88453   0.00223   0.00013  -0.00123  -0.00182   1.88271
   A12        1.85187   0.00070   0.00677   0.02346   0.02963   1.88150
   A13        1.90420   0.00143   0.00267   0.01111   0.01375   1.91796
   A14        1.95595  -0.00008  -0.00116  -0.00218  -0.00347   1.95248
   A15        1.95335   0.00020  -0.00108  -0.00254  -0.00375   1.94960
   A16        1.85521  -0.00017   0.00121   0.00723   0.00840   1.86361
   A17        1.85486  -0.00035   0.00106   0.00417   0.00521   1.86007
   A18        1.93452  -0.00100  -0.00217  -0.01628  -0.01864   1.91588
    D1        0.93027   0.00071   0.00336   0.06623   0.06986   1.00013
    D2        3.05384  -0.00069   0.00053   0.05343   0.05386   3.10770
    D3       -1.21600   0.00339   0.00820   0.09823   0.10648  -1.10952
    D4       -1.17409  -0.00116  -0.00138   0.01613   0.01485  -1.15924
    D5        0.94948  -0.00255  -0.00421   0.00333  -0.00115   0.94833
    D6        2.96282   0.00152   0.00346   0.04813   0.05148   3.01430
    D7        3.04803   0.00065   0.00190   0.04967   0.05179   3.09982
    D8       -1.11158  -0.00074  -0.00093   0.03687   0.03579  -1.07580
    D9        0.90176   0.00333   0.00674   0.08167   0.08841   0.99017
   D10        3.04044  -0.00081  -0.00246  -0.00189  -0.00452   3.03592
   D11        0.99072  -0.00145  -0.00495  -0.01659  -0.02167   0.96904
   D12       -1.19502  -0.00022  -0.00012   0.00875   0.00842  -1.18660
   D13       -1.15381   0.00071   0.00321   0.03948   0.04287  -1.11094
   D14        3.07965   0.00006   0.00071   0.02478   0.02571   3.10537
   D15        0.89392   0.00129   0.00555   0.05012   0.05581   0.94972
   D16        0.95057   0.00059   0.00110   0.03308   0.03418   0.98476
   D17       -1.09915  -0.00005  -0.00139   0.01839   0.01703  -1.08212
   D18        2.99830   0.00118   0.00344   0.04373   0.04712   3.04542
         Item               Value     Threshold  Converged?
 Maximum Force            0.016034     0.000450     NO 
 RMS     Force            0.004287     0.000300     NO 
 Maximum Displacement     0.126597     0.001800     NO 
 RMS     Displacement     0.042081     0.001200     NO 
 Predicted change in Energy=-2.326998D-03
 Lowest energy point so far.  Saving SCF results.
 GradGradGradGradGradGradGradGradGradGradGradGradGradGradGradGradGradGrad

 Leave Link  103 at Thu Jun 13 12:22:31 2024, MaxMem=  1073741824 cpu:         6.3
 (Enter /apps/z_install_tree/linux-rocky8-ivybridge/gcc-12.2.0/gaussian-09-D.01-wczn3gur5lpur3omlkzwa2l5ecyxp5ef/g09/l202.exe)
                          Input orientation:                          
 ---------------------------------------------------------------------
 Center     Atomic      Atomic             Coordinates (Angstroms)
 Number     Number       Type             X           Y           Z
 ---------------------------------------------------------------------
      1          6           0       50.127414   35.359778   31.925554
      2          6           0       50.046594   35.597944   33.427155
      3          6           0       51.500024   35.657277   31.338725
      4         17           0       50.482195   37.276812   33.904221
      5          9           0       48.776862   35.349572   33.859914
      6          9           0       50.886574   34.743880   34.084558
      7         17           0       51.541721   35.173809   29.587253
      8          1           0       49.359585   35.957335   31.439350
      9          1           0       49.884011   34.307588   31.789986
     10          1           0       52.283318   35.095541   31.837502
     11          1           0       51.729702   36.716464   31.372782
 ---------------------------------------------------------------------
                    Distance matrix (angstroms):
                    1          2          3          4          5
     1  C    0.000000
     2  C    1.522518   0.000000
     3  C    1.522147   2.545097   0.000000
     4  Cl   2.777771   1.798871   3.200100   0.000000
     5  F    2.359204   1.364254   3.723800   2.573786   0.000000
     6  F    2.370012   1.366444   2.958076   2.571340   2.206402
     7  Cl   2.739069   4.142481   1.817453   4.917462   5.092246
     8  H    1.087671   2.133662   2.163710   3.012783   2.562825
     9  H    1.088452   2.090879   2.153322   3.693792   2.568290
    10  H    2.173821   2.789684   1.085299   3.503329   4.055849
    11  H    2.171055   2.881734   1.084338   2.877229   4.095544
                    6          7          8          9         10
     6  F    0.000000
     7  Cl   4.565064   0.000000
     8  H    3.286532   2.967472   0.000000
     9  H    2.541760   2.889701   1.766248   0.000000
    10  H    2.669048   2.370594   3.073992   2.525826   0.000000
    11  H    3.457699   2.367116   2.489611   3.063220   1.774781
                   11
    11  H    0.000000
 Symmetry turned off by external request.
 Stoichiometry    C3H4Cl2F2
 Framework group  C1[X(C3H4Cl2F2)]
 Deg. of freedom    27
 Full point group                 C1      NOp   1
 Rotational constants (GHZ):      3.1325522      0.8253694      0.7557325
 Leave Link  202 at Thu Jun 13 12:22:31 2024, MaxMem=  1073741824 cpu:         0.8
 (Enter /apps/z_install_tree/linux-rocky8-ivybridge/gcc-12.2.0/gaussian-09-D.01-wczn3gur5lpur3omlkzwa2l5ecyxp5ef/g09/l301.exe)
 Basis read from rwf:  (5D, 7F)
 No pseudopotential information found on rwf file.
   241 basis functions,   372 primitive gaussians,   255 cartesian basis functions
    37 alpha electrons       37 beta electrons
       nuclear repulsion energy       453.2757243045 Hartrees.
 IExCor=  402 DFT=T Ex+Corr=B3LYP ExCW=0 ScaHFX=  0.200000
 ScaDFX=  0.800000  0.720000  1.000000  0.810000 ScalE2=  1.000000  1.000000
 IRadAn=      5 IRanWt=     -1 IRanGd=            0 ICorTp=0 IEmpDi=131
 NAtoms=   11 NActive=   11 NUniq=   11 SFac= 1.00D+00 NAtFMM=   60 NAOKFM=F Big=F
 Integral buffers will be    131072 words long.
 Raffenetti 2 integral format.
 Two-electron integral symmetry is turned off.
 R6Disp:  Grimme-D3 Dispersion energy=       -0.0098347700 Hartrees.
 Nuclear repulsion after empirical dispersion term =      453.2658895344 Hartrees.
 No density basis found on file   724.
 Leave Link  301 at Thu Jun 13 12:22:31 2024, MaxMem=  1073741824 cpu:         1.2
 (Enter /apps/z_install_tree/linux-rocky8-ivybridge/gcc-12.2.0/gaussian-09-D.01-wczn3gur5lpur3omlkzwa2l5ecyxp5ef/g09/l302.exe)
 NPDir=0 NMtPBC=     1 NCelOv=     1 NCel=       1 NClECP=     1 NCelD=      1
         NCelK=      1 NCelE2=     1 NClLst=     1 CellRange=     0.0.
 One-electron integrals computed using PRISM.
 NBasis=   241 RedAO= T EigKep=  2.57D-05  NBF=   241
 NBsUse=   241 1.00D-06 EigRej= -1.00D+00 NBFU=   241
 Precomputing XC quadrature grid using
 IXCGrd= 4 IRadAn=           5 IRanWt=          -1 IRanGd=           0 AccXCQ= 0.00D+00.
 Generated NRdTot=       0 NPtTot=           0 NUsed=           0 NTot=          32
 NSgBfM=   255   255   255   255   255 MxSgAt=    11 MxSgA2=    11.
 Leave Link  302 at Thu Jun 13 12:22:31 2024, MaxMem=  1073741824 cpu:         4.2
 (Enter /apps/z_install_tree/linux-rocky8-ivybridge/gcc-12.2.0/gaussian-09-D.01-wczn3gur5lpur3omlkzwa2l5ecyxp5ef/g09/l303.exe)
 DipDrv:  MaxL=1.
 Leave Link  303 at Thu Jun 13 12:22:32 2024, MaxMem=  1073741824 cpu:         3.1
 (Enter /apps/z_install_tree/linux-rocky8-ivybridge/gcc-12.2.0/gaussian-09-D.01-wczn3gur5lpur3omlkzwa2l5ecyxp5ef/g09/l401.exe)
 Initial guess from the checkpoint file:  "dichlorodifluoropropane.chk"
 B after Tr=     1.635635   -3.139494    1.032345
         Rot=    0.999892    0.004465   -0.002251   -0.013825 Ang=   1.68 deg.
 Guess basis will be translated and rotated to current coordinates.
 JPrj=2 DoOrth=T DoCkMO=T.
 Generating alternative initial guess.
 ExpMin= 4.38D-02 ExpMax= 1.06D+05 ExpMxC= 3.62D+03 IAcc=2 IRadAn=         4 AccDes= 0.00D+00
 Harris functional with IExCor=  402 and IRadAn=       4 diagonalized for initial guess.
 HarFok:  IExCor=  402 AccDes= 0.00D+00 IRadAn=         4 IDoV= 1 UseB2=F ITyADJ=14
 ICtDFT=  3500011 ScaDFX=  1.000000  1.000000  1.000000  1.000000
 FoFCou: FMM=F IPFlag=           0 FMFlag=      100000 FMFlg1=           0
         NFxFlg=           0 DoJE=T BraDBF=F KetDBF=T FulRan=T
         wScrn=  0.000000 ICntrl=     500 IOpCl=  0 I1Cent=   200000004 NGrid=           0
         NMat0=    1 NMatS0=      1 NMatT0=    0 NMatD0=    1 NMtDS0=    0 NMtDT0=    0
 Symmetry not used in FoFCou.
 Harris En= -1236.85647520402    
 Leave Link  401 at Thu Jun 13 12:22:32 2024, MaxMem=  1073741824 cpu:        10.2
 (Enter /apps/z_install_tree/linux-rocky8-ivybridge/gcc-12.2.0/gaussian-09-D.01-wczn3gur5lpur3omlkzwa2l5ecyxp5ef/g09/l502.exe)
 Closed shell SCF:
 Using DIIS extrapolation, IDIIS=  1040.
 Two-electron integral symmetry not used.
 Keep R1 ints in memory in canonical form, NReq=433797970.
 IVT=      212949 IEndB=      212949 NGot=  1073741824 MDV=   648332335
 LenX=   648332335 LenY=   648266869
 Requested convergence on RMS density matrix=1.00D-08 within  96 cycles.
 Requested convergence on MAX density matrix=1.00D-06.
 Requested convergence on             energy=1.00D-06.
 No special actions if energy rises.
 FoFCou: FMM=F IPFlag=           0 FMFlag=           0 FMFlg1=           0
         NFxFlg=           0 DoJE=F BraDBF=F KetDBF=F FulRan=T
         wScrn=  0.000000 ICntrl=     600 IOpCl=  0 I1Cent=           0 NGrid=           0
         NMat0=    1 NMatS0=  29161 NMatT0=    0 NMatD0=    1 NMtDS0=    0 NMtDT0=    0
 Symmetry not used in FoFCou.

 Cycle   1  Pass 1  IDiag  1:
 E= -1236.98670520542    
 DIIS: error= 2.64D-03 at cycle   1 NSaved=   1.
 NSaved= 1 IEnMin= 1 EnMin= -1236.98670520542     IErMin= 1 ErrMin= 2.64D-03
 ErrMax= 2.64D-03  0.00D+00 EMaxC= 1.00D-01 BMatC= 3.08D-03 BMatP= 3.08D-03
 IDIUse=3 WtCom= 9.74D-01 WtEn= 2.64D-02
 Coeff-Com:  0.100D+01
 Coeff-En:   0.100D+01
 Coeff:      0.100D+01
 Gap=     0.543 Goal=   None    Shift=    0.000
 GapD=    0.543 DampG=2.000 DampE=1.000 DampFc=2.0000 IDamp=-1.
 RMSDP=6.77D-04 MaxDP=2.87D-02              OVMax= 1.70D-02

 Cycle   2  Pass 1  IDiag  1:
 E= -1236.99056201418     Delta-E=       -0.003856808762 Rises=F Damp=F
 DIIS: error= 7.13D-04 at cycle   2 NSaved=   2.
 NSaved= 2 IEnMin= 2 EnMin= -1236.99056201418     IErMin= 2 ErrMin= 7.13D-04
 ErrMax= 7.13D-04  0.00D+00 EMaxC= 1.00D-01 BMatC= 1.99D-04 BMatP= 3.08D-03
 IDIUse=3 WtCom= 9.93D-01 WtEn= 7.13D-03
 Coeff-Com:  0.583D-01 0.942D+00
 Coeff-En:   0.000D+00 0.100D+01
 Coeff:      0.579D-01 0.942D+00
 Gap=     0.289 Goal=   None    Shift=    0.000
 RMSDP=1.24D-04 MaxDP=6.99D-03 DE=-3.86D-03 OVMax= 6.77D-03

 Cycle   3  Pass 1  IDiag  1:
 E= -1236.99044756224     Delta-E=        0.000114451933 Rises=F Damp=F
 DIIS: error= 9.02D-04 at cycle   3 NSaved=   3.
 NSaved= 3 IEnMin= 2 EnMin= -1236.99056201418     IErMin= 2 ErrMin= 7.13D-04
 ErrMax= 9.02D-04  0.00D+00 EMaxC= 1.00D-01 BMatC= 3.47D-04 BMatP= 1.99D-04
 IDIUse=3 WtCom= 2.50D-01 WtEn= 7.50D-01
 Coeff-Com: -0.285D-01 0.583D+00 0.445D+00
 Coeff-En:   0.000D+00 0.609D+00 0.391D+00
 Coeff:     -0.711D-02 0.602D+00 0.405D+00
 Gap=     0.291 Goal=   None    Shift=    0.000
 RMSDP=6.44D-05 MaxDP=3.48D-03 DE= 1.14D-04 OVMax= 3.88D-03

 Cycle   4  Pass 1  IDiag  1:
 E= -1236.99074672368     Delta-E=       -0.000299161438 Rises=F Damp=F
 DIIS: error= 6.56D-05 at cycle   4 NSaved=   4.
 NSaved= 4 IEnMin= 4 EnMin= -1236.99074672368     IErMin= 4 ErrMin= 6.56D-05
 ErrMax= 6.56D-05  0.00D+00 EMaxC= 1.00D-01 BMatC= 2.30D-06 BMatP= 1.99D-04
 IDIUse=1 WtCom= 1.00D+00 WtEn= 0.00D+00
 Coeff-Com: -0.119D-01 0.175D+00 0.123D+00 0.714D+00
 Coeff:     -0.119D-01 0.175D+00 0.123D+00 0.714D+00
 Gap=     0.291 Goal=   None    Shift=    0.000
 RMSDP=2.30D-05 MaxDP=1.39D-03 DE=-2.99D-04 OVMax= 4.02D-04

 Cycle   5  Pass 1  IDiag  1:
 E= -1236.99074808717     Delta-E=       -0.000001363492 Rises=F Damp=F
 DIIS: error= 3.90D-05 at cycle   5 NSaved=   5.
 NSaved= 5 IEnMin= 5 EnMin= -1236.99074808717     IErMin= 5 ErrMin= 3.90D-05
 ErrMax= 3.90D-05  0.00D+00 EMaxC= 1.00D-01 BMatC= 6.55D-07 BMatP= 2.30D-06
 IDIUse=1 WtCom= 1.00D+00 WtEn= 0.00D+00
 Coeff-Com: -0.254D-02 0.191D-01 0.117D-01 0.355D+00 0.617D+00
 Coeff:     -0.254D-02 0.191D-01 0.117D-01 0.355D+00 0.617D+00
 Gap=     0.291 Goal=   None    Shift=    0.000
 RMSDP=5.32D-06 MaxDP=2.70D-04 DE=-1.36D-06 OVMax= 1.67D-04

 Cycle   6  Pass 1  IDiag  1:
 E= -1236.99074851714     Delta-E=       -0.000000429962 Rises=F Damp=F
 DIIS: error= 7.91D-06 at cycle   6 NSaved=   6.
 NSaved= 6 IEnMin= 6 EnMin= -1236.99074851714     IErMin= 6 ErrMin= 7.91D-06
 ErrMax= 7.91D-06  0.00D+00 EMaxC= 1.00D-01 BMatC= 6.79D-08 BMatP= 6.55D-07
 IDIUse=1 WtCom= 1.00D+00 WtEn= 0.00D+00
 Coeff-Com: -0.232D-03-0.620D-02-0.539D-02 0.121D+00 0.326D+00 0.564D+00
 Coeff:     -0.232D-03-0.620D-02-0.539D-02 0.121D+00 0.326D+00 0.564D+00
 Gap=     0.291 Goal=   None    Shift=    0.000
 RMSDP=1.26D-06 MaxDP=5.97D-05 DE=-4.30D-07 OVMax= 5.63D-05

 Cycle   7  Pass 1  IDiag  1:
 E= -1236.99074857298     Delta-E=       -0.000000055847 Rises=F Damp=F
 DIIS: error= 1.59D-06 at cycle   7 NSaved=   7.
 NSaved= 7 IEnMin= 7 EnMin= -1236.99074857298     IErMin= 7 ErrMin= 1.59D-06
 ErrMax= 1.59D-06  0.00D+00 EMaxC= 1.00D-01 BMatC= 1.91D-09 BMatP= 6.79D-08
 IDIUse=1 WtCom= 1.00D+00 WtEn= 0.00D+00
 Coeff-Com:  0.649D-04-0.367D-02-0.305D-02 0.221D-01 0.800D-01 0.212D+00
 Coeff-Com:  0.693D+00
 Coeff:      0.649D-04-0.367D-02-0.305D-02 0.221D-01 0.800D-01 0.212D+00
 Coeff:      0.693D+00
 Gap=     0.291 Goal=   None    Shift=    0.000
 RMSDP=5.24D-07 MaxDP=3.28D-05 DE=-5.58D-08 OVMax= 1.07D-05

 Cycle   8  Pass 1  IDiag  1:
 E= -1236.99074857456     Delta-E=       -0.000000001573 Rises=F Damp=F
 DIIS: error= 7.24D-07 at cycle   8 NSaved=   8.
 NSaved= 8 IEnMin= 8 EnMin= -1236.99074857456     IErMin= 8 ErrMin= 7.24D-07
 ErrMax= 7.24D-07  0.00D+00 EMaxC= 1.00D-01 BMatC= 1.77D-10 BMatP= 1.91D-09
 IDIUse=1 WtCom= 1.00D+00 WtEn= 0.00D+00
 Coeff-Com:  0.385D-04-0.123D-02-0.102D-02 0.276D-02 0.153D-01 0.608D-01
 Coeff-Com:  0.305D+00 0.618D+00
 Coeff:      0.385D-04-0.123D-02-0.102D-02 0.276D-02 0.153D-01 0.608D-01
 Coeff:      0.305D+00 0.618D+00
 Gap=     0.291 Goal=   None    Shift=    0.000
 RMSDP=9.50D-08 MaxDP=3.87D-06 DE=-1.57D-09 OVMax= 3.11D-06

 Cycle   9  Pass 1  IDiag  1:
 E= -1236.99074857470     Delta-E=       -0.000000000144 Rises=F Damp=F
 DIIS: error= 1.97D-07 at cycle   9 NSaved=   9.
 NSaved= 9 IEnMin= 9 EnMin= -1236.99074857470     IErMin= 9 ErrMin= 1.97D-07
 ErrMax= 1.97D-07  0.00D+00 EMaxC= 1.00D-01 BMatC= 2.60D-11 BMatP= 1.77D-10
 IDIUse=1 WtCom= 1.00D+00 WtEn= 0.00D+00
 Coeff-Com:  0.129D-04-0.193D-03-0.155D-03-0.135D-02-0.223D-02 0.518D-02
 Coeff-Com:  0.734D-01 0.318D+00 0.607D+00
 Coeff:      0.129D-04-0.193D-03-0.155D-03-0.135D-02-0.223D-02 0.518D-02
 Coeff:      0.734D-01 0.318D+00 0.607D+00
 Gap=     0.291 Goal=   None    Shift=    0.000
 RMSDP=2.61D-08 MaxDP=1.00D-06 DE=-1.44D-10 OVMax= 8.95D-07

 Cycle  10  Pass 1  IDiag  1:
 E= -1236.99074857473     Delta-E=       -0.000000000028 Rises=F Damp=F
 DIIS: error= 7.67D-08 at cycle  10 NSaved=  10.
 NSaved=10 IEnMin=10 EnMin= -1236.99074857473     IErMin=10 ErrMin= 7.67D-08
 ErrMax= 7.67D-08  0.00D+00 EMaxC= 1.00D-01 BMatC= 2.65D-12 BMatP= 2.60D-11
 IDIUse=1 WtCom= 1.00D+00 WtEn= 0.00D+00
 Coeff-Com:  0.361D-05 0.576D-05 0.108D-04-0.953D-03-0.260D-02-0.282D-02
 Coeff-Com:  0.122D-01 0.120D+00 0.321D+00 0.553D+00
 Coeff:      0.361D-05 0.576D-05 0.108D-04-0.953D-03-0.260D-02-0.282D-02
 Coeff:      0.122D-01 0.120D+00 0.321D+00 0.553D+00
 Gap=     0.291 Goal=   None    Shift=    0.000
 RMSDP=6.88D-09 MaxDP=2.10D-07 DE=-2.82D-11 OVMax= 2.84D-07

 SCF Done:  E(RB3LYP) =  -1236.99074857     A.U. after   10 cycles
            NFock= 10  Conv=0.69D-08     -V/T= 2.0027
 KE= 1.233686711786D+03 PE=-3.841419735343D+03 EE= 9.174763854473D+02
 Leave Link  502 at Thu Jun 13 12:22:44 2024, MaxMem=  1073741824 cpu:       114.6
 (Enter /apps/z_install_tree/linux-rocky8-ivybridge/gcc-12.2.0/gaussian-09-D.01-wczn3gur5lpur3omlkzwa2l5ecyxp5ef/g09/l508.exe)
 QCSCF skips out because SCF is already converged.
 Leave Link  508 at Thu Jun 13 12:22:44 2024, MaxMem=  1073741824 cpu:         0.0
 (Enter /apps/z_install_tree/linux-rocky8-ivybridge/gcc-12.2.0/gaussian-09-D.01-wczn3gur5lpur3omlkzwa2l5ecyxp5ef/g09/l701.exe)
 Compute integral first derivatives.
 ... and contract with generalized density number  0.
 R6Disp: Adding Grimme-D3 dispersion energy 1st derivatives to the gradient.
 Leave Link  701 at Thu Jun 13 12:22:44 2024, MaxMem=  1073741824 cpu:         4.2
 (Enter /apps/z_install_tree/linux-rocky8-ivybridge/gcc-12.2.0/gaussian-09-D.01-wczn3gur5lpur3omlkzwa2l5ecyxp5ef/g09/l702.exe)
 L702 exits ... SP integral derivatives will be done elsewhere.
 Leave Link  702 at Thu Jun 13 12:22:44 2024, MaxMem=  1073741824 cpu:         0.2
 (Enter /apps/z_install_tree/linux-rocky8-ivybridge/gcc-12.2.0/gaussian-09-D.01-wczn3gur5lpur3omlkzwa2l5ecyxp5ef/g09/l703.exe)
 Compute integral first derivatives, UseDBF=F ICtDFT=           0.
 Integral derivatives from FoFJK, PRISM(SPDF).
 Calling FoFJK, ICntrl=      2127 FMM=F ISym2X=0 I1Cent= 0 IOpClX= 0 NMat=1 NMatS=1 NMatT=0.
 FoFJK:  IHMeth= 1 ICntrl=    2127 DoSepK=F KAlg= 0 I1Cent=   0 FoldK=F
 IRaf=         0 NMat=   1 IRICut=       1 DoRegI=T DoRafI=F ISym2E= 0.
 FoFCou: FMM=F IPFlag=           0 FMFlag=      100000 FMFlg1=         800
         NFxFlg=           0 DoJE=F BraDBF=F KetDBF=F FulRan=T
         wScrn=  0.000000 ICntrl=    2127 IOpCl=  0 I1Cent=           0 NGrid=           0
         NMat0=    1 NMatS0=      1 NMatT0=    0 NMatD0=    1 NMtDS0=    0 NMtDT0=    0
 Symmetry not used in FoFCou.
 Leave Link  703 at Thu Jun 13 12:22:46 2024, MaxMem=  1073741824 cpu:        39.3
 (Enter /apps/z_install_tree/linux-rocky8-ivybridge/gcc-12.2.0/gaussian-09-D.01-wczn3gur5lpur3omlkzwa2l5ecyxp5ef/g09/l716.exe)
 Dipole        = 4.43531835D-02 1.42970945D-01-1.06732975D-01
 -------------------------------------------------------------------
 Center     Atomic                   Forces (Hartrees/Bohr)
 Number     Number              X              Y              Z
 -------------------------------------------------------------------
      1        6           0.000748714   -0.000120229    0.003196306
      2        6          -0.001528999   -0.005290759   -0.002360624
      3        6          -0.000790510   -0.000088572   -0.000042164
      4       17          -0.000771183    0.000231352    0.001160429
      5        9           0.010916386    0.000380493   -0.001189586
      6        9          -0.007512084    0.005424071   -0.002334140
      7       17          -0.000347086    0.000363400    0.001589830
      8        1           0.000078749    0.000148305    0.000767394
      9        1          -0.001024368   -0.000815865   -0.000822331
     10        1          -0.000187887    0.000036961   -0.000099692
     11        1           0.000418267   -0.000269158    0.000134578
 -------------------------------------------------------------------
 Cartesian Forces:  Max     0.010916386 RMS     0.002846855
 Leave Link  716 at Thu Jun 13 12:22:47 2024, MaxMem=  1073741824 cpu:         0.3
 (Enter /apps/z_install_tree/linux-rocky8-ivybridge/gcc-12.2.0/gaussian-09-D.01-wczn3gur5lpur3omlkzwa2l5ecyxp5ef/g09/l103.exe)

 GradGradGradGradGradGradGradGradGradGradGradGradGradGradGradGradGradGrad
 Berny optimization.
 Using GEDIIS/GDIIS optimizer.
 FormGI is forming the generalized inverse of G from B-inverse, IUseBI=4.
 Internal  Forces:  Max     0.010606660 RMS     0.002448928
 Search for a local minimum.
 Step number   5 out of a maximum of   56
 All quantities printed in internal units (Hartrees-Bohrs-Radians)
 RMS Force = .24489D-02 SwitMx=.10000D-02 MixMth= 1
 Mixed Optimization -- RFO/linear search
 Update second derivatives using D2CorX and points    3    4    5
 DE= -1.59D-03 DEPred=-2.33D-03 R= 6.82D-01
 TightC=F SS=  1.41D+00  RLast= 2.49D-01 DXNew= 1.4270D+00 7.4753D-01
 Trust test= 6.82D-01 RLast= 2.49D-01 DXMaxT set to 8.49D-01
 ITU=  1  1  0  1  0
 Use linear search instead of GDIIS.
     Eigenvalues ---    0.00230   0.00508   0.03622   0.04789   0.05349
     Eigenvalues ---    0.05594   0.07619   0.08304   0.08900   0.12319
     Eigenvalues ---    0.15519   0.16001   0.16054   0.17511   0.21852
     Eigenvalues ---    0.22153   0.22407   0.24611   0.24989   0.25890
     Eigenvalues ---    0.27328   0.30889   0.33855   0.34051   0.34074
     Eigenvalues ---    0.34126   0.41020
 RFO step:  Lambda=-7.38058883D-04 EMin= 2.30064197D-03
 Quartic linear search produced a step of -0.20454.
 Iteration  1 RMS(Cart)=  0.03518015 RMS(Int)=  0.00060719
 Iteration  2 RMS(Cart)=  0.00064176 RMS(Int)=  0.00004247
 Iteration  3 RMS(Cart)=  0.00000019 RMS(Int)=  0.00004247
 ITry= 1 IFail=0 DXMaxC= 1.02D-01 DCOld= 1.00D+10 DXMaxT= 8.49D-01 DXLimC= 3.00D+00 Rises=F
 Variable       Old X    -DE/DX   Delta X   Delta X   Delta X     New X
                                 (Linear)    (Quad)   (Total)
    R1        2.87714  -0.00460  -0.00678   0.00157  -0.00521   2.87193
    R2        2.87644  -0.00142   0.00349  -0.01136  -0.00787   2.86857
    R3        2.05540  -0.00032   0.00047  -0.00179  -0.00132   2.05408
    R4        2.05688   0.00112  -0.00188   0.00637   0.00450   2.06137
    R5        3.39937   0.00034  -0.01549   0.03476   0.01927   3.41864
    R6        2.57807  -0.01061  -0.00747  -0.02796  -0.03543   2.54263
    R7        2.58221  -0.00913  -0.00762  -0.01801  -0.02563   2.55658
    R8        3.43449  -0.00164   0.00310  -0.01247  -0.00937   3.42512
    R9        2.05092  -0.00020  -0.00089   0.00111   0.00022   2.05114
   R10        2.04910  -0.00017  -0.00119   0.00176   0.00057   2.04967
    A1        1.97961  -0.00138  -0.00173  -0.00204  -0.00369   1.97593
    A2        1.89384  -0.00041  -0.00315  -0.00200  -0.00500   1.88885
    A3        1.83608   0.00108   0.00718  -0.00298   0.00420   1.84028
    A4        1.93572   0.00099  -0.00621   0.01147   0.00535   1.94106
    A5        1.92045   0.00013  -0.00008   0.00391   0.00382   1.92427
    A6        1.89394  -0.00041   0.00466  -0.00967  -0.00504   1.88890
    A7        1.97654   0.00215   0.01154  -0.01388  -0.00229   1.97424
    A8        1.91111   0.00203  -0.00438   0.01266   0.00831   1.91942
    A9        1.92207   0.00287  -0.00162   0.01214   0.01062   1.93269
   A10        1.88721  -0.00190  -0.00101  -0.00320  -0.00422   1.88299
   A11        1.88271  -0.00166   0.00037  -0.00119  -0.00072   1.88200
   A12        1.88150  -0.00395  -0.00606  -0.00682  -0.01280   1.86870
   A13        1.91796  -0.00083  -0.00281   0.00216  -0.00065   1.91730
   A14        1.95248  -0.00009   0.00071  -0.00270  -0.00197   1.95052
   A15        1.94960   0.00068   0.00077   0.00304   0.00382   1.95342
   A16        1.86361   0.00032  -0.00172   0.00233   0.00062   1.86423
   A17        1.86007   0.00017  -0.00107   0.00306   0.00199   1.86206
   A18        1.91588  -0.00026   0.00381  -0.00760  -0.00376   1.91211
    D1        1.00013   0.00063  -0.01429   0.06592   0.05160   1.05173
    D2        3.10770   0.00109  -0.01102   0.06156   0.05057  -3.12491
    D3       -1.10952  -0.00077  -0.02178   0.06821   0.04643  -1.06309
    D4       -1.15924   0.00061  -0.00304   0.05401   0.05094  -1.10829
    D5        0.94833   0.00107   0.00023   0.04965   0.04992   0.99825
    D6        3.01430  -0.00080  -0.01053   0.05630   0.04577   3.06007
    D7        3.09982   0.00072  -0.01059   0.06759   0.05697  -3.12640
    D8       -1.07580   0.00119  -0.00732   0.06324   0.05594  -1.01985
    D9        0.99017  -0.00068  -0.01808   0.06988   0.05180   1.04197
   D10        3.03592   0.00045   0.00092   0.02413   0.02509   3.06101
   D11        0.96904   0.00065   0.00443   0.02152   0.02598   0.99502
   D12       -1.18660   0.00055  -0.00172   0.03121   0.02953  -1.15707
   D13       -1.11094  -0.00035  -0.00877   0.02870   0.01989  -1.09105
   D14        3.10537  -0.00015  -0.00526   0.02609   0.02078   3.12615
   D15        0.94972  -0.00024  -0.01141   0.03578   0.02433   0.97405
   D16        0.98476  -0.00013  -0.00699   0.02654   0.01955   1.00431
   D17       -1.08212   0.00007  -0.00348   0.02393   0.02044  -1.06168
   D18        3.04542  -0.00002  -0.00964   0.03362   0.02400   3.06941
         Item               Value     Threshold  Converged?
 Maximum Force            0.010607     0.000450     NO 
 RMS     Force            0.002449     0.000300     NO 
 Maximum Displacement     0.102118     0.001800     NO 
 RMS     Displacement     0.035202     0.001200     NO 
 Predicted change in Energy=-5.265859D-04
 Lowest energy point so far.  Saving SCF results.
 GradGradGradGradGradGradGradGradGradGradGradGradGradGradGradGradGradGrad

 Leave Link  103 at Thu Jun 13 12:22:47 2024, MaxMem=  1073741824 cpu:         5.8
 (Enter /apps/z_install_tree/linux-rocky8-ivybridge/gcc-12.2.0/gaussian-09-D.01-wczn3gur5lpur3omlkzwa2l5ecyxp5ef/g09/l202.exe)
                          Input orientation:                          
 ---------------------------------------------------------------------
 Center     Atomic      Atomic             Coordinates (Angstroms)
 Number     Number       Type             X           Y           Z
 ---------------------------------------------------------------------
      1          6           0       50.126945   35.362014   31.922339
      2          6           0       50.048730   35.599490   33.421393
      3          6           0       51.501978   35.641622   31.343225
      4         17           0       50.428156   37.304825   33.891068
      5          9           0       48.812321   35.313110   33.868224
      6          9           0       50.907086   34.787560   34.080398
      7         17           0       51.530640   35.201387   29.585238
      8          1           0       49.366237   35.971599   31.441469
      9          1           0       49.863599   34.313014   31.780352
     10          1           0       52.270913   35.048428   31.827986
     11          1           0       51.761395   36.692951   31.405306
 ---------------------------------------------------------------------
                    Distance matrix (angstroms):
                    1          2          3          4          5
     1  C    0.000000
     2  C    1.519762   0.000000
     3  C    1.517982   2.536235   0.000000
     4  Cl   2.782290   1.809068   3.226584   0.000000
     5  F    2.348850   1.345504   3.703755   2.564835   0.000000
     6  F    2.365552   1.352883   2.928384   2.569405   2.170083
     7  Cl   2.730971   4.131662   1.812497   4.917326   5.074023
     8  H    1.086972   2.127055   2.163315   2.984242   2.574795
     9  H    1.090831   2.093398   2.154197   3.704698   2.542556
    10  H    2.168833   2.789393   1.085418   3.569788   4.024238
    11  H    2.170286   2.862426   1.084640   2.886335   4.082520
                    6          7          8          9         10
     6  F    0.000000
     7  Cl   4.557032   0.000000
     8  H    3.277211   2.953551   0.000000
     9  H    2.569878   2.895990   1.764403   0.000000
    10  H    2.646023   2.366711   3.072261   2.517591   0.000000
    11  H    3.393593   2.364456   2.501687   3.066984   1.772772
                   11
    11  H    0.000000
 Symmetry turned off by external request.
 Stoichiometry    C3H4Cl2F2
 Framework group  C1[X(C3H4Cl2F2)]
 Deg. of freedom    27
 Full point group                 C1      NOp   1
 Rotational constants (GHZ):      3.1561819      0.8280617      0.7576239
 Leave Link  202 at Thu Jun 13 12:22:47 2024, MaxMem=  1073741824 cpu:         0.5
 (Enter /apps/z_install_tree/linux-rocky8-ivybridge/gcc-12.2.0/gaussian-09-D.01-wczn3gur5lpur3omlkzwa2l5ecyxp5ef/g09/l301.exe)
 Basis read from rwf:  (5D, 7F)
 No pseudopotential information found on rwf file.
   241 basis functions,   372 primitive gaussians,   255 cartesian basis functions
    37 alpha electrons       37 beta electrons
       nuclear repulsion energy       454.4969500101 Hartrees.
 IExCor=  402 DFT=T Ex+Corr=B3LYP ExCW=0 ScaHFX=  0.200000
 ScaDFX=  0.800000  0.720000  1.000000  0.810000 ScalE2=  1.000000  1.000000
 IRadAn=      5 IRanWt=     -1 IRanGd=            0 ICorTp=0 IEmpDi=131
 NAtoms=   11 NActive=   11 NUniq=   11 SFac= 1.00D+00 NAtFMM=   60 NAOKFM=F Big=F
 Integral buffers will be    131072 words long.
 Raffenetti 2 integral format.
 Two-electron integral symmetry is turned off.
 R6Disp:  Grimme-D3 Dispersion energy=       -0.0098217108 Hartrees.
 Nuclear repulsion after empirical dispersion term =      454.4871282992 Hartrees.
 No density basis found on file   724.
 Leave Link  301 at Thu Jun 13 12:22:47 2024, MaxMem=  1073741824 cpu:         1.2
 (Enter /apps/z_install_tree/linux-rocky8-ivybridge/gcc-12.2.0/gaussian-09-D.01-wczn3gur5lpur3omlkzwa2l5ecyxp5ef/g09/l302.exe)
 NPDir=0 NMtPBC=     1 NCelOv=     1 NCel=       1 NClECP=     1 NCelD=      1
         NCelK=      1 NCelE2=     1 NClLst=     1 CellRange=     0.0.
 One-electron integrals computed using PRISM.
 NBasis=   241 RedAO= T EigKep=  2.49D-05  NBF=   241
 NBsUse=   241 1.00D-06 EigRej= -1.00D+00 NBFU=   241
 Precomputing XC quadrature grid using
 IXCGrd= 4 IRadAn=           5 IRanWt=          -1 IRanGd=           0 AccXCQ= 0.00D+00.
 Generated NRdTot=       0 NPtTot=           0 NUsed=           0 NTot=          32
 NSgBfM=   255   255   255   255   255 MxSgAt=    11 MxSgA2=    11.
 Leave Link  302 at Thu Jun 13 12:22:48 2024, MaxMem=  1073741824 cpu:        16.6
 (Enter /apps/z_install_tree/linux-rocky8-ivybridge/gcc-12.2.0/gaussian-09-D.01-wczn3gur5lpur3omlkzwa2l5ecyxp5ef/g09/l303.exe)
 DipDrv:  MaxL=1.
 Leave Link  303 at Thu Jun 13 12:22:49 2024, MaxMem=  1073741824 cpu:         2.6
 (Enter /apps/z_install_tree/linux-rocky8-ivybridge/gcc-12.2.0/gaussian-09-D.01-wczn3gur5lpur3omlkzwa2l5ecyxp5ef/g09/l401.exe)
 Initial guess from the checkpoint file:  "dichlorodifluoropropane.chk"
 B after Tr=     1.522066   -2.850856    0.855873
         Rot=    0.999908    0.003353   -0.002105   -0.012996 Ang=   1.56 deg.
 Guess basis will be translated and rotated to current coordinates.
 JPrj=2 DoOrth=T DoCkMO=T.
 Generating alternative initial guess.
 ExpMin= 4.38D-02 ExpMax= 1.06D+05 ExpMxC= 3.62D+03 IAcc=2 IRadAn=         4 AccDes= 0.00D+00
 Harris functional with IExCor=  402 and IRadAn=       4 diagonalized for initial guess.
 HarFok:  IExCor=  402 AccDes= 0.00D+00 IRadAn=         4 IDoV= 1 UseB2=F ITyADJ=14
 ICtDFT=  3500011 ScaDFX=  1.000000  1.000000  1.000000  1.000000
 FoFCou: FMM=F IPFlag=           0 FMFlag=      100000 FMFlg1=           0
         NFxFlg=           0 DoJE=T BraDBF=F KetDBF=T FulRan=T
         wScrn=  0.000000 ICntrl=     500 IOpCl=  0 I1Cent=   200000004 NGrid=           0
         NMat0=    1 NMatS0=      1 NMatT0=    0 NMatD0=    1 NMtDS0=    0 NMtDT0=    0
 Symmetry not used in FoFCou.
 Harris En= -1236.85501265027    
 Leave Link  401 at Thu Jun 13 12:22:49 2024, MaxMem=  1073741824 cpu:         9.4
 (Enter /apps/z_install_tree/linux-rocky8-ivybridge/gcc-12.2.0/gaussian-09-D.01-wczn3gur5lpur3omlkzwa2l5ecyxp5ef/g09/l502.exe)
 Closed shell SCF:
 Using DIIS extrapolation, IDIIS=  1040.
 Two-electron integral symmetry not used.
 Keep R1 ints in memory in canonical form, NReq=433797970.
 IVT=      212949 IEndB=      212949 NGot=  1073741824 MDV=   648332335
 LenX=   648332335 LenY=   648266869
 Requested convergence on RMS density matrix=1.00D-08 within  96 cycles.
 Requested convergence on MAX density matrix=1.00D-06.
 Requested convergence on             energy=1.00D-06.
 No special actions if energy rises.
 FoFCou: FMM=F IPFlag=           0 FMFlag=           0 FMFlg1=           0
         NFxFlg=           0 DoJE=F BraDBF=F KetDBF=F FulRan=T
         wScrn=  0.000000 ICntrl=     600 IOpCl=  0 I1Cent=           0 NGrid=           0
         NMat0=    1 NMatS0=  29161 NMatT0=    0 NMatD0=    1 NMtDS0=    0 NMtDT0=    0
 Symmetry not used in FoFCou.

 Cycle   1  Pass 1  IDiag  1:
 E= -1236.98913145182    
 DIIS: error= 1.92D-03 at cycle   1 NSaved=   1.
 NSaved= 1 IEnMin= 1 EnMin= -1236.98913145182     IErMin= 1 ErrMin= 1.92D-03
 ErrMax= 1.92D-03  0.00D+00 EMaxC= 1.00D-01 BMatC= 1.49D-03 BMatP= 1.49D-03
 IDIUse=3 WtCom= 9.81D-01 WtEn= 1.92D-02
 Coeff-Com:  0.100D+01
 Coeff-En:   0.100D+01
 Coeff:      0.100D+01
 Gap=     0.543 Goal=   None    Shift=    0.000
 GapD=    0.543 DampG=2.000 DampE=1.000 DampFc=2.0000 IDamp=-1.
 RMSDP=4.58D-04 MaxDP=1.83D-02              OVMax= 1.38D-02

 Cycle   2  Pass 1  IDiag  1:
 E= -1236.99121434271     Delta-E=       -0.002082890892 Rises=F Damp=F
 DIIS: error= 1.82D-04 at cycle   2 NSaved=   2.
 NSaved= 2 IEnMin= 2 EnMin= -1236.99121434271     IErMin= 2 ErrMin= 1.82D-04
 ErrMax= 1.82D-04  0.00D+00 EMaxC= 1.00D-01 BMatC= 2.71D-05 BMatP= 1.49D-03
 IDIUse=3 WtCom= 9.98D-01 WtEn= 1.82D-03
 Coeff-Com: -0.262D-01 0.103D+01
 Coeff-En:   0.000D+00 0.100D+01
 Coeff:     -0.261D-01 0.103D+01
 Gap=     0.291 Goal=   None    Shift=    0.000
 RMSDP=5.66D-05 MaxDP=2.71D-03 DE=-2.08D-03 OVMax= 1.61D-03

 Cycle   3  Pass 1  IDiag  1:
 E= -1236.99123227295     Delta-E=       -0.000017930236 Rises=F Damp=F
 DIIS: error= 2.11D-04 at cycle   3 NSaved=   3.
 NSaved= 3 IEnMin= 3 EnMin= -1236.99123227295     IErMin= 2 ErrMin= 1.82D-04
 ErrMax= 2.11D-04  0.00D+00 EMaxC= 1.00D-01 BMatC= 1.84D-05 BMatP= 2.71D-05
 IDIUse=3 WtCom= 9.98D-01 WtEn= 2.11D-03
 Coeff-Com: -0.272D-01 0.470D+00 0.557D+00
 Coeff-En:   0.000D+00 0.310D-01 0.969D+00
 Coeff:     -0.271D-01 0.469D+00 0.558D+00
 Gap=     0.291 Goal=   None    Shift=    0.000
 RMSDP=2.41D-05 MaxDP=1.10D-03 DE=-1.79D-05 OVMax= 7.31D-04

 Cycle   4  Pass 1  IDiag  1:
 E= -1236.99124268877     Delta-E=       -0.000010415826 Rises=F Damp=F
 DIIS: error= 6.92D-05 at cycle   4 NSaved=   4.
 NSaved= 4 IEnMin= 4 EnMin= -1236.99124268877     IErMin= 4 ErrMin= 6.92D-05
 ErrMax= 6.92D-05  0.00D+00 EMaxC= 1.00D-01 BMatC= 2.22D-06 BMatP= 1.84D-05
 IDIUse=1 WtCom= 1.00D+00 WtEn= 0.00D+00
 Coeff-Com: -0.112D-01 0.147D+00 0.300D+00 0.564D+00
 Coeff:     -0.112D-01 0.147D+00 0.300D+00 0.564D+00
 Gap=     0.291 Goal=   None    Shift=    0.000
 RMSDP=4.60D-06 MaxDP=1.79D-04 DE=-1.04D-05 OVMax= 2.75D-04

 Cycle   5  Pass 1  IDiag  1:
 E= -1236.99124400843     Delta-E=       -0.000001319659 Rises=F Damp=F
 DIIS: error= 1.55D-05 at cycle   5 NSaved=   5.
 NSaved= 5 IEnMin= 5 EnMin= -1236.99124400843     IErMin= 5 ErrMin= 1.55D-05
 ErrMax= 1.55D-05  0.00D+00 EMaxC= 1.00D-01 BMatC= 8.14D-08 BMatP= 2.22D-06
 IDIUse=1 WtCom= 1.00D+00 WtEn= 0.00D+00
 Coeff-Com: -0.149D-02 0.107D-01 0.616D-01 0.217D+00 0.712D+00
 Coeff:     -0.149D-02 0.107D-01 0.616D-01 0.217D+00 0.712D+00
 Gap=     0.291 Goal=   None    Shift=    0.000
 RMSDP=2.54D-06 MaxDP=1.21D-04 DE=-1.32D-06 OVMax= 5.56D-05

 Cycle   6  Pass 1  IDiag  1:
 E= -1236.99124406623     Delta-E=       -0.000000057801 Rises=F Damp=F
 DIIS: error= 3.59D-06 at cycle   6 NSaved=   6.
 NSaved= 6 IEnMin= 6 EnMin= -1236.99124406623     IErMin= 6 ErrMin= 3.59D-06
 ErrMax= 3.59D-06  0.00D+00 EMaxC= 1.00D-01 BMatC= 7.79D-09 BMatP= 8.14D-08
 IDIUse=1 WtCom= 1.00D+00 WtEn= 0.00D+00
 Coeff-Com: -0.157D-03-0.256D-02 0.118D-01 0.676D-01 0.326D+00 0.597D+00
 Coeff:     -0.157D-03-0.256D-02 0.118D-01 0.676D-01 0.326D+00 0.597D+00
 Gap=     0.291 Goal=   None    Shift=    0.000
 RMSDP=8.48D-07 MaxDP=4.99D-05 DE=-5.78D-08 OVMax= 3.11D-05

 Cycle   7  Pass 1  IDiag  1:
 E= -1236.99124407227     Delta-E=       -0.000000006037 Rises=F Damp=F
 DIIS: error= 1.35D-06 at cycle   7 NSaved=   7.
 NSaved= 7 IEnMin= 7 EnMin= -1236.99124407227     IErMin= 7 ErrMin= 1.35D-06
 ErrMax= 1.35D-06  0.00D+00 EMaxC= 1.00D-01 BMatC= 1.39D-09 BMatP= 7.79D-09
 IDIUse=1 WtCom= 1.00D+00 WtEn= 0.00D+00
 Coeff-Com:  0.888D-04-0.289D-02-0.229D-04 0.164D-01 0.111D+00 0.340D+00
 Coeff-Com:  0.536D+00
 Coeff:      0.888D-04-0.289D-02-0.229D-04 0.164D-01 0.111D+00 0.340D+00
 Coeff:      0.536D+00
 Gap=     0.291 Goal=   None    Shift=    0.000
 RMSDP=2.52D-07 MaxDP=1.51D-05 DE=-6.04D-09 OVMax= 1.03D-05

 Cycle   8  Pass 1  IDiag  1:
 E= -1236.99124407353     Delta-E=       -0.000000001256 Rises=F Damp=F
 DIIS: error= 2.40D-07 at cycle   8 NSaved=   8.
 NSaved= 8 IEnMin= 8 EnMin= -1236.99124407353     IErMin= 8 ErrMin= 2.40D-07
 ErrMax= 2.40D-07  0.00D+00 EMaxC= 1.00D-01 BMatC= 2.74D-11 BMatP= 1.39D-09
 IDIUse=1 WtCom= 1.00D+00 WtEn= 0.00D+00
 Coeff-Com:  0.411D-04-0.100D-02-0.790D-03 0.248D-02 0.241D-01 0.999D-01
 Coeff-Com:  0.209D+00 0.666D+00
 Coeff:      0.411D-04-0.100D-02-0.790D-03 0.248D-02 0.241D-01 0.999D-01
 Coeff:      0.209D+00 0.666D+00
 Gap=     0.291 Goal=   None    Shift=    0.000
 RMSDP=6.60D-08 MaxDP=3.05D-06 DE=-1.26D-09 OVMax= 1.21D-06

 Cycle   9  Pass 1  IDiag  1:
 E= -1236.99124407355     Delta-E=       -0.000000000021 Rises=F Damp=F
 DIIS: error= 6.75D-08 at cycle   9 NSaved=   9.
 NSaved= 9 IEnMin= 9 EnMin= -1236.99124407355     IErMin= 9 ErrMin= 6.75D-08
 ErrMax= 6.75D-08  0.00D+00 EMaxC= 1.00D-01 BMatC= 1.75D-12 BMatP= 2.74D-11
 IDIUse=1 WtCom= 1.00D+00 WtEn= 0.00D+00
 Coeff-Com:  0.655D-05-0.102D-03-0.279D-03-0.506D-03-0.940D-03 0.807D-02
 Coeff-Com:  0.310D-01 0.240D+00 0.722D+00
 Coeff:      0.655D-05-0.102D-03-0.279D-03-0.506D-03-0.940D-03 0.807D-02
 Coeff:      0.310D-01 0.240D+00 0.722D+00
 Gap=     0.291 Goal=   None    Shift=    0.000
 RMSDP=1.17D-08 MaxDP=6.05D-07 DE=-2.09D-11 OVMax= 3.36D-07

 Cycle  10  Pass 1  IDiag  1:
 E= -1236.99124407357     Delta-E=       -0.000000000020 Rises=F Damp=F
 DIIS: error= 1.94D-08 at cycle  10 NSaved=  10.
 NSaved=10 IEnMin=10 EnMin= -1236.99124407357     IErMin=10 ErrMin= 1.94D-08
 ErrMax= 1.94D-08  0.00D+00 EMaxC= 1.00D-01 BMatC= 2.94D-13 BMatP= 1.75D-12
 IDIUse=1 WtCom= 1.00D+00 WtEn= 0.00D+00
 Coeff-Com:  0.167D-05-0.336D-05-0.853D-04-0.328D-03-0.150D-02-0.805D-03
 Coeff-Com:  0.440D-02 0.843D-01 0.370D+00 0.544D+00
 Coeff:      0.167D-05-0.336D-05-0.853D-04-0.328D-03-0.150D-02-0.805D-03
 Coeff:      0.440D-02 0.843D-01 0.370D+00 0.544D+00
 Gap=     0.291 Goal=   None    Shift=    0.000
 RMSDP=2.91D-09 MaxDP=1.40D-07 DE=-2.00D-11 OVMax= 1.21D-07

 SCF Done:  E(RB3LYP) =  -1236.99124407     A.U. after   10 cycles
            NFock= 10  Conv=0.29D-08     -V/T= 2.0026
 KE= 1.233761712245D+03 PE=-3.843902583373D+03 EE= 9.186624987549D+02
 Leave Link  502 at Thu Jun 13 12:23:01 2024, MaxMem=  1073741824 cpu:       114.4
 (Enter /apps/z_install_tree/linux-rocky8-ivybridge/gcc-12.2.0/gaussian-09-D.01-wczn3gur5lpur3omlkzwa2l5ecyxp5ef/g09/l508.exe)
 QCSCF skips out because SCF is already converged.
 Leave Link  508 at Thu Jun 13 12:23:01 2024, MaxMem=  1073741824 cpu:         0.0
 (Enter /apps/z_install_tree/linux-rocky8-ivybridge/gcc-12.2.0/gaussian-09-D.01-wczn3gur5lpur3omlkzwa2l5ecyxp5ef/g09/l701.exe)
 Compute integral first derivatives.
 ... and contract with generalized density number  0.
 R6Disp: Adding Grimme-D3 dispersion energy 1st derivatives to the gradient.
 Leave Link  701 at Thu Jun 13 12:23:01 2024, MaxMem=  1073741824 cpu:         2.2
 (Enter /apps/z_install_tree/linux-rocky8-ivybridge/gcc-12.2.0/gaussian-09-D.01-wczn3gur5lpur3omlkzwa2l5ecyxp5ef/g09/l702.exe)
 L702 exits ... SP integral derivatives will be done elsewhere.
 Leave Link  702 at Thu Jun 13 12:23:01 2024, MaxMem=  1073741824 cpu:         0.3
 (Enter /apps/z_install_tree/linux-rocky8-ivybridge/gcc-12.2.0/gaussian-09-D.01-wczn3gur5lpur3omlkzwa2l5ecyxp5ef/g09/l703.exe)
 Compute integral first derivatives, UseDBF=F ICtDFT=           0.
 Integral derivatives from FoFJK, PRISM(SPDF).
 Calling FoFJK, ICntrl=      2127 FMM=F ISym2X=0 I1Cent= 0 IOpClX= 0 NMat=1 NMatS=1 NMatT=0.
 FoFJK:  IHMeth= 1 ICntrl=    2127 DoSepK=F KAlg= 0 I1Cent=   0 FoldK=F
 IRaf=         0 NMat=   1 IRICut=       1 DoRegI=T DoRafI=F ISym2E= 0.
 FoFCou: FMM=F IPFlag=           0 FMFlag=      100000 FMFlg1=         800
         NFxFlg=           0 DoJE=F BraDBF=F KetDBF=F FulRan=T
         wScrn=  0.000000 ICntrl=    2127 IOpCl=  0 I1Cent=           0 NGrid=           0
         NMat0=    1 NMatS0=      1 NMatT0=    0 NMatD0=    1 NMtDS0=    0 NMtDT0=    0
 Symmetry not used in FoFCou.
 Leave Link  703 at Thu Jun 13 12:23:03 2024, MaxMem=  1073741824 cpu:        40.0
 (Enter /apps/z_install_tree/linux-rocky8-ivybridge/gcc-12.2.0/gaussian-09-D.01-wczn3gur5lpur3omlkzwa2l5ecyxp5ef/g09/l716.exe)
 Dipole        = 2.57210805D-02 7.74896607D-02-1.03486646D-01
 -------------------------------------------------------------------
 Center     Atomic                   Forces (Hartrees/Bohr)
 Number     Number              X              Y              Z
 -------------------------------------------------------------------
      1        6          -0.000724014   -0.000951170    0.002909487
      2        6           0.002107686    0.000761177   -0.004224408
      3        6           0.000843289    0.000345230    0.000178130
      4       17          -0.000191581   -0.000332823   -0.000082714
      5        9          -0.002623307   -0.000454790    0.000982251
      6        9           0.001009836   -0.000073126    0.000657852
      7       17          -0.000067968   -0.000054685   -0.000265677
      8        1           0.000022118    0.000528806    0.000055486
      9        1          -0.000154042    0.000353870   -0.000318677
     10        1          -0.000188042    0.000054496   -0.000081311
     11        1          -0.000033974   -0.000176986    0.000189581
 -------------------------------------------------------------------
 Cartesian Forces:  Max     0.004224408 RMS     0.001154888
 Leave Link  716 at Thu Jun 13 12:23:04 2024, MaxMem=  1073741824 cpu:         0.3
 (Enter /apps/z_install_tree/linux-rocky8-ivybridge/gcc-12.2.0/gaussian-09-D.01-wczn3gur5lpur3omlkzwa2l5ecyxp5ef/g09/l103.exe)

 GradGradGradGradGradGradGradGradGradGradGradGradGradGradGradGradGradGrad
 Berny optimization.
 Using GEDIIS/GDIIS optimizer.
 FormGI is forming the generalized inverse of G from B-inverse, IUseBI=4.
 Internal  Forces:  Max     0.002833566 RMS     0.000640499
 Search for a local minimum.
 Step number   6 out of a maximum of   56
 All quantities printed in internal units (Hartrees-Bohrs-Radians)
 RMS Force = .64050D-03 SwitMx=.10000D-02 MixMth= 2
 Mixed Optimization -- En-DIIS/RFO-DIIS
 Update second derivatives using D2CorX and points    4    5    6
 DE= -4.95D-04 DEPred=-5.27D-04 R= 9.41D-01
 TightC=F SS=  1.41D+00  RLast= 1.78D-01 DXNew= 1.4270D+00 5.3330D-01
 Trust test= 9.41D-01 RLast= 1.78D-01 DXMaxT set to 8.49D-01
 ITU=  1  1  1  0  1  0
 Use linear search instead of GDIIS.
     Eigenvalues ---    0.00226   0.00452   0.03710   0.04802   0.05358
     Eigenvalues ---    0.05588   0.07694   0.08244   0.08842   0.12273
     Eigenvalues ---    0.15987   0.16016   0.17296   0.18610   0.21856
     Eigenvalues ---    0.22165   0.22391   0.24597   0.24882   0.25253
     Eigenvalues ---    0.27586   0.30513   0.33848   0.34046   0.34076
     Eigenvalues ---    0.34118   0.43675
 RFO step:  Lambda=-1.47200224D-04 EMin= 2.26478897D-03
 Quartic linear search produced a step of -0.02274.
 Iteration  1 RMS(Cart)=  0.02887613 RMS(Int)=  0.00040070
 Iteration  2 RMS(Cart)=  0.00044348 RMS(Int)=  0.00000474
 Iteration  3 RMS(Cart)=  0.00000009 RMS(Int)=  0.00000474
 ITry= 1 IFail=0 DXMaxC= 7.87D-02 DCOld= 1.00D+10 DXMaxT= 8.49D-01 DXLimC= 3.00D+00 Rises=F
 Variable       Old X    -DE/DX   Delta X   Delta X   Delta X     New X
                                 (Linear)    (Quad)   (Total)
    R1        2.87193  -0.00266   0.00012  -0.01000  -0.00988   2.86205
    R2        2.86857   0.00052   0.00018   0.00139   0.00157   2.87014
    R3        2.05408   0.00026   0.00003   0.00066   0.00069   2.05477
    R4        2.06137  -0.00026  -0.00010  -0.00035  -0.00045   2.06092
    R5        3.41864  -0.00038  -0.00044  -0.00109  -0.00153   3.41711
    R6        2.54263   0.00283   0.00081   0.00856   0.00937   2.55200
    R7        2.55658   0.00101   0.00058  -0.00085  -0.00027   2.55631
    R8        3.42512   0.00027   0.00021   0.00055   0.00076   3.42588
    R9        2.05114  -0.00020  -0.00001  -0.00060  -0.00060   2.05054
   R10        2.04967  -0.00017  -0.00001  -0.00046  -0.00048   2.04920
    A1        1.97593  -0.00054   0.00008  -0.00302  -0.00295   1.97298
    A2        1.88885  -0.00013   0.00011  -0.00450  -0.00440   1.88445
    A3        1.84028   0.00055  -0.00010   0.00700   0.00691   1.84719
    A4        1.94106   0.00021  -0.00012  -0.00077  -0.00091   1.94015
    A5        1.92427   0.00000  -0.00009   0.00162   0.00153   1.92580
    A6        1.88890  -0.00006   0.00011   0.00008   0.00020   1.88910
    A7        1.97424  -0.00017   0.00005  -0.00057  -0.00052   1.97372
    A8        1.91942   0.00012  -0.00019   0.00160   0.00141   1.92083
    A9        1.93269   0.00047  -0.00024   0.00378   0.00353   1.93622
   A10        1.88299  -0.00015   0.00010  -0.00244  -0.00234   1.88065
   A11        1.88200  -0.00034   0.00002  -0.00247  -0.00245   1.87954
   A12        1.86870   0.00006   0.00029  -0.00008   0.00020   1.86890
   A13        1.91730  -0.00011   0.00001  -0.00036  -0.00035   1.91695
   A14        1.95052  -0.00006   0.00004  -0.00088  -0.00084   1.94968
   A15        1.95342  -0.00007  -0.00009  -0.00006  -0.00014   1.95328
   A16        1.86423   0.00009  -0.00001   0.00075   0.00074   1.86497
   A17        1.86206   0.00013  -0.00005   0.00136   0.00131   1.86337
   A18        1.91211   0.00004   0.00009  -0.00067  -0.00059   1.91153
    D1        1.05173   0.00008  -0.00117   0.03621   0.03504   1.08677
    D2       -3.12491  -0.00014  -0.00115   0.03384   0.03270  -3.09221
    D3       -1.06309   0.00031  -0.00106   0.03706   0.03601  -1.02708
    D4       -1.10829   0.00028  -0.00116   0.04258   0.04141  -1.06688
    D5        0.99825   0.00006  -0.00114   0.04021   0.03907   1.03732
    D6        3.06007   0.00050  -0.00104   0.04343   0.04238   3.10246
    D7       -3.12640   0.00014  -0.00130   0.04109   0.03980  -3.08660
    D8       -1.01985  -0.00008  -0.00127   0.03873   0.03745  -0.98240
    D9        1.04197   0.00036  -0.00118   0.04194   0.04077   1.08274
   D10        3.06101   0.00030  -0.00057   0.03359   0.03302   3.09403
   D11        0.99502   0.00029  -0.00059   0.03344   0.03285   1.02787
   D12       -1.15707   0.00034  -0.00067   0.03502   0.03434  -1.12273
   D13       -1.09105  -0.00011  -0.00045   0.02492   0.02447  -1.06658
   D14        3.12615  -0.00011  -0.00047   0.02477   0.02430  -3.13274
   D15        0.97405  -0.00006  -0.00055   0.02635   0.02579   0.99985
   D16        1.00431  -0.00005  -0.00044   0.02559   0.02515   1.02946
   D17       -1.06168  -0.00006  -0.00046   0.02544   0.02497  -1.03670
   D18        3.06941  -0.00001  -0.00055   0.02701   0.02647   3.09588
         Item               Value     Threshold  Converged?
 Maximum Force            0.002834     0.000450     NO 
 RMS     Force            0.000640     0.000300     NO 
 Maximum Displacement     0.078694     0.001800     NO 
 RMS     Displacement     0.028868     0.001200     NO 
 Predicted change in Energy=-7.458165D-05
 Lowest energy point so far.  Saving SCF results.
 GradGradGradGradGradGradGradGradGradGradGradGradGradGradGradGradGradGrad

 Leave Link  103 at Thu Jun 13 12:23:04 2024, MaxMem=  1073741824 cpu:         6.9
 (Enter /apps/z_install_tree/linux-rocky8-ivybridge/gcc-12.2.0/gaussian-09-D.01-wczn3gur5lpur3omlkzwa2l5ecyxp5ef/g09/l202.exe)
                          Input orientation:                          
 ---------------------------------------------------------------------
 Center     Atomic      Atomic             Coordinates (Angstroms)
 Number     Number       Type             X           Y           Z
 ---------------------------------------------------------------------
      1          6           0       50.126600   35.360452   31.923879
      2          6           0       50.050587   35.604438   33.416696
      3          6           0       51.505923   35.628208   31.347197
      4         17           0       50.386513   37.321766   33.872478
      5          9           0       48.819944   35.289868   33.875291
      6          9           0       50.933452   34.822939   34.079806
      7         17           0       51.520088   35.233502   29.577844
      8          1           0       49.373301   35.980447   31.443829
      9          1           0       49.851425   34.315170   31.778773
     10          1           0       52.263591   35.007427   31.814109
     11          1           0       51.786576   36.671784   31.437098
 ---------------------------------------------------------------------
                    Distance matrix (angstroms):
                    1          2          3          4          5
     1  C    0.000000
     2  C    1.514533   0.000000
     3  C    1.518812   2.530098   0.000000
     4  Cl   2.776930   1.808258   3.240102   0.000000
     5  F    2.349540   1.350461   3.704082   2.565688   0.000000
     6  F    2.363884   1.352740   2.905742   2.566372   2.174113
     7  Cl   2.731630   4.127204   1.812899   4.908128   5.075628
     8  H    1.087337   2.119506   2.163675   2.953654   2.587491
     9  H    1.090592   2.093961   2.155851   3.702639   2.531675
    10  H    2.168734   2.796801   1.085098   3.621667   4.023301
    11  H    2.170730   2.841073   1.084388   2.883354   4.081101
                    6          7          8          9         10
     6  F    0.000000
     7  Cl   4.558548   0.000000
     8  H    3.274488   2.940837   0.000000
     9  H    2.592945   2.910645   1.764635   0.000000
    10  H    2.633760   2.367443   3.072077   2.509784   0.000000
    11  H    3.336159   2.365692   2.510357   3.068416   1.771938
                   11
    11  H    0.000000
 Symmetry turned off by external request.
 Stoichiometry    C3H4Cl2F2
 Framework group  C1[X(C3H4Cl2F2)]
 Deg. of freedom    27
 Full point group                 C1      NOp   1
 Rotational constants (GHZ):      3.1536105      0.8285358      0.7591881
 Leave Link  202 at Thu Jun 13 12:23:04 2024, MaxMem=  1073741824 cpu:         1.1
 (Enter /apps/z_install_tree/linux-rocky8-ivybridge/gcc-12.2.0/gaussian-09-D.01-wczn3gur5lpur3omlkzwa2l5ecyxp5ef/g09/l301.exe)
 Basis read from rwf:  (5D, 7F)
 No pseudopotential information found on rwf file.
   241 basis functions,   372 primitive gaussians,   255 cartesian basis functions
    37 alpha electrons       37 beta electrons
       nuclear repulsion energy       454.5981241426 Hartrees.
 IExCor=  402 DFT=T Ex+Corr=B3LYP ExCW=0 ScaHFX=  0.200000
 ScaDFX=  0.800000  0.720000  1.000000  0.810000 ScalE2=  1.000000  1.000000
 IRadAn=      5 IRanWt=     -1 IRanGd=            0 ICorTp=0 IEmpDi=131
 NAtoms=   11 NActive=   11 NUniq=   11 SFac= 1.00D+00 NAtFMM=   60 NAOKFM=F Big=F
 Integral buffers will be    131072 words long.
 Raffenetti 2 integral format.
 Two-electron integral symmetry is turned off.
 R6Disp:  Grimme-D3 Dispersion energy=       -0.0098379336 Hartrees.
 Nuclear repulsion after empirical dispersion term =      454.5882862090 Hartrees.
 No density basis found on file   724.
 Leave Link  301 at Thu Jun 13 12:23:05 2024, MaxMem=  1073741824 cpu:         1.5
 (Enter /apps/z_install_tree/linux-rocky8-ivybridge/gcc-12.2.0/gaussian-09-D.01-wczn3gur5lpur3omlkzwa2l5ecyxp5ef/g09/l302.exe)
 NPDir=0 NMtPBC=     1 NCelOv=     1 NCel=       1 NClECP=     1 NCelD=      1
         NCelK=      1 NCelE2=     1 NClLst=     1 CellRange=     0.0.
 One-electron integrals computed using PRISM.
 NBasis=   241 RedAO= T EigKep=  2.40D-05  NBF=   241
 NBsUse=   241 1.00D-06 EigRej= -1.00D+00 NBFU=   241
 Precomputing XC quadrature grid using
 IXCGrd= 4 IRadAn=           5 IRanWt=          -1 IRanGd=           0 AccXCQ= 0.00D+00.
 Generated NRdTot=       0 NPtTot=           0 NUsed=           0 NTot=          32
 NSgBfM=   254   254   255   255   255 MxSgAt=    11 MxSgA2=    11.
 Leave Link  302 at Thu Jun 13 12:23:05 2024, MaxMem=  1073741824 cpu:         3.0
 (Enter /apps/z_install_tree/linux-rocky8-ivybridge/gcc-12.2.0/gaussian-09-D.01-wczn3gur5lpur3omlkzwa2l5ecyxp5ef/g09/l303.exe)
 DipDrv:  MaxL=1.
 Leave Link  303 at Thu Jun 13 12:23:05 2024, MaxMem=  1073741824 cpu:         1.7
 (Enter /apps/z_install_tree/linux-rocky8-ivybridge/gcc-12.2.0/gaussian-09-D.01-wczn3gur5lpur3omlkzwa2l5ecyxp5ef/g09/l401.exe)
 Initial guess from the checkpoint file:  "dichlorodifluoropropane.chk"
 B after Tr=     1.177628   -2.181192    0.614772
         Rot=    0.999944    0.002148   -0.001731   -0.010212 Ang=   1.21 deg.
 Guess basis will be translated and rotated to current coordinates.
 JPrj=2 DoOrth=T DoCkMO=T.
 Generating alternative initial guess.
 ExpMin= 4.38D-02 ExpMax= 1.06D+05 ExpMxC= 3.62D+03 IAcc=2 IRadAn=         4 AccDes= 0.00D+00
 Harris functional with IExCor=  402 and IRadAn=       4 diagonalized for initial guess.
 HarFok:  IExCor=  402 AccDes= 0.00D+00 IRadAn=         4 IDoV= 1 UseB2=F ITyADJ=14
 ICtDFT=  3500011 ScaDFX=  1.000000  1.000000  1.000000  1.000000
 FoFCou: FMM=F IPFlag=           0 FMFlag=      100000 FMFlg1=           0
         NFxFlg=           0 DoJE=T BraDBF=F KetDBF=T FulRan=T
         wScrn=  0.000000 ICntrl=     500 IOpCl=  0 I1Cent=   200000004 NGrid=           0
         NMat0=    1 NMatS0=      1 NMatT0=    0 NMatD0=    1 NMtDS0=    0 NMtDT0=    0
 Symmetry not used in FoFCou.
 Harris En= -1236.85523879765    
 Leave Link  401 at Thu Jun 13 12:23:06 2024, MaxMem=  1073741824 cpu:         7.2
 (Enter /apps/z_install_tree/linux-rocky8-ivybridge/gcc-12.2.0/gaussian-09-D.01-wczn3gur5lpur3omlkzwa2l5ecyxp5ef/g09/l502.exe)
 Closed shell SCF:
 Using DIIS extrapolation, IDIIS=  1040.
 Two-electron integral symmetry not used.
 Keep R1 ints in memory in canonical form, NReq=433797970.
 IVT=      212949 IEndB=      212949 NGot=  1073741824 MDV=   648332335
 LenX=   648332335 LenY=   648266869
 Requested convergence on RMS density matrix=1.00D-08 within  96 cycles.
 Requested convergence on MAX density matrix=1.00D-06.
 Requested convergence on             energy=1.00D-06.
 No special actions if energy rises.
 FoFCou: FMM=F IPFlag=           0 FMFlag=           0 FMFlg1=           0
         NFxFlg=           0 DoJE=F BraDBF=F KetDBF=F FulRan=T
         wScrn=  0.000000 ICntrl=     600 IOpCl=  0 I1Cent=           0 NGrid=           0
         NMat0=    1 NMatS0=  29161 NMatT0=    0 NMatD0=    1 NMtDS0=    0 NMtDT0=    0
 Symmetry not used in FoFCou.

 Cycle   1  Pass 1  IDiag  1:
 E= -1236.99010373682    
 DIIS: error= 1.50D-03 at cycle   1 NSaved=   1.
 NSaved= 1 IEnMin= 1 EnMin= -1236.99010373682     IErMin= 1 ErrMin= 1.50D-03
 ErrMax= 1.50D-03  0.00D+00 EMaxC= 1.00D-01 BMatC= 7.81D-04 BMatP= 7.81D-04
 IDIUse=3 WtCom= 9.85D-01 WtEn= 1.50D-02
 Coeff-Com:  0.100D+01
 Coeff-En:   0.100D+01
 Coeff:      0.100D+01
 Gap=     0.543 Goal=   None    Shift=    0.000
 GapD=    0.543 DampG=2.000 DampE=1.000 DampFc=2.0000 IDamp=-1.
 RMSDP=4.23D-04 MaxDP=2.42D-02              OVMax= 1.14D-02

 Cycle   2  Pass 1  IDiag  1:
 E= -1236.99131353235     Delta-E=       -0.001209795536 Rises=F Damp=F
 DIIS: error= 1.74D-04 at cycle   2 NSaved=   2.
 NSaved= 2 IEnMin= 2 EnMin= -1236.99131353235     IErMin= 2 ErrMin= 1.74D-04
 ErrMax= 1.74D-04  0.00D+00 EMaxC= 1.00D-01 BMatC= 1.08D-05 BMatP= 7.81D-04
 IDIUse=3 WtCom= 9.98D-01 WtEn= 1.74D-03
 Coeff-Com: -0.530D-01 0.105D+01
 Coeff-En:   0.000D+00 0.100D+01
 Coeff:     -0.529D-01 0.105D+01
 Gap=     0.291 Goal=   None    Shift=    0.000
 RMSDP=5.24D-05 MaxDP=3.67D-03 DE=-1.21D-03 OVMax= 1.50D-03

 Cycle   3  Pass 1  IDiag  1:
 E= -1236.99132108078     Delta-E=       -0.000007548424 Rises=F Damp=F
 DIIS: error= 1.30D-04 at cycle   3 NSaved=   3.
 NSaved= 3 IEnMin= 3 EnMin= -1236.99132108078     IErMin= 3 ErrMin= 1.30D-04
 ErrMax= 1.30D-04  0.00D+00 EMaxC= 1.00D-01 BMatC= 1.16D-05 BMatP= 1.08D-05
 IDIUse=3 WtCom= 9.99D-01 WtEn= 1.30D-03
 Coeff-Com: -0.375D-01 0.572D+00 0.465D+00
 Coeff-En:   0.000D+00 0.160D+00 0.840D+00
 Coeff:     -0.374D-01 0.572D+00 0.466D+00
 Gap=     0.291 Goal=   None    Shift=    0.000
 RMSDP=2.12D-05 MaxDP=1.46D-03 DE=-7.55D-06 OVMax= 6.25D-04

 Cycle   4  Pass 1  IDiag  1:
 E= -1236.99132862950     Delta-E=       -0.000007548722 Rises=F Damp=F
 DIIS: error= 4.13D-05 at cycle   4 NSaved=   4.
 NSaved= 4 IEnMin= 4 EnMin= -1236.99132862950     IErMin= 4 ErrMin= 4.13D-05
 ErrMax= 4.13D-05  0.00D+00 EMaxC= 1.00D-01 BMatC= 5.94D-07 BMatP= 1.08D-05
 IDIUse=1 WtCom= 1.00D+00 WtEn= 0.00D+00
 Coeff-Com: -0.861D-02 0.110D+00 0.209D+00 0.689D+00
 Coeff:     -0.861D-02 0.110D+00 0.209D+00 0.689D+00
 Gap=     0.291 Goal=   None    Shift=    0.000
 RMSDP=5.20D-06 MaxDP=2.85D-04 DE=-7.55D-06 OVMax= 1.55D-04

 Cycle   5  Pass 1  IDiag  1:
 E= -1236.99132900189     Delta-E=       -0.000000372394 Rises=F Damp=F
 DIIS: error= 1.05D-05 at cycle   5 NSaved=   5.
 NSaved= 5 IEnMin= 5 EnMin= -1236.99132900189     IErMin= 5 ErrMin= 1.05D-05
 ErrMax= 1.05D-05  0.00D+00 EMaxC= 1.00D-01 BMatC= 5.56D-08 BMatP= 5.94D-07
 IDIUse=1 WtCom= 1.00D+00 WtEn= 0.00D+00
 Coeff-Com: -0.795D-03 0.341D-03 0.573D-01 0.327D+00 0.616D+00
 Coeff:     -0.795D-03 0.341D-03 0.573D-01 0.327D+00 0.616D+00
 Gap=     0.291 Goal=   None    Shift=    0.000
 RMSDP=2.70D-06 MaxDP=1.53D-04 DE=-3.72D-07 OVMax= 4.38D-05

 Cycle   6  Pass 1  IDiag  1:
 E= -1236.99132905168     Delta-E=       -0.000000049789 Rises=F Damp=F
 DIIS: error= 2.15D-06 at cycle   6 NSaved=   6.
 NSaved= 6 IEnMin= 6 EnMin= -1236.99132905168     IErMin= 6 ErrMin= 2.15D-06
 ErrMax= 2.15D-06  0.00D+00 EMaxC= 1.00D-01 BMatC= 1.94D-09 BMatP= 5.56D-08
 IDIUse=1 WtCom= 1.00D+00 WtEn= 0.00D+00
 Coeff-Com:  0.131D-03-0.627D-02 0.126D-01 0.101D+00 0.245D+00 0.648D+00
 Coeff:      0.131D-03-0.627D-02 0.126D-01 0.101D+00 0.245D+00 0.648D+00
 Gap=     0.291 Goal=   None    Shift=    0.000
 RMSDP=3.83D-07 MaxDP=2.12D-05 DE=-4.98D-08 OVMax= 1.22D-05

 Cycle   7  Pass 1  IDiag  1:
 E= -1236.99132905317     Delta-E=       -0.000000001489 Rises=F Damp=F
 DIIS: error= 7.80D-07 at cycle   7 NSaved=   7.
 NSaved= 7 IEnMin= 7 EnMin= -1236.99132905317     IErMin= 7 ErrMin= 7.80D-07
 ErrMax= 7.80D-07  0.00D+00 EMaxC= 1.00D-01 BMatC= 3.17D-10 BMatP= 1.94D-09
 IDIUse=1 WtCom= 1.00D+00 WtEn= 0.00D+00
 Coeff-Com:  0.120D-03-0.320D-02 0.222D-02 0.272D-01 0.772D-01 0.340D+00
 Coeff-Com:  0.556D+00
 Coeff:      0.120D-03-0.320D-02 0.222D-02 0.272D-01 0.772D-01 0.340D+00
 Coeff:      0.556D+00
 Gap=     0.291 Goal=   None    Shift=    0.000
 RMSDP=1.16D-07 MaxDP=4.96D-06 DE=-1.49D-09 OVMax= 4.39D-06

 Cycle   8  Pass 1  IDiag  1:
 E= -1236.99132905340     Delta-E=       -0.000000000233 Rises=F Damp=F
 DIIS: error= 1.45D-07 at cycle   8 NSaved=   8.
 NSaved= 8 IEnMin= 8 EnMin= -1236.99132905340     IErMin= 8 ErrMin= 1.45D-07
 ErrMax= 1.45D-07  0.00D+00 EMaxC= 1.00D-01 BMatC= 1.61D-11 BMatP= 3.17D-10
 IDIUse=1 WtCom= 1.00D+00 WtEn= 0.00D+00
 Coeff-Com:  0.480D-04-0.109D-02 0.280D-03 0.642D-02 0.198D-01 0.117D+00
 Coeff-Com:  0.259D+00 0.598D+00
 Coeff:      0.480D-04-0.109D-02 0.280D-03 0.642D-02 0.198D-01 0.117D+00
 Coeff:      0.259D+00 0.598D+00
 Gap=     0.291 Goal=   None    Shift=    0.000
 RMSDP=2.97D-08 MaxDP=2.07D-06 DE=-2.33D-10 OVMax= 6.74D-07

 Cycle   9  Pass 1  IDiag  1:
 E= -1236.99132905341     Delta-E=       -0.000000000005 Rises=F Damp=F
 DIIS: error= 6.09D-08 at cycle   9 NSaved=   9.
 NSaved= 9 IEnMin= 9 EnMin= -1236.99132905341     IErMin= 9 ErrMin= 6.09D-08
 ErrMax= 6.09D-08  0.00D+00 EMaxC= 1.00D-01 BMatC= 2.04D-12 BMatP= 1.61D-11
 IDIUse=1 WtCom= 1.00D+00 WtEn= 0.00D+00
 Coeff-Com:  0.685D-05-0.812D-04-0.238D-03-0.104D-02-0.195D-02 0.107D-01
 Coeff-Com:  0.555D-01 0.300D+00 0.638D+00
 Coeff:      0.685D-05-0.812D-04-0.238D-03-0.104D-02-0.195D-02 0.107D-01
 Coeff:      0.555D-01 0.300D+00 0.638D+00
 Gap=     0.291 Goal=   None    Shift=    0.000
 RMSDP=1.07D-08 MaxDP=4.93D-07 DE=-5.46D-12 OVMax= 2.23D-07

 Cycle  10  Pass 1  IDiag  1:
 E= -1236.99132905341     Delta-E=       -0.000000000004 Rises=F Damp=F
 DIIS: error= 1.11D-08 at cycle  10 NSaved=  10.
 NSaved=10 IEnMin=10 EnMin= -1236.99132905341     IErMin=10 ErrMin= 1.11D-08
 ErrMax= 1.11D-08  0.00D+00 EMaxC= 1.00D-01 BMatC= 7.97D-14 BMatP= 2.04D-12
 IDIUse=1 WtCom= 1.00D+00 WtEn= 0.00D+00
 Coeff-Com:  0.859D-06 0.132D-04-0.909D-04-0.620D-03-0.154D-02-0.133D-02
 Coeff-Com:  0.102D-01 0.874D-01 0.259D+00 0.647D+00
 Coeff:      0.859D-06 0.132D-04-0.909D-04-0.620D-03-0.154D-02-0.133D-02
 Coeff:      0.102D-01 0.874D-01 0.259D+00 0.647D+00
 Gap=     0.291 Goal=   None    Shift=    0.000
 RMSDP=3.28D-09 MaxDP=2.75D-07 DE=-3.64D-12 OVMax= 6.57D-08

 SCF Done:  E(RB3LYP) =  -1236.99132905     A.U. after   10 cycles
            NFock= 10  Conv=0.33D-08     -V/T= 2.0026
 KE= 1.233760377504D+03 PE=-3.844107354458D+03 EE= 9.187673616909D+02
 Leave Link  502 at Thu Jun 13 12:23:17 2024, MaxMem=  1073741824 cpu:       113.8
 (Enter /apps/z_install_tree/linux-rocky8-ivybridge/gcc-12.2.0/gaussian-09-D.01-wczn3gur5lpur3omlkzwa2l5ecyxp5ef/g09/l508.exe)
 QCSCF skips out because SCF is already converged.
 Leave Link  508 at Thu Jun 13 12:23:17 2024, MaxMem=  1073741824 cpu:         0.0
 (Enter /apps/z_install_tree/linux-rocky8-ivybridge/gcc-12.2.0/gaussian-09-D.01-wczn3gur5lpur3omlkzwa2l5ecyxp5ef/g09/l701.exe)
 Compute integral first derivatives.
 ... and contract with generalized density number  0.
 R6Disp: Adding Grimme-D3 dispersion energy 1st derivatives to the gradient.
 Leave Link  701 at Thu Jun 13 12:23:17 2024, MaxMem=  1073741824 cpu:         2.1
 (Enter /apps/z_install_tree/linux-rocky8-ivybridge/gcc-12.2.0/gaussian-09-D.01-wczn3gur5lpur3omlkzwa2l5ecyxp5ef/g09/l702.exe)
 L702 exits ... SP integral derivatives will be done elsewhere.
 Leave Link  702 at Thu Jun 13 12:23:17 2024, MaxMem=  1073741824 cpu:         0.2
 (Enter /apps/z_install_tree/linux-rocky8-ivybridge/gcc-12.2.0/gaussian-09-D.01-wczn3gur5lpur3omlkzwa2l5ecyxp5ef/g09/l703.exe)
 Compute integral first derivatives, UseDBF=F ICtDFT=           0.
 Integral derivatives from FoFJK, PRISM(SPDF).
 Calling FoFJK, ICntrl=      2127 FMM=F ISym2X=0 I1Cent= 0 IOpClX= 0 NMat=1 NMatS=1 NMatT=0.
 FoFJK:  IHMeth= 1 ICntrl=    2127 DoSepK=F KAlg= 0 I1Cent=   0 FoldK=F
 IRaf=         0 NMat=   1 IRICut=       1 DoRegI=T DoRafI=F ISym2E= 0.
 FoFCou: FMM=F IPFlag=           0 FMFlag=      100000 FMFlg1=         800
         NFxFlg=           0 DoJE=F BraDBF=F KetDBF=F FulRan=T
         wScrn=  0.000000 ICntrl=    2127 IOpCl=  0 I1Cent=           0 NGrid=           0
         NMat0=    1 NMatS0=      1 NMatT0=    0 NMatD0=    1 NMtDS0=    0 NMtDT0=    0
 Symmetry not used in FoFCou.
 Leave Link  703 at Thu Jun 13 12:23:19 2024, MaxMem=  1073741824 cpu:        37.7
 (Enter /apps/z_install_tree/linux-rocky8-ivybridge/gcc-12.2.0/gaussian-09-D.01-wczn3gur5lpur3omlkzwa2l5ecyxp5ef/g09/l716.exe)
 Dipole        = 3.83735095D-02 5.70372385D-02-1.04581957D-01
 -------------------------------------------------------------------
 Center     Atomic                   Forces (Hartrees/Bohr)
 Number     Number              X              Y              Z
 -------------------------------------------------------------------
      1        6          -0.000781148   -0.000375586    0.000739689
      2        6          -0.000164611    0.000588063   -0.000462052
      3        6           0.000407387    0.000047215   -0.000080772
      4       17          -0.000158181   -0.000038869   -0.000152826
      5        9           0.000162916   -0.000036107   -0.000173276
      6        9           0.000557750   -0.000580645    0.000573710
      7       17          -0.000002605   -0.000021177    0.000036151
      8        1           0.000152041    0.000136176   -0.000241871
      9        1          -0.000022875    0.000210293   -0.000178100
     10        1          -0.000078785   -0.000030936   -0.000084354
     11        1          -0.000071889    0.000101573    0.000023702
 -------------------------------------------------------------------
 Cartesian Forces:  Max     0.000781148 RMS     0.000318775
 Leave Link  716 at Thu Jun 13 12:23:20 2024, MaxMem=  1073741824 cpu:         0.7
 (Enter /apps/z_install_tree/linux-rocky8-ivybridge/gcc-12.2.0/gaussian-09-D.01-wczn3gur5lpur3omlkzwa2l5ecyxp5ef/g09/l103.exe)

 GradGradGradGradGradGradGradGradGradGradGradGradGradGradGradGradGradGrad
 Berny optimization.
 Using GEDIIS/GDIIS optimizer.
 FormGI is forming the generalized inverse of G from B-inverse, IUseBI=4.
 Internal  Forces:  Max     0.000980709 RMS     0.000197831
 Search for a local minimum.
 Step number   7 out of a maximum of   56
 All quantities printed in internal units (Hartrees-Bohrs-Radians)
 RMS Force = .19783D-03 SwitMx=.10000D-02 MixMth= 2
 Mixed Optimization -- En-DIIS/RFO-DIIS
 Swapping is turned off.
 Update second derivatives using D2CorX and points    4    5    6    7
 DE= -8.50D-05 DEPred=-7.46D-05 R= 1.14D+00
 TightC=F SS=  1.41D+00  RLast= 1.44D-01 DXNew= 1.4270D+00 4.3206D-01
 Trust test= 1.14D+00 RLast= 1.44D-01 DXMaxT set to 8.49D-01
 ITU=  1  1  1  1  0  1  0
     Eigenvalues ---    0.00223   0.00365   0.03656   0.04803   0.05395
     Eigenvalues ---    0.05589   0.07807   0.08224   0.08762   0.12333
     Eigenvalues ---    0.15994   0.16022   0.17909   0.19696   0.21855
     Eigenvalues ---    0.22022   0.22380   0.24386   0.24716   0.25589
     Eigenvalues ---    0.27596   0.30808   0.33863   0.34046   0.34087
     Eigenvalues ---    0.34200   0.43263
 En-DIIS/RFO-DIIS IScMMF=        0 using points:     7    6
 RFO step:  Lambda=-4.72468048D-06.
 NNeg= 0 NP= 2 Switch=  2.50D-03 Rises=F DC=  8.50D-05 SmlDif=  1.00D-05
 RMS Error=  0.6738430943D-03 NUsed= 2 EDIIS=F
 DidBck=F Rises=F RFO-DIIS coefs:    1.18272   -0.18272
 Iteration  1 RMS(Cart)=  0.01092495 RMS(Int)=  0.00005598
 Iteration  2 RMS(Cart)=  0.00006180 RMS(Int)=  0.00000158
 Iteration  3 RMS(Cart)=  0.00000000 RMS(Int)=  0.00000158
 ITry= 1 IFail=0 DXMaxC= 3.58D-02 DCOld= 1.00D+10 DXMaxT= 8.49D-01 DXLimC= 3.00D+00 Rises=F
 Variable       Old X    -DE/DX   Delta X   Delta X   Delta X     New X
                                 (Linear)    (Quad)   (Total)
    R1        2.86205  -0.00024  -0.00181  -0.00064  -0.00244   2.85961
    R2        2.87014   0.00029   0.00029   0.00099   0.00128   2.87142
    R3        2.05477   0.00008   0.00013   0.00021   0.00034   2.05511
    R4        2.06092  -0.00017  -0.00008  -0.00045  -0.00054   2.06038
    R5        3.41711  -0.00010  -0.00028  -0.00021  -0.00049   3.41663
    R6        2.55200  -0.00020   0.00171  -0.00368  -0.00197   2.55003
    R7        2.55631   0.00098  -0.00005   0.00525   0.00520   2.56151
    R8        3.42588  -0.00003   0.00014  -0.00042  -0.00028   3.42560
    R9        2.05054  -0.00007  -0.00011  -0.00021  -0.00032   2.05022
   R10        2.04920   0.00008  -0.00009   0.00033   0.00024   2.04944
    A1        1.97298  -0.00021  -0.00054  -0.00096  -0.00150   1.97148
    A2        1.88445   0.00020  -0.00080   0.00159   0.00078   1.88523
    A3        1.84719   0.00019   0.00126   0.00258   0.00385   1.85103
    A4        1.94015  -0.00013  -0.00017  -0.00250  -0.00267   1.93748
    A5        1.92580   0.00001   0.00028   0.00002   0.00030   1.92610
    A6        1.88910  -0.00004   0.00004  -0.00046  -0.00042   1.88868
    A7        1.97372  -0.00026  -0.00009  -0.00097  -0.00107   1.97265
    A8        1.92083  -0.00026   0.00026  -0.00173  -0.00148   1.91935
    A9        1.93622   0.00030   0.00065   0.00216   0.00280   1.93902
   A10        1.88065   0.00014  -0.00043  -0.00036  -0.00079   1.87986
   A11        1.87954   0.00012  -0.00045   0.00179   0.00134   1.88088
   A12        1.86890  -0.00004   0.00004  -0.00089  -0.00085   1.86805
   A13        1.91695  -0.00002  -0.00006  -0.00020  -0.00027   1.91669
   A14        1.94968   0.00000  -0.00015   0.00001  -0.00014   1.94954
   A15        1.95328  -0.00011  -0.00003  -0.00055  -0.00057   1.95270
   A16        1.86497  -0.00002   0.00014  -0.00051  -0.00038   1.86459
   A17        1.86337   0.00006   0.00024   0.00035   0.00059   1.86396
   A18        1.91153   0.00009  -0.00011   0.00091   0.00080   1.91233
    D1        1.08677   0.00011   0.00640   0.01124   0.01764   1.10441
    D2       -3.09221  -0.00006   0.00597   0.00888   0.01486  -3.07735
    D3       -1.02708  -0.00008   0.00658   0.00803   0.01461  -1.01247
    D4       -1.06688   0.00027   0.00757   0.01392   0.02148  -1.04539
    D5        1.03732   0.00010   0.00714   0.01157   0.01871   1.05603
    D6        3.10246   0.00008   0.00774   0.01071   0.01846   3.12091
    D7       -3.08660   0.00013   0.00727   0.01241   0.01968  -3.06691
    D8       -0.98240  -0.00005   0.00684   0.01006   0.01691  -0.96549
    D9        1.08274  -0.00006   0.00745   0.00921   0.01666   1.09939
   D10        3.09403   0.00002   0.00603   0.00186   0.00790   3.10193
   D11        1.02787   0.00006   0.00600   0.00263   0.00863   1.03650
   D12       -1.12273   0.00002   0.00628   0.00183   0.00810  -1.11463
   D13       -1.06658   0.00004   0.00447   0.00141   0.00588  -1.06070
   D14       -3.13274   0.00008   0.00444   0.00217   0.00661  -3.12613
   D15        0.99985   0.00004   0.00471   0.00137   0.00609   1.00593
   D16        1.02946  -0.00009   0.00459  -0.00079   0.00380   1.03326
   D17       -1.03670  -0.00005   0.00456  -0.00003   0.00453  -1.03217
   D18        3.09588  -0.00009   0.00484  -0.00083   0.00401   3.09989
         Item               Value     Threshold  Converged?
 Maximum Force            0.000981     0.000450     NO 
 RMS     Force            0.000198     0.000300     YES
 Maximum Displacement     0.035776     0.001800     NO 
 RMS     Displacement     0.010923     0.001200     NO 
 Predicted change in Energy=-1.044540D-05
 Lowest energy point so far.  Saving SCF results.
 GradGradGradGradGradGradGradGradGradGradGradGradGradGradGradGradGradGrad

 Leave Link  103 at Thu Jun 13 12:23:20 2024, MaxMem=  1073741824 cpu:         7.4
 (Enter /apps/z_install_tree/linux-rocky8-ivybridge/gcc-12.2.0/gaussian-09-D.01-wczn3gur5lpur3omlkzwa2l5ecyxp5ef/g09/l202.exe)
                          Input orientation:                          
 ---------------------------------------------------------------------
 Center     Atomic      Atomic             Coordinates (Angstroms)
 Number     Number       Type             X           Y           Z
 ---------------------------------------------------------------------
      1          6           0       50.125696   35.361252   31.924610
      2          6           0       50.051990   35.605941   33.416117
      3          6           0       51.507139   35.623275   31.348585
      4         17           0       50.367581   37.328239   33.866625
      5          9           0       48.826453   35.279145   33.876762
      6          9           0       50.945277   34.833894   34.081951
      7         17           0       51.516762   35.241084   29.576610
      8          1           0       49.377596   35.987168   31.443709
      9          1           0       49.844258   34.318454   31.775824
     10          1           0       52.260276   34.993219   31.809976
     11          1           0       51.794973   36.664330   31.446230
 ---------------------------------------------------------------------
                    Distance matrix (angstroms):
                    1          2          3          4          5
     1  C    0.000000
     2  C    1.513240   0.000000
     3  C    1.519489   2.528329   0.000000
     4  Cl   2.774701   1.808001   3.247464   0.000000
     5  F    2.346416   1.349418   3.700836   2.563974   0.000000
     6  F    2.367264   1.355490   2.900018   2.569408   2.174802
     7  Cl   2.731778   4.125590   1.812748   4.907246   5.072526
     8  H    1.087516   2.119088   2.162503   2.940928   2.593222
     9  H    1.090308   2.095551   2.156447   3.701908   2.524439
    10  H    2.169106   2.798507   1.084928   3.642035   4.018022
    11  H    2.171025   2.835249   1.084517   2.887307   4.079012
                    6          7          8          9         10
     6  F    0.000000
     7  Cl   4.559660   0.000000
     8  H    3.278412   2.935768   0.000000
     9  H    2.606941   2.912912   1.764279   0.000000
    10  H    2.629920   2.366892   3.071145   2.508708   0.000000
    11  H    3.319565   2.366116   2.510432   3.068722   1.772408
                   11
    11  H    0.000000
 Symmetry turned off by external request.
 Stoichiometry    C3H4Cl2F2
 Framework group  C1[X(C3H4Cl2F2)]
 Deg. of freedom    27
 Full point group                 C1      NOp   1
 Rotational constants (GHZ):      3.1513811      0.8285081      0.7596953
 Leave Link  202 at Thu Jun 13 12:23:20 2024, MaxMem=  1073741824 cpu:         0.9
 (Enter /apps/z_install_tree/linux-rocky8-ivybridge/gcc-12.2.0/gaussian-09-D.01-wczn3gur5lpur3omlkzwa2l5ecyxp5ef/g09/l301.exe)
 Basis read from rwf:  (5D, 7F)
 No pseudopotential information found on rwf file.
   241 basis functions,   372 primitive gaussians,   255 cartesian basis functions
    37 alpha electrons       37 beta electrons
       nuclear repulsion energy       454.5857625758 Hartrees.
 IExCor=  402 DFT=T Ex+Corr=B3LYP ExCW=0 ScaHFX=  0.200000
 ScaDFX=  0.800000  0.720000  1.000000  0.810000 ScalE2=  1.000000  1.000000
 IRadAn=      5 IRanWt=     -1 IRanGd=            0 ICorTp=0 IEmpDi=131
 NAtoms=   11 NActive=   11 NUniq=   11 SFac= 1.00D+00 NAtFMM=   60 NAOKFM=F Big=F
 Integral buffers will be    131072 words long.
 Raffenetti 2 integral format.
 Two-electron integral symmetry is turned off.
 R6Disp:  Grimme-D3 Dispersion energy=       -0.0098405288 Hartrees.
 Nuclear repulsion after empirical dispersion term =      454.5759220469 Hartrees.
 No density basis found on file   724.
 Leave Link  301 at Thu Jun 13 12:23:21 2024, MaxMem=  1073741824 cpu:         1.2
 (Enter /apps/z_install_tree/linux-rocky8-ivybridge/gcc-12.2.0/gaussian-09-D.01-wczn3gur5lpur3omlkzwa2l5ecyxp5ef/g09/l302.exe)
 NPDir=0 NMtPBC=     1 NCelOv=     1 NCel=       1 NClECP=     1 NCelD=      1
         NCelK=      1 NCelE2=     1 NClLst=     1 CellRange=     0.0.
 One-electron integrals computed using PRISM.
 NBasis=   241 RedAO= T EigKep=  2.39D-05  NBF=   241
 NBsUse=   241 1.00D-06 EigRej= -1.00D+00 NBFU=   241
 Precomputing XC quadrature grid using
 IXCGrd= 4 IRadAn=           5 IRanWt=          -1 IRanGd=           0 AccXCQ= 0.00D+00.
 Generated NRdTot=       0 NPtTot=           0 NUsed=           0 NTot=          32
 NSgBfM=   255   255   255   255   255 MxSgAt=    11 MxSgA2=    11.
 Leave Link  302 at Thu Jun 13 12:23:21 2024, MaxMem=  1073741824 cpu:         7.7
 (Enter /apps/z_install_tree/linux-rocky8-ivybridge/gcc-12.2.0/gaussian-09-D.01-wczn3gur5lpur3omlkzwa2l5ecyxp5ef/g09/l303.exe)
 DipDrv:  MaxL=1.
 Leave Link  303 at Thu Jun 13 12:23:21 2024, MaxMem=  1073741824 cpu:         1.2
 (Enter /apps/z_install_tree/linux-rocky8-ivybridge/gcc-12.2.0/gaussian-09-D.01-wczn3gur5lpur3omlkzwa2l5ecyxp5ef/g09/l401.exe)
 Initial guess from the checkpoint file:  "dichlorodifluoropropane.chk"
 B after Tr=     0.510718   -0.966068    0.275370
         Rot=    0.999990    0.001181   -0.000612   -0.004339 Ang=   0.52 deg.
 Guess basis will be translated and rotated to current coordinates.
 JPrj=2 DoOrth=T DoCkMO=T.
 Generating alternative initial guess.
 ExpMin= 4.38D-02 ExpMax= 1.06D+05 ExpMxC= 3.62D+03 IAcc=2 IRadAn=         4 AccDes= 0.00D+00
 Harris functional with IExCor=  402 and IRadAn=       4 diagonalized for initial guess.
 HarFok:  IExCor=  402 AccDes= 0.00D+00 IRadAn=         4 IDoV= 1 UseB2=F ITyADJ=14
 ICtDFT=  3500011 ScaDFX=  1.000000  1.000000  1.000000  1.000000
 FoFCou: FMM=F IPFlag=           0 FMFlag=      100000 FMFlg1=           0
         NFxFlg=           0 DoJE=T BraDBF=F KetDBF=T FulRan=T
         wScrn=  0.000000 ICntrl=     500 IOpCl=  0 I1Cent=   200000004 NGrid=           0
         NMat0=    1 NMatS0=      1 NMatT0=    0 NMatD0=    1 NMtDS0=    0 NMtDT0=    0
 Symmetry not used in FoFCou.
 Harris En= -1236.85530743024    
 Leave Link  401 at Thu Jun 13 12:23:22 2024, MaxMem=  1073741824 cpu:        12.4
 (Enter /apps/z_install_tree/linux-rocky8-ivybridge/gcc-12.2.0/gaussian-09-D.01-wczn3gur5lpur3omlkzwa2l5ecyxp5ef/g09/l502.exe)
 Closed shell SCF:
 Using DIIS extrapolation, IDIIS=  1040.
 Two-electron integral symmetry not used.
 Keep R1 ints in memory in canonical form, NReq=433797970.
 IVT=      212949 IEndB=      212949 NGot=  1073741824 MDV=   648332335
 LenX=   648332335 LenY=   648266869
 Requested convergence on RMS density matrix=1.00D-08 within  96 cycles.
 Requested convergence on MAX density matrix=1.00D-06.
 Requested convergence on             energy=1.00D-06.
 No special actions if energy rises.
 FoFCou: FMM=F IPFlag=           0 FMFlag=           0 FMFlg1=           0
         NFxFlg=           0 DoJE=F BraDBF=F KetDBF=F FulRan=T
         wScrn=  0.000000 ICntrl=     600 IOpCl=  0 I1Cent=           0 NGrid=           0
         NMat0=    1 NMatS0=  29161 NMatT0=    0 NMatD0=    1 NMtDS0=    0 NMtDT0=    0
 Symmetry not used in FoFCou.

 Cycle   1  Pass 1  IDiag  1:
 E= -1236.99114637434    
 DIIS: error= 6.75D-04 at cycle   1 NSaved=   1.
 NSaved= 1 IEnMin= 1 EnMin= -1236.99114637434     IErMin= 1 ErrMin= 6.75D-04
 ErrMax= 6.75D-04  0.00D+00 EMaxC= 1.00D-01 BMatC= 1.23D-04 BMatP= 1.23D-04
 IDIUse=3 WtCom= 9.93D-01 WtEn= 6.75D-03
 Coeff-Com:  0.100D+01
 Coeff-En:   0.100D+01
 Coeff:      0.100D+01
 Gap=     0.544 Goal=   None    Shift=    0.000
 RMSDP=1.42D-04 MaxDP=5.54D-03              OVMax= 4.47D-03

 Cycle   2  Pass 1  IDiag  1:
 E= -1236.99133227072     Delta-E=       -0.000185896382 Rises=F Damp=F
 DIIS: error= 6.54D-05 at cycle   2 NSaved=   2.
 NSaved= 2 IEnMin= 2 EnMin= -1236.99133227072     IErMin= 2 ErrMin= 6.54D-05
 ErrMax= 6.54D-05  0.00D+00 EMaxC= 1.00D-01 BMatC= 1.69D-06 BMatP= 1.23D-04
 IDIUse=1 WtCom= 1.00D+00 WtEn= 0.00D+00
 Coeff-Com: -0.502D-01 0.105D+01
 Coeff:     -0.502D-01 0.105D+01
 Gap=     0.291 Goal=   None    Shift=    0.000
 RMSDP=1.93D-05 MaxDP=1.33D-03 DE=-1.86D-04 OVMax= 5.08D-04

 Cycle   3  Pass 1  IDiag  1:
 E= -1236.99133348877     Delta-E=       -0.000001218055 Rises=F Damp=F
 DIIS: error= 4.85D-05 at cycle   3 NSaved=   3.
 NSaved= 3 IEnMin= 3 EnMin= -1236.99133348877     IErMin= 3 ErrMin= 4.85D-05
 ErrMax= 4.85D-05  0.00D+00 EMaxC= 1.00D-01 BMatC= 1.70D-06 BMatP= 1.69D-06
 IDIUse=1 WtCom= 1.00D+00 WtEn= 0.00D+00
 Coeff-Com: -0.357D-01 0.559D+00 0.477D+00
 Coeff:     -0.357D-01 0.559D+00 0.477D+00
 Gap=     0.291 Goal=   None    Shift=    0.000
 RMSDP=9.36D-06 MaxDP=6.44D-04 DE=-1.22D-06 OVMax= 2.00D-04

 Cycle   4  Pass 1  IDiag  1:
 E= -1236.99133452504     Delta-E=       -0.000001036264 Rises=F Damp=F
 DIIS: error= 1.42D-05 at cycle   4 NSaved=   4.
 NSaved= 4 IEnMin= 4 EnMin= -1236.99133452504     IErMin= 4 ErrMin= 1.42D-05
 ErrMax= 1.42D-05  0.00D+00 EMaxC= 1.00D-01 BMatC= 1.11D-07 BMatP= 1.69D-06
 IDIUse=1 WtCom= 1.00D+00 WtEn= 0.00D+00
 Coeff-Com: -0.988D-02 0.130D+00 0.231D+00 0.649D+00
 Coeff:     -0.988D-02 0.130D+00 0.231D+00 0.649D+00
 Gap=     0.291 Goal=   None    Shift=    0.000
 RMSDP=1.37D-06 MaxDP=4.99D-05 DE=-1.04D-06 OVMax= 5.47D-05

 Cycle   5  Pass 1  IDiag  1:
 E= -1236.99133458749     Delta-E=       -0.000000062453 Rises=F Damp=F
 DIIS: error= 3.34D-06 at cycle   5 NSaved=   5.
 NSaved= 5 IEnMin= 5 EnMin= -1236.99133458749     IErMin= 5 ErrMin= 3.34D-06
 ErrMax= 3.34D-06  0.00D+00 EMaxC= 1.00D-01 BMatC= 7.04D-09 BMatP= 1.11D-07
 IDIUse=1 WtCom= 1.00D+00 WtEn= 0.00D+00
 Coeff-Com: -0.116D-02 0.578D-02 0.593D-01 0.278D+00 0.658D+00
 Coeff:     -0.116D-02 0.578D-02 0.593D-01 0.278D+00 0.658D+00
 Gap=     0.291 Goal=   None    Shift=    0.000
 RMSDP=1.06D-06 MaxDP=6.58D-05 DE=-6.25D-08 OVMax= 1.76D-05

 Cycle   6  Pass 1  IDiag  1:
 E= -1236.99133459311     Delta-E=       -0.000000005624 Rises=F Damp=F
 DIIS: error= 6.26D-07 at cycle   6 NSaved=   6.
 NSaved= 6 IEnMin= 6 EnMin= -1236.99133459311     IErMin= 6 ErrMin= 6.26D-07
 ErrMax= 6.26D-07  0.00D+00 EMaxC= 1.00D-01 BMatC= 3.66D-10 BMatP= 7.04D-09
 IDIUse=1 WtCom= 1.00D+00 WtEn= 0.00D+00
 Coeff-Com:  0.125D-03-0.586D-02 0.986D-02 0.747D-01 0.263D+00 0.658D+00
 Coeff:      0.125D-03-0.586D-02 0.986D-02 0.747D-01 0.263D+00 0.658D+00
 Gap=     0.291 Goal=   None    Shift=    0.000
 RMSDP=1.75D-07 MaxDP=1.11D-05 DE=-5.62D-09 OVMax= 4.65D-06

 Cycle   7  Pass 1  IDiag  1:
 E= -1236.99133459337     Delta-E=       -0.000000000260 Rises=F Damp=F
 DIIS: error= 2.28D-07 at cycle   7 NSaved=   7.
 NSaved= 7 IEnMin= 7 EnMin= -1236.99133459337     IErMin= 7 ErrMin= 2.28D-07
 ErrMax= 2.28D-07  0.00D+00 EMaxC= 1.00D-01 BMatC= 5.94D-11 BMatP= 3.66D-10
 IDIUse=1 WtCom= 1.00D+00 WtEn= 0.00D+00
 Coeff-Com:  0.131D-03-0.344D-02 0.192D-02 0.242D-01 0.994D-01 0.361D+00
 Coeff-Com:  0.517D+00
 Coeff:      0.131D-03-0.344D-02 0.192D-02 0.242D-01 0.994D-01 0.361D+00
 Coeff:      0.517D+00
 Gap=     0.291 Goal=   None    Shift=    0.000
 RMSDP=4.98D-08 MaxDP=3.03D-06 DE=-2.60D-10 OVMax= 1.80D-06

 Cycle   8  Pass 1  IDiag  1:
 E= -1236.99133459342     Delta-E=       -0.000000000043 Rises=F Damp=F
 DIIS: error= 3.83D-08 at cycle   8 NSaved=   8.
 NSaved= 8 IEnMin= 8 EnMin= -1236.99133459342     IErMin= 8 ErrMin= 3.83D-08
 ErrMax= 3.83D-08  0.00D+00 EMaxC= 1.00D-01 BMatC= 1.40D-12 BMatP= 5.94D-11
 IDIUse=1 WtCom= 1.00D+00 WtEn= 0.00D+00
 Coeff-Com:  0.402D-04-0.887D-03 0.183D-04 0.368D-02 0.175D-01 0.900D-01
 Coeff-Com:  0.190D+00 0.700D+00
 Coeff:      0.402D-04-0.887D-03 0.183D-04 0.368D-02 0.175D-01 0.900D-01
 Coeff:      0.190D+00 0.700D+00
 Gap=     0.291 Goal=   None    Shift=    0.000
 RMSDP=1.36D-08 MaxDP=1.09D-06 DE=-4.32D-11 OVMax= 2.58D-07

 Cycle   9  Pass 1  IDiag  1:
 E= -1236.99133459339     Delta-E=        0.000000000030 Rises=F Damp=F
 DIIS: error= 2.40D-08 at cycle   9 NSaved=   9.
 NSaved= 9 IEnMin= 8 EnMin= -1236.99133459342     IErMin= 9 ErrMin= 2.40D-08
 ErrMax= 2.40D-08  0.00D+00 EMaxC= 1.00D-01 BMatC= 2.94D-13 BMatP= 1.40D-12
 IDIUse=1 WtCom= 1.00D+00 WtEn= 0.00D+00
 Coeff-Com:  0.560D-05-0.564D-04-0.226D-03-0.989D-03-0.295D-02 0.534D-02
 Coeff-Com:  0.421D-01 0.363D+00 0.594D+00
 Coeff:      0.560D-05-0.564D-04-0.226D-03-0.989D-03-0.295D-02 0.534D-02
 Coeff:      0.421D-01 0.363D+00 0.594D+00
 Gap=     0.291 Goal=   None    Shift=    0.000
 RMSDP=3.52D-09 MaxDP=2.17D-07 DE= 2.98D-11 OVMax= 7.87D-08

 SCF Done:  E(RB3LYP) =  -1236.99133459     A.U. after    9 cycles
            NFock=  9  Conv=0.35D-08     -V/T= 2.0026
 KE= 1.233758743754D+03 PE=-3.844083314616D+03 EE= 9.187573142214D+02
 Leave Link  502 at Thu Jun 13 12:23:33 2024, MaxMem=  1073741824 cpu:       105.5
 (Enter /apps/z_install_tree/linux-rocky8-ivybridge/gcc-12.2.0/gaussian-09-D.01-wczn3gur5lpur3omlkzwa2l5ecyxp5ef/g09/l508.exe)
 QCSCF skips out because SCF is already converged.
 Leave Link  508 at Thu Jun 13 12:23:33 2024, MaxMem=  1073741824 cpu:         0.0
 (Enter /apps/z_install_tree/linux-rocky8-ivybridge/gcc-12.2.0/gaussian-09-D.01-wczn3gur5lpur3omlkzwa2l5ecyxp5ef/g09/l701.exe)
 Compute integral first derivatives.
 ... and contract with generalized density number  0.
 R6Disp: Adding Grimme-D3 dispersion energy 1st derivatives to the gradient.
 Leave Link  701 at Thu Jun 13 12:23:34 2024, MaxMem=  1073741824 cpu:         7.6
 (Enter /apps/z_install_tree/linux-rocky8-ivybridge/gcc-12.2.0/gaussian-09-D.01-wczn3gur5lpur3omlkzwa2l5ecyxp5ef/g09/l702.exe)
 L702 exits ... SP integral derivatives will be done elsewhere.
 Leave Link  702 at Thu Jun 13 12:23:34 2024, MaxMem=  1073741824 cpu:         0.2
 (Enter /apps/z_install_tree/linux-rocky8-ivybridge/gcc-12.2.0/gaussian-09-D.01-wczn3gur5lpur3omlkzwa2l5ecyxp5ef/g09/l703.exe)
 Compute integral first derivatives, UseDBF=F ICtDFT=           0.
 Integral derivatives from FoFJK, PRISM(SPDF).
 Calling FoFJK, ICntrl=      2127 FMM=F ISym2X=0 I1Cent= 0 IOpClX= 0 NMat=1 NMatS=1 NMatT=0.
 FoFJK:  IHMeth= 1 ICntrl=    2127 DoSepK=F KAlg= 0 I1Cent=   0 FoldK=F
 IRaf=         0 NMat=   1 IRICut=       1 DoRegI=T DoRafI=F ISym2E= 0.
 FoFCou: FMM=F IPFlag=           0 FMFlag=      100000 FMFlg1=         800
         NFxFlg=           0 DoJE=F BraDBF=F KetDBF=F FulRan=T
         wScrn=  0.000000 ICntrl=    2127 IOpCl=  0 I1Cent=           0 NGrid=           0
         NMat0=    1 NMatS0=      1 NMatT0=    0 NMatD0=    1 NMtDS0=    0 NMtDT0=    0
 Symmetry not used in FoFCou.
 Leave Link  703 at Thu Jun 13 12:23:36 2024, MaxMem=  1073741824 cpu:        39.0
 (Enter /apps/z_install_tree/linux-rocky8-ivybridge/gcc-12.2.0/gaussian-09-D.01-wczn3gur5lpur3omlkzwa2l5ecyxp5ef/g09/l716.exe)
 Dipole        = 3.52882300D-02 5.48160107D-02-1.05468608D-01
 -------------------------------------------------------------------
 Center     Atomic                   Forces (Hartrees/Bohr)
 Number     Number              X              Y              Z
 -------------------------------------------------------------------
      1        6           0.000129093   -0.000127457   -0.000169532
      2        6           0.000385636   -0.000030340    0.000592940
      3        6           0.000120829   -0.000036375   -0.000075124
      4       17           0.000188668   -0.000162128   -0.000067978
      5        9          -0.000451220   -0.000246028    0.000286417
      6        9          -0.000444634    0.000515790   -0.000540065
      7       17           0.000015320    0.000008228   -0.000019599
      8        1           0.000065737    0.000007342   -0.000006265
      9        1           0.000039422    0.000028459    0.000006121
     10        1          -0.000009107   -0.000002687   -0.000007797
     11        1          -0.000039743    0.000045196    0.000000881
 -------------------------------------------------------------------
 Cartesian Forces:  Max     0.000592940 RMS     0.000231188
 Leave Link  716 at Thu Jun 13 12:23:36 2024, MaxMem=  1073741824 cpu:         0.6
 (Enter /apps/z_install_tree/linux-rocky8-ivybridge/gcc-12.2.0/gaussian-09-D.01-wczn3gur5lpur3omlkzwa2l5ecyxp5ef/g09/l103.exe)

 GradGradGradGradGradGradGradGradGradGradGradGradGradGradGradGradGradGrad
 Berny optimization.
 Using GEDIIS/GDIIS optimizer.
 FormGI is forming the generalized inverse of G from B-inverse, IUseBI=4.
 Internal  Forces:  Max     0.000852113 RMS     0.000183325
 Search for a local minimum.
 Step number   8 out of a maximum of   56
 All quantities printed in internal units (Hartrees-Bohrs-Radians)
 RMS Force = .18332D-03 SwitMx=.10000D-02 MixMth= 2
 Mixed Optimization -- En-DIIS/RFO-DIIS
 Swapping is turned off.
 Update second derivatives using D2CorX and points    4    5    6    7    8
 DE= -5.54D-06 DEPred=-1.04D-05 R= 5.30D-01
 TightC=F SS=  1.41D+00  RLast= 5.74D-02 DXNew= 1.4270D+00 1.7227D-01
 Trust test= 5.30D-01 RLast= 5.74D-02 DXMaxT set to 8.49D-01
 ITU=  1  1  1  1  1  0  1  0
     Eigenvalues ---    0.00213   0.00329   0.03594   0.04806   0.05373
     Eigenvalues ---    0.05596   0.07617   0.08640   0.09009   0.12348
     Eigenvalues ---    0.15959   0.15994   0.18164   0.21704   0.21890
     Eigenvalues ---    0.22334   0.23437   0.24394   0.25279   0.27353
     Eigenvalues ---    0.29075   0.31884   0.33848   0.34045   0.34112
     Eigenvalues ---    0.34183   0.43093
 En-DIIS/RFO-DIIS IScMMF=        0 using points:     8    7    6
 RFO step:  Lambda=-2.98120127D-06.
 NNeg= 0 NP= 3 Switch=  2.50D-03 Rises=F DC=  8.50D-05 SmlDif=  1.00D-05
 RMS Error=  0.3593789432D-03 NUsed= 3 EDIIS=F
 DidBck=T Rises=F RFO-DIIS coefs:    0.61595    0.47098   -0.08693
 Iteration  1 RMS(Cart)=  0.00140102 RMS(Int)=  0.00000131
 Iteration  2 RMS(Cart)=  0.00000112 RMS(Int)=  0.00000071
 Iteration  3 RMS(Cart)=  0.00000000 RMS(Int)=  0.00000071
 ITry= 1 IFail=0 DXMaxC= 5.45D-03 DCOld= 1.00D+10 DXMaxT= 8.49D-01 DXLimC= 3.00D+00 Rises=F
 Variable       Old X    -DE/DX   Delta X   Delta X   Delta X     New X
                                 (Linear)    (Quad)   (Total)
    R1        2.85961   0.00030   0.00008   0.00070   0.00078   2.86039
    R2        2.87142   0.00012  -0.00036   0.00065   0.00029   2.87171
    R3        2.05511  -0.00004  -0.00007   0.00000  -0.00007   2.05504
    R4        2.06038  -0.00004   0.00017  -0.00026  -0.00010   2.06029
    R5        3.41663  -0.00014   0.00005  -0.00046  -0.00041   3.41622
    R6        2.55003   0.00057   0.00157   0.00016   0.00173   2.55176
    R7        2.56151  -0.00085  -0.00202  -0.00044  -0.00246   2.55905
    R8        3.42560   0.00002   0.00017  -0.00015   0.00002   3.42562
    R9        2.05022  -0.00001   0.00007  -0.00009  -0.00002   2.05020
   R10        2.04944   0.00003  -0.00013   0.00021   0.00008   2.04952
    A1        1.97148   0.00005   0.00032  -0.00021   0.00011   1.97159
    A2        1.88523   0.00001  -0.00068   0.00089   0.00021   1.88544
    A3        1.85103  -0.00001  -0.00088   0.00095   0.00008   1.85111
    A4        1.93748  -0.00006   0.00095  -0.00147  -0.00052   1.93695
    A5        1.92610  -0.00001   0.00002  -0.00004  -0.00003   1.92607
    A6        1.88868   0.00003   0.00018   0.00000   0.00018   1.88887
    A7        1.97265  -0.00011   0.00037  -0.00063  -0.00026   1.97239
    A8        1.91935   0.00027   0.00069   0.00026   0.00095   1.92030
    A9        1.93902  -0.00031  -0.00077  -0.00042  -0.00119   1.93783
   A10        1.87986   0.00012   0.00010   0.00105   0.00115   1.88101
   A11        1.88088   0.00002  -0.00073   0.00012  -0.00060   1.88028
   A12        1.86805   0.00002   0.00034  -0.00033   0.00001   1.86806
   A13        1.91669   0.00005   0.00007   0.00003   0.00010   1.91679
   A14        1.94954   0.00001  -0.00002   0.00013   0.00011   1.94965
   A15        1.95270  -0.00007   0.00021  -0.00053  -0.00032   1.95238
   A16        1.86459  -0.00001   0.00021  -0.00023  -0.00003   1.86456
   A17        1.86396   0.00000  -0.00011   0.00002  -0.00010   1.86387
   A18        1.91233   0.00004  -0.00036   0.00060   0.00024   1.91257
    D1        1.10441  -0.00021  -0.00373   0.00094  -0.00279   1.10163
    D2       -3.07735   0.00007  -0.00286   0.00204  -0.00082  -3.07818
    D3       -1.01247   0.00007  -0.00248   0.00153  -0.00095  -1.01341
    D4       -1.04539  -0.00017  -0.00465   0.00230  -0.00235  -1.04774
    D5        1.05603   0.00010  -0.00379   0.00341  -0.00038   1.05564
    D6        3.12091   0.00011  -0.00340   0.00290  -0.00051   3.12040
    D7       -3.06691  -0.00020  -0.00410   0.00140  -0.00270  -3.06961
    D8       -0.96549   0.00008  -0.00324   0.00250  -0.00074  -0.96623
    D9        1.09939   0.00008  -0.00285   0.00199  -0.00086   1.09853
   D10        3.10193   0.00001  -0.00016  -0.00043  -0.00059   3.10134
   D11        1.03650  -0.00001  -0.00046  -0.00023  -0.00069   1.03581
   D12       -1.11463   0.00000  -0.00013  -0.00072  -0.00084  -1.11547
   D13       -1.06070   0.00002  -0.00013  -0.00049  -0.00062  -1.06132
   D14       -3.12613   0.00000  -0.00043  -0.00030  -0.00072  -3.12685
   D15        1.00593   0.00000  -0.00009  -0.00078  -0.00087   1.00506
   D16        1.03326   0.00000   0.00073  -0.00147  -0.00074   1.03252
   D17       -1.03217  -0.00001   0.00043  -0.00128  -0.00085  -1.03302
   D18        3.09989  -0.00001   0.00076  -0.00176  -0.00100   3.09889
         Item               Value     Threshold  Converged?
 Maximum Force            0.000852     0.000450     NO 
 RMS     Force            0.000183     0.000300     YES
 Maximum Displacement     0.005448     0.001800     NO 
 RMS     Displacement     0.001401     0.001200     NO 
 Predicted change in Energy=-2.929432D-06
 Lowest energy point so far.  Saving SCF results.
 GradGradGradGradGradGradGradGradGradGradGradGradGradGradGradGradGradGrad

 Leave Link  103 at Thu Jun 13 12:23:37 2024, MaxMem=  1073741824 cpu:         6.5
 (Enter /apps/z_install_tree/linux-rocky8-ivybridge/gcc-12.2.0/gaussian-09-D.01-wczn3gur5lpur3omlkzwa2l5ecyxp5ef/g09/l202.exe)
                          Input orientation:                          
 ---------------------------------------------------------------------
 Center     Atomic      Atomic             Coordinates (Angstroms)
 Number     Number       Type             X           Y           Z
 ---------------------------------------------------------------------
      1          6           0       50.125607   35.360966   31.924573
      2          6           0       50.051428   35.605849   33.416442
      3          6           0       51.507100   35.623719   31.348588
      4         17           0       50.370464   37.327354   33.866686
      5          9           0       48.825186   35.279475   33.878190
      6          9           0       50.943845   34.833645   34.080613
      7         17           0       51.517561   35.240381   29.576853
      8          1           0       49.377633   35.986620   31.443219
      9          1           0       49.844747   34.318069   31.775763
     10          1           0       52.260735   34.994698   31.810559
     11          1           0       51.793695   36.665225   31.445513
 ---------------------------------------------------------------------
                    Distance matrix (angstroms):
                    1          2          3          4          5
     1  C    0.000000
     2  C    1.513652   0.000000
     3  C    1.519645   2.528897   0.000000
     4  Cl   2.774606   1.807784   3.245787   0.000000
     5  F    2.348266   1.350333   3.702709   2.565507   0.000000
     6  F    2.365605   1.354190   2.899212   2.567706   2.174501
     7  Cl   2.732008   4.126204   1.812761   4.906522   5.074634
     8  H    1.087478   2.119574   2.162239   2.942188   2.595060
     9  H    1.090257   2.095930   2.156529   3.701910   2.526660
    10  H    2.169314   2.798822   1.084920   3.638966   4.019850
    11  H    2.170969   2.835901   1.084558   2.885495   4.080474
                    6          7          8          9         10
     6  F    0.000000
     7  Cl   4.558337   0.000000
     8  H    3.276921   2.935896   0.000000
     9  H    2.605027   2.912760   1.764325   0.000000
    10  H    2.629312   2.366877   3.071013   2.509190   0.000000
    11  H    3.319741   2.366077   2.509555   3.068648   1.772582
                   11
    11  H    0.000000
 Symmetry turned off by external request.
 Stoichiometry    C3H4Cl2F2
 Framework group  C1[X(C3H4Cl2F2)]
 Deg. of freedom    27
 Full point group                 C1      NOp   1
 Rotational constants (GHZ):      3.1519674      0.8286165      0.7596257
 Leave Link  202 at Thu Jun 13 12:23:37 2024, MaxMem=  1073741824 cpu:         1.1
 (Enter /apps/z_install_tree/linux-rocky8-ivybridge/gcc-12.2.0/gaussian-09-D.01-wczn3gur5lpur3omlkzwa2l5ecyxp5ef/g09/l301.exe)
 Basis read from rwf:  (5D, 7F)
 No pseudopotential information found on rwf file.
   241 basis functions,   372 primitive gaussians,   255 cartesian basis functions
    37 alpha electrons       37 beta electrons
       nuclear repulsion energy       454.6002954411 Hartrees.
 IExCor=  402 DFT=T Ex+Corr=B3LYP ExCW=0 ScaHFX=  0.200000
 ScaDFX=  0.800000  0.720000  1.000000  0.810000 ScalE2=  1.000000  1.000000
 IRadAn=      5 IRanWt=     -1 IRanGd=            0 ICorTp=0 IEmpDi=131
 NAtoms=   11 NActive=   11 NUniq=   11 SFac= 1.00D+00 NAtFMM=   60 NAOKFM=F Big=F
 Integral buffers will be    131072 words long.
 Raffenetti 2 integral format.
 Two-electron integral symmetry is turned off.
 R6Disp:  Grimme-D3 Dispersion energy=       -0.0098407304 Hartrees.
 Nuclear repulsion after empirical dispersion term =      454.5904547106 Hartrees.
 No density basis found on file   724.
 Leave Link  301 at Thu Jun 13 12:23:37 2024, MaxMem=  1073741824 cpu:         1.2
 (Enter /apps/z_install_tree/linux-rocky8-ivybridge/gcc-12.2.0/gaussian-09-D.01-wczn3gur5lpur3omlkzwa2l5ecyxp5ef/g09/l302.exe)
 NPDir=0 NMtPBC=     1 NCelOv=     1 NCel=       1 NClECP=     1 NCelD=      1
         NCelK=      1 NCelE2=     1 NClLst=     1 CellRange=     0.0.
 One-electron integrals computed using PRISM.
 NBasis=   241 RedAO= T EigKep=  2.39D-05  NBF=   241
 NBsUse=   241 1.00D-06 EigRej= -1.00D+00 NBFU=   241
 Precomputing XC quadrature grid using
 IXCGrd= 4 IRadAn=           5 IRanWt=          -1 IRanGd=           0 AccXCQ= 0.00D+00.
 Generated NRdTot=       0 NPtTot=           0 NUsed=           0 NTot=          32
 NSgBfM=   255   255   255   255   255 MxSgAt=    11 MxSgA2=    11.
 Leave Link  302 at Thu Jun 13 12:23:37 2024, MaxMem=  1073741824 cpu:         3.6
 (Enter /apps/z_install_tree/linux-rocky8-ivybridge/gcc-12.2.0/gaussian-09-D.01-wczn3gur5lpur3omlkzwa2l5ecyxp5ef/g09/l303.exe)
 DipDrv:  MaxL=1.
 Leave Link  303 at Thu Jun 13 12:23:37 2024, MaxMem=  1073741824 cpu:         2.0
 (Enter /apps/z_install_tree/linux-rocky8-ivybridge/gcc-12.2.0/gaussian-09-D.01-wczn3gur5lpur3omlkzwa2l5ecyxp5ef/g09/l401.exe)
 Initial guess from the checkpoint file:  "dichlorodifluoropropane.chk"
 B after Tr=    -0.057224    0.103907   -0.024382
         Rot=    1.000000   -0.000115    0.000047    0.000473 Ang=  -0.06 deg.
 Guess basis will be translated and rotated to current coordinates.
 JPrj=2 DoOrth=T DoCkMO=T.
 Leave Link  401 at Thu Jun 13 12:23:38 2024, MaxMem=  1073741824 cpu:         8.9
 (Enter /apps/z_install_tree/linux-rocky8-ivybridge/gcc-12.2.0/gaussian-09-D.01-wczn3gur5lpur3omlkzwa2l5ecyxp5ef/g09/l502.exe)
 Closed shell SCF:
 Using DIIS extrapolation, IDIIS=  1040.
 Two-electron integral symmetry not used.
 Keep R1 ints in memory in canonical form, NReq=433797970.
 IVT=      212949 IEndB=      212949 NGot=  1073741824 MDV=   648332335
 LenX=   648332335 LenY=   648266869
 Requested convergence on RMS density matrix=1.00D-08 within  96 cycles.
 Requested convergence on MAX density matrix=1.00D-06.
 Requested convergence on             energy=1.00D-06.
 No special actions if energy rises.
 FoFCou: FMM=F IPFlag=           0 FMFlag=           0 FMFlg1=           0
         NFxFlg=           0 DoJE=F BraDBF=F KetDBF=F FulRan=T
         wScrn=  0.000000 ICntrl=     600 IOpCl=  0 I1Cent=           0 NGrid=           0
         NMat0=    1 NMatS0=  29161 NMatT0=    0 NMatD0=    1 NMtDS0=    0 NMtDT0=    0
 Symmetry not used in FoFCou.

 Cycle   1  Pass 1  IDiag  1:
 E= -1236.99133260118    
 DIIS: error= 6.96D-05 at cycle   1 NSaved=   1.
 NSaved= 1 IEnMin= 1 EnMin= -1236.99133260118     IErMin= 1 ErrMin= 6.96D-05
 ErrMax= 6.96D-05  0.00D+00 EMaxC= 1.00D-01 BMatC= 3.64D-06 BMatP= 3.64D-06
 IDIUse=1 WtCom= 1.00D+00 WtEn= 0.00D+00
 Coeff-Com:  0.100D+01
 Coeff:      0.100D+01
 Gap=     0.544 Goal=   None    Shift=    0.000
 RMSDP=2.41D-05 MaxDP=1.29D-03              OVMax= 6.08D-04

 Cycle   2  Pass 1  IDiag  1:
 E= -1236.99133721205     Delta-E=       -0.000004610871 Rises=F Damp=F
 DIIS: error= 1.49D-05 at cycle   2 NSaved=   2.
 NSaved= 2 IEnMin= 2 EnMin= -1236.99133721205     IErMin= 2 ErrMin= 1.49D-05
 ErrMax= 1.49D-05  0.00D+00 EMaxC= 1.00D-01 BMatC= 1.27D-07 BMatP= 3.64D-06
 IDIUse=1 WtCom= 1.00D+00 WtEn= 0.00D+00
 Coeff-Com:  0.180D-01 0.982D+00
 Coeff:      0.180D-01 0.982D+00
 Gap=     0.291 Goal=   None    Shift=    0.000
 RMSDP=2.58D-06 MaxDP=1.24D-04 DE=-4.61D-06 OVMax= 1.08D-04

 Cycle   3  Pass 1  IDiag  1:
 E= -1236.99133721534     Delta-E=       -0.000000003284 Rises=F Damp=F
 DIIS: error= 1.72D-05 at cycle   3 NSaved=   3.
 NSaved= 3 IEnMin= 3 EnMin= -1236.99133721534     IErMin= 2 ErrMin= 1.49D-05
 ErrMax= 1.72D-05  0.00D+00 EMaxC= 1.00D-01 BMatC= 1.64D-07 BMatP= 1.27D-07
 IDIUse=1 WtCom= 1.00D+00 WtEn= 0.00D+00
 Coeff-Com: -0.240D-01 0.545D+00 0.479D+00
 Coeff:     -0.240D-01 0.545D+00 0.479D+00
 Gap=     0.291 Goal=   None    Shift=    0.000
 RMSDP=1.88D-06 MaxDP=1.33D-04 DE=-3.28D-09 OVMax= 7.07D-05

 Cycle   4  Pass 1  IDiag  1:
 E= -1236.99133730511     Delta-E=       -0.000000089778 Rises=F Damp=F
 DIIS: error= 4.97D-06 at cycle   4 NSaved=   4.
 NSaved= 4 IEnMin= 4 EnMin= -1236.99133730511     IErMin= 4 ErrMin= 4.97D-06
 ErrMax= 4.97D-06  0.00D+00 EMaxC= 1.00D-01 BMatC= 9.32D-09 BMatP= 1.27D-07
 IDIUse=1 WtCom= 1.00D+00 WtEn= 0.00D+00
 Coeff-Com: -0.111D-01 0.150D+00 0.241D+00 0.620D+00
 Coeff:     -0.111D-01 0.150D+00 0.241D+00 0.620D+00
 Gap=     0.291 Goal=   None    Shift=    0.000
 RMSDP=3.57D-07 MaxDP=1.84D-05 DE=-8.98D-08 OVMax= 1.53D-05

 Cycle   5  Pass 1  IDiag  1:
 E= -1236.99133731054     Delta-E=       -0.000000005425 Rises=F Damp=F
 DIIS: error= 4.92D-07 at cycle   5 NSaved=   5.
 NSaved= 5 IEnMin= 5 EnMin= -1236.99133731054     IErMin= 5 ErrMin= 4.92D-07
 ErrMax= 4.92D-07  0.00D+00 EMaxC= 1.00D-01 BMatC= 2.02D-10 BMatP= 9.32D-09
 IDIUse=1 WtCom= 1.00D+00 WtEn= 0.00D+00
 Coeff-Com: -0.291D-02 0.270D-01 0.656D-01 0.213D+00 0.697D+00
 Coeff:     -0.291D-02 0.270D-01 0.656D-01 0.213D+00 0.697D+00
 Gap=     0.291 Goal=   None    Shift=    0.000
 RMSDP=1.74D-07 MaxDP=1.36D-05 DE=-5.42D-09 OVMax= 3.54D-06

 Cycle   6  Pass 1  IDiag  1:
 E= -1236.99133731067     Delta-E=       -0.000000000134 Rises=F Damp=F
 DIIS: error= 2.83D-07 at cycle   6 NSaved=   6.
 NSaved= 6 IEnMin= 6 EnMin= -1236.99133731067     IErMin= 6 ErrMin= 2.83D-07
 ErrMax= 2.83D-07  0.00D+00 EMaxC= 1.00D-01 BMatC= 4.16D-11 BMatP= 2.02D-10
 IDIUse=1 WtCom= 1.00D+00 WtEn= 0.00D+00
 Coeff-Com:  0.120D-04-0.555D-02 0.188D-02 0.282D-01 0.337D+00 0.639D+00
 Coeff:      0.120D-04-0.555D-02 0.188D-02 0.282D-01 0.337D+00 0.639D+00
 Gap=     0.291 Goal=   None    Shift=    0.000
 RMSDP=3.59D-08 MaxDP=2.05D-06 DE=-1.34D-10 OVMax= 1.39D-06

 Cycle   7  Pass 1  IDiag  1:
 E= -1236.99133731070     Delta-E=       -0.000000000025 Rises=F Damp=F
 DIIS: error= 7.35D-08 at cycle   7 NSaved=   7.
 NSaved= 7 IEnMin= 7 EnMin= -1236.99133731070     IErMin= 7 ErrMin= 7.35D-08
 ErrMax= 7.35D-08  0.00D+00 EMaxC= 1.00D-01 BMatC= 4.32D-12 BMatP= 4.16D-11
 IDIUse=1 WtCom= 1.00D+00 WtEn= 0.00D+00
 Coeff-Com:  0.133D-03-0.381D-02-0.220D-02 0.505D-02 0.134D+00 0.345D+00
 Coeff-Com:  0.522D+00
 Coeff:      0.133D-03-0.381D-02-0.220D-02 0.505D-02 0.134D+00 0.345D+00
 Coeff:      0.522D+00
 Gap=     0.291 Goal=   None    Shift=    0.000
 RMSDP=2.19D-08 MaxDP=1.63D-06 DE=-2.46D-11 OVMax= 5.38D-07

 Cycle   8  Pass 1  IDiag  1:
 E= -1236.99133731071     Delta-E=       -0.000000000010 Rises=F Damp=F
 DIIS: error= 1.22D-08 at cycle   8 NSaved=   8.
 NSaved= 8 IEnMin= 8 EnMin= -1236.99133731071     IErMin= 8 ErrMin= 1.22D-08
 ErrMax= 1.22D-08  0.00D+00 EMaxC= 1.00D-01 BMatC= 8.43D-14 BMatP= 4.32D-12
 IDIUse=1 WtCom= 1.00D+00 WtEn= 0.00D+00
 Coeff-Com:  0.477D-04-0.107D-02-0.101D-02 0.374D-03 0.264D-01 0.861D-01
 Coeff-Com:  0.182D+00 0.707D+00
 Coeff:      0.477D-04-0.107D-02-0.101D-02 0.374D-03 0.264D-01 0.861D-01
 Coeff:      0.182D+00 0.707D+00
 Gap=     0.291 Goal=   None    Shift=    0.000
 RMSDP=2.46D-09 MaxDP=1.41D-07 DE=-1.00D-11 OVMax= 7.01D-08

 SCF Done:  E(RB3LYP) =  -1236.99133731     A.U. after    8 cycles
            NFock=  8  Conv=0.25D-08     -V/T= 2.0026
 KE= 1.233758936210D+03 PE=-3.844111988565D+03 EE= 9.187712603340D+02
 Leave Link  502 at Thu Jun 13 12:23:48 2024, MaxMem=  1073741824 cpu:        97.0
 (Enter /apps/z_install_tree/linux-rocky8-ivybridge/gcc-12.2.0/gaussian-09-D.01-wczn3gur5lpur3omlkzwa2l5ecyxp5ef/g09/l508.exe)
 QCSCF skips out because SCF is already converged.
 Leave Link  508 at Thu Jun 13 12:23:48 2024, MaxMem=  1073741824 cpu:         0.0
 (Enter /apps/z_install_tree/linux-rocky8-ivybridge/gcc-12.2.0/gaussian-09-D.01-wczn3gur5lpur3omlkzwa2l5ecyxp5ef/g09/l701.exe)
 Compute integral first derivatives.
 ... and contract with generalized density number  0.
 R6Disp: Adding Grimme-D3 dispersion energy 1st derivatives to the gradient.
 Leave Link  701 at Thu Jun 13 12:23:49 2024, MaxMem=  1073741824 cpu:         7.0
 (Enter /apps/z_install_tree/linux-rocky8-ivybridge/gcc-12.2.0/gaussian-09-D.01-wczn3gur5lpur3omlkzwa2l5ecyxp5ef/g09/l702.exe)
 L702 exits ... SP integral derivatives will be done elsewhere.
 Leave Link  702 at Thu Jun 13 12:23:49 2024, MaxMem=  1073741824 cpu:         0.2
 (Enter /apps/z_install_tree/linux-rocky8-ivybridge/gcc-12.2.0/gaussian-09-D.01-wczn3gur5lpur3omlkzwa2l5ecyxp5ef/g09/l703.exe)
 Compute integral first derivatives, UseDBF=F ICtDFT=           0.
 Integral derivatives from FoFJK, PRISM(SPDF).
 Calling FoFJK, ICntrl=      2127 FMM=F ISym2X=0 I1Cent= 0 IOpClX= 0 NMat=1 NMatS=1 NMatT=0.
 FoFJK:  IHMeth= 1 ICntrl=    2127 DoSepK=F KAlg= 0 I1Cent=   0 FoldK=F
 IRaf=         0 NMat=   1 IRICut=       1 DoRegI=T DoRafI=F ISym2E= 0.
 FoFCou: FMM=F IPFlag=           0 FMFlag=      100000 FMFlg1=         800
         NFxFlg=           0 DoJE=F BraDBF=F KetDBF=F FulRan=T
         wScrn=  0.000000 ICntrl=    2127 IOpCl=  0 I1Cent=           0 NGrid=           0
         NMat0=    1 NMatS0=      1 NMatT0=    0 NMatD0=    1 NMtDS0=    0 NMtDT0=    0
 Symmetry not used in FoFCou.
 Leave Link  703 at Thu Jun 13 12:23:51 2024, MaxMem=  1073741824 cpu:        39.2
 (Enter /apps/z_install_tree/linux-rocky8-ivybridge/gcc-12.2.0/gaussian-09-D.01-wczn3gur5lpur3omlkzwa2l5ecyxp5ef/g09/l716.exe)
 Dipole        = 3.74126148D-02 5.49861957D-02-1.04740713D-01
 -------------------------------------------------------------------
 Center     Atomic                   Forces (Hartrees/Bohr)
 Number     Number              X              Y              Z
 -------------------------------------------------------------------
      1        6          -0.000094802   -0.000008162   -0.000096516
      2        6          -0.000065127    0.000039188    0.000174944
      3        6           0.000074010    0.000001999   -0.000007881
      4       17          -0.000018692   -0.000050951   -0.000026532
      5        9           0.000059318    0.000034598   -0.000030756
      6        9           0.000029792   -0.000028701    0.000000467
      7       17          -0.000002830    0.000001276   -0.000001922
      8        1           0.000022005   -0.000000306   -0.000021757
      9        1           0.000016521    0.000008364    0.000014596
     10        1          -0.000002601    0.000004160   -0.000004684
     11        1          -0.000017594   -0.000001465    0.000000041
 -------------------------------------------------------------------
 Cartesian Forces:  Max     0.000174944 RMS     0.000047098
 Leave Link  716 at Thu Jun 13 12:23:51 2024, MaxMem=  1073741824 cpu:         0.5
 (Enter /apps/z_install_tree/linux-rocky8-ivybridge/gcc-12.2.0/gaussian-09-D.01-wczn3gur5lpur3omlkzwa2l5ecyxp5ef/g09/l103.exe)

 GradGradGradGradGradGradGradGradGradGradGradGradGradGradGradGradGradGrad
 Berny optimization.
 Using GEDIIS/GDIIS optimizer.
 FormGI is forming the generalized inverse of G from B-inverse, IUseBI=4.
 Internal  Forces:  Max     0.000115467 RMS     0.000026606
 Search for a local minimum.
 Step number   9 out of a maximum of   56
 All quantities printed in internal units (Hartrees-Bohrs-Radians)
 RMS Force = .26606D-04 SwitMx=.10000D-02 MixMth= 2
 Mixed Optimization -- En-DIIS/RFO-DIIS
 Swapping is turned off.
 Update second derivatives using D2CorX and points    4    5    6    7    8
                                                      9
 DE= -2.72D-06 DEPred=-2.93D-06 R= 9.28D-01
 TightC=F SS=  1.41D+00  RLast= 6.62D-03 DXNew= 1.4270D+00 1.9863D-02
 Trust test= 9.28D-01 RLast= 6.62D-03 DXMaxT set to 8.49D-01
 ITU=  1  1  1  1  1  1  0  1  0
     Eigenvalues ---    0.00224   0.00371   0.03605   0.04805   0.05336
     Eigenvalues ---    0.05593   0.07418   0.08563   0.09089   0.12234
     Eigenvalues ---    0.15824   0.15997   0.18431   0.21702   0.21893
     Eigenvalues ---    0.22337   0.24146   0.24310   0.25168   0.27150
     Eigenvalues ---    0.30204   0.33595   0.33837   0.34045   0.34096
     Eigenvalues ---    0.34213   0.42990
 En-DIIS/RFO-DIIS IScMMF=        0 using points:     9    8    7    6
 RFO step:  Lambda=-6.53812793D-08.
 NNeg= 0 NP= 4 Switch=  2.50D-03 Rises=F DC=  8.50D-05 SmlDif=  1.00D-05
 RMS Error=  0.5709808224D-04 NUsed= 4 EDIIS=F
 DidBck=F Rises=F RFO-DIIS coefs:    1.08587   -0.04068   -0.07557    0.03038
 Iteration  1 RMS(Cart)=  0.00044217 RMS(Int)=  0.00000026
 Iteration  2 RMS(Cart)=  0.00000010 RMS(Int)=  0.00000024
 ITry= 1 IFail=0 DXMaxC= 1.27D-03 DCOld= 1.00D+10 DXMaxT= 8.49D-01 DXLimC= 3.00D+00 Rises=F
 Variable       Old X    -DE/DX   Delta X   Delta X   Delta X     New X
                                 (Linear)    (Quad)   (Total)
    R1        2.86039   0.00012   0.00026   0.00016   0.00042   2.86081
    R2        2.87171   0.00005   0.00004   0.00019   0.00022   2.87193
    R3        2.05504  -0.00001  -0.00001  -0.00001  -0.00002   2.05501
    R4        2.06029  -0.00001  -0.00002  -0.00004  -0.00005   2.06023
    R5        3.41622  -0.00006  -0.00001  -0.00034  -0.00035   3.41587
    R6        2.55176  -0.00007  -0.00023  -0.00001  -0.00024   2.55152
    R7        2.55905   0.00004   0.00003   0.00009   0.00012   2.55917
    R8        3.42562   0.00000  -0.00003   0.00005   0.00002   3.42564
    R9        2.05020  -0.00001   0.00000  -0.00002  -0.00002   2.05018
   R10        2.04952  -0.00001   0.00003  -0.00006  -0.00003   2.04949
    A1        1.97159  -0.00002   0.00003  -0.00014  -0.00011   1.97148
    A2        1.88544   0.00003   0.00019   0.00010   0.00029   1.88573
    A3        1.85111  -0.00001  -0.00003  -0.00010  -0.00012   1.85099
    A4        1.93695  -0.00002  -0.00014  -0.00004  -0.00018   1.93678
    A5        1.92607   0.00001  -0.00004   0.00001  -0.00003   1.92604
    A6        1.88887   0.00000  -0.00001   0.00019   0.00018   1.88904
    A7        1.97239  -0.00002  -0.00006  -0.00005  -0.00010   1.97229
    A8        1.92030   0.00000  -0.00003   0.00009   0.00006   1.92036
    A9        1.93783  -0.00002  -0.00008  -0.00008  -0.00016   1.93767
   A10        1.88101   0.00000   0.00013  -0.00013   0.00000   1.88101
   A11        1.88028   0.00003   0.00008   0.00000   0.00008   1.88036
   A12        1.86806   0.00002  -0.00004   0.00018   0.00014   1.86820
   A13        1.91679   0.00000   0.00001  -0.00006  -0.00005   1.91674
   A14        1.94965   0.00001   0.00003   0.00009   0.00012   1.94977
   A15        1.95238  -0.00002  -0.00005  -0.00013  -0.00018   1.95221
   A16        1.86456   0.00000  -0.00004   0.00008   0.00004   1.86460
   A17        1.86387   0.00001  -0.00002  -0.00001  -0.00003   1.86383
   A18        1.91257   0.00001   0.00007   0.00003   0.00010   1.91267
    D1        1.10163   0.00000  -0.00051  -0.00007  -0.00057   1.10105
    D2       -3.07818  -0.00001  -0.00039  -0.00021  -0.00060  -3.07878
    D3       -1.01341   0.00000  -0.00052   0.00002  -0.00049  -1.01390
    D4       -1.04774   0.00001  -0.00049   0.00001  -0.00048  -1.04822
    D5        1.05564   0.00000  -0.00037  -0.00013  -0.00051   1.05514
    D6        3.12040   0.00001  -0.00050   0.00010  -0.00040   3.12001
    D7       -3.06961   0.00000  -0.00055  -0.00021  -0.00076  -3.07037
    D8       -0.96623  -0.00002  -0.00044  -0.00035  -0.00079  -0.96701
    D9        1.09853   0.00000  -0.00056  -0.00012  -0.00068   1.09786
   D10        3.10134  -0.00001  -0.00070   0.00041  -0.00029   3.10105
   D11        1.03581  -0.00001  -0.00067   0.00028  -0.00039   1.03542
   D12       -1.11547  -0.00001  -0.00075   0.00027  -0.00048  -1.11595
   D13       -1.06132   0.00001  -0.00053   0.00040  -0.00013  -1.06144
   D14       -3.12685   0.00000  -0.00050   0.00028  -0.00022  -3.12707
   D15        1.00506   0.00000  -0.00058   0.00027  -0.00031   1.00475
   D16        1.03252   0.00001  -0.00066   0.00061  -0.00004   1.03247
   D17       -1.03302   0.00000  -0.00063   0.00049  -0.00014  -1.03315
   D18        3.09889   0.00000  -0.00071   0.00048  -0.00023   3.09866
         Item               Value     Threshold  Converged?
 Maximum Force            0.000115     0.000450     YES
 RMS     Force            0.000027     0.000300     YES
 Maximum Displacement     0.001274     0.001800     YES
 RMS     Displacement     0.000442     0.001200     YES
 Predicted change in Energy=-7.427777D-08
 Optimization completed.
    -- Stationary point found.
                           ----------------------------
                           !   Optimized Parameters   !
                           ! (Angstroms and Degrees)  !
 --------------------------                            --------------------------
 ! Name  Definition              Value          Derivative Info.                !
 --------------------------------------------------------------------------------
 ! R1    R(1,2)                  1.5137         -DE/DX =    0.0001              !
 ! R2    R(1,3)                  1.5196         -DE/DX =    0.0001              !
 ! R3    R(1,8)                  1.0875         -DE/DX =    0.0                 !
 ! R4    R(1,9)                  1.0903         -DE/DX =    0.0                 !
 ! R5    R(2,4)                  1.8078         -DE/DX =   -0.0001              !
 ! R6    R(2,5)                  1.3503         -DE/DX =   -0.0001              !
 ! R7    R(2,6)                  1.3542         -DE/DX =    0.0                 !
 ! R8    R(3,7)                  1.8128         -DE/DX =    0.0                 !
 ! R9    R(3,10)                 1.0849         -DE/DX =    0.0                 !
 ! R10   R(3,11)                 1.0846         -DE/DX =    0.0                 !
 ! A1    A(2,1,3)              112.9638         -DE/DX =    0.0                 !
 ! A2    A(2,1,8)              108.0278         -DE/DX =    0.0                 !
 ! A3    A(2,1,9)              106.0608         -DE/DX =    0.0                 !
 ! A4    A(3,1,8)              110.9793         -DE/DX =    0.0                 !
 ! A5    A(3,1,9)              110.3558         -DE/DX =    0.0                 !
 ! A6    A(8,1,9)              108.224          -DE/DX =    0.0                 !
 ! A7    A(1,2,4)              113.0097         -DE/DX =    0.0                 !
 ! A8    A(1,2,5)              110.025          -DE/DX =    0.0                 !
 ! A9    A(1,2,6)              111.0295         -DE/DX =    0.0                 !
 ! A10   A(4,2,5)              107.7738         -DE/DX =    0.0                 !
 ! A11   A(4,2,6)              107.732          -DE/DX =    0.0                 !
 ! A12   A(5,2,6)              107.0321         -DE/DX =    0.0                 !
 ! A13   A(1,3,7)              109.8239         -DE/DX =    0.0                 !
 ! A14   A(1,3,10)             111.7066         -DE/DX =    0.0                 !
 ! A15   A(1,3,11)             111.8634         -DE/DX =    0.0                 !
 ! A16   A(7,3,10)             106.8316         -DE/DX =    0.0                 !
 ! A17   A(7,3,11)             106.7917         -DE/DX =    0.0                 !
 ! A18   A(10,3,11)            109.5821         -DE/DX =    0.0                 !
 ! D1    D(3,1,2,4)             63.1185         -DE/DX =    0.0                 !
 ! D2    D(3,1,2,5)           -176.3664         -DE/DX =    0.0                 !
 ! D3    D(3,1,2,6)            -58.0643         -DE/DX =    0.0                 !
 ! D4    D(8,1,2,4)            -60.0312         -DE/DX =    0.0                 !
 ! D5    D(8,1,2,5)             60.4839         -DE/DX =    0.0                 !
 ! D6    D(8,1,2,6)            178.786          -DE/DX =    0.0                 !
 ! D7    D(9,1,2,4)           -175.8759         -DE/DX =    0.0                 !
 ! D8    D(9,1,2,5)            -55.3609         -DE/DX =    0.0                 !
 ! D9    D(9,1,2,6)             62.9412         -DE/DX =    0.0                 !
 ! D10   D(2,1,3,7)            177.6937         -DE/DX =    0.0                 !
 ! D11   D(2,1,3,10)            59.3474         -DE/DX =    0.0                 !
 ! D12   D(2,1,3,11)           -63.9117         -DE/DX =    0.0                 !
 ! D13   D(8,1,3,7)            -60.809          -DE/DX =    0.0                 !
 ! D14   D(8,1,3,10)          -179.1553         -DE/DX =    0.0                 !
 ! D15   D(8,1,3,11)            57.5856         -DE/DX =    0.0                 !
 ! D16   D(9,1,3,7)             59.1588         -DE/DX =    0.0                 !
 ! D17   D(9,1,3,10)           -59.1875         -DE/DX =    0.0                 !
 ! D18   D(9,1,3,11)           177.5534         -DE/DX =    0.0                 !
 --------------------------------------------------------------------------------
 Lowest energy point so far.  Saving SCF results.
 GradGradGradGradGradGradGradGradGradGradGradGradGradGradGradGradGradGrad

 Largest change from initial coordinates is atom    6       0.292 Angstoms.
 Leave Link  103 at Thu Jun 13 12:23:51 2024, MaxMem=  1073741824 cpu:         0.8
 (Enter /apps/z_install_tree/linux-rocky8-ivybridge/gcc-12.2.0/gaussian-09-D.01-wczn3gur5lpur3omlkzwa2l5ecyxp5ef/g09/l202.exe)
                          Input orientation:                          
 ---------------------------------------------------------------------
 Center     Atomic      Atomic             Coordinates (Angstroms)
 Number     Number       Type             X           Y           Z
 ---------------------------------------------------------------------
      1          6           0       50.125607   35.360966   31.924573
      2          6           0       50.051428   35.605849   33.416442
      3          6           0       51.507100   35.623719   31.348588
      4         17           0       50.370464   37.327354   33.866686
      5          9           0       48.825186   35.279475   33.878190
      6          9           0       50.943845   34.833645   34.080613
      7         17           0       51.517561   35.240381   29.576853
      8          1           0       49.377633   35.986620   31.443219
      9          1           0       49.844747   34.318069   31.775763
     10          1           0       52.260735   34.994698   31.810559
     11          1           0       51.793695   36.665225   31.445513
 ---------------------------------------------------------------------
                    Distance matrix (angstroms):
                    1          2          3          4          5
     1  C    0.000000
     2  C    1.513652   0.000000
     3  C    1.519645   2.528897   0.000000
     4  Cl   2.774606   1.807784   3.245787   0.000000
     5  F    2.348266   1.350333   3.702709   2.565507   0.000000
     6  F    2.365605   1.354190   2.899212   2.567706   2.174501
     7  Cl   2.732008   4.126204   1.812761   4.906522   5.074634
     8  H    1.087478   2.119574   2.162239   2.942188   2.595060
     9  H    1.090257   2.095930   2.156529   3.701910   2.526660
    10  H    2.169314   2.798822   1.084920   3.638966   4.019850
    11  H    2.170969   2.835901   1.084558   2.885495   4.080474
                    6          7          8          9         10
     6  F    0.000000
     7  Cl   4.558337   0.000000
     8  H    3.276921   2.935896   0.000000
     9  H    2.605027   2.912760   1.764325   0.000000
    10  H    2.629312   2.366877   3.071013   2.509190   0.000000
    11  H    3.319741   2.366077   2.509555   3.068648   1.772582
                   11
    11  H    0.000000
 Symmetry turned off by external request.
 Stoichiometry    C3H4Cl2F2
 Framework group  C1[X(C3H4Cl2F2)]
 Deg. of freedom    27
 Full point group                 C1      NOp   1
 Rotational constants (GHZ):      3.1519674      0.8286165      0.7596257
 Leave Link  202 at Thu Jun 13 12:23:51 2024, MaxMem=  1073741824 cpu:         0.9
 (Enter /apps/z_install_tree/linux-rocky8-ivybridge/gcc-12.2.0/gaussian-09-D.01-wczn3gur5lpur3omlkzwa2l5ecyxp5ef/g09/l601.exe)
 Copying SCF densities to generalized density rwf, IOpCl= 0 IROHF=0.

 **********************************************************************

            Population analysis using the SCF density.

 **********************************************************************

 Alpha  occ. eigenvalues -- -101.57748-101.55710 -24.73068 -24.72997 -10.42247
 Alpha  occ. eigenvalues --  -10.25498 -10.22394  -9.49235  -9.47109  -7.25697
 Alpha  occ. eigenvalues --   -7.24703  -7.24692  -7.23576  -7.22588  -7.22577
 Alpha  occ. eigenvalues --   -1.30755  -1.24508  -0.89739  -0.87360  -0.80267
 Alpha  occ. eigenvalues --   -0.70308  -0.65187  -0.60056  -0.57060  -0.55856
 Alpha  occ. eigenvalues --   -0.50996  -0.47612  -0.46309  -0.45160  -0.43453
 Alpha  occ. eigenvalues --   -0.42956  -0.41384  -0.38655  -0.34816  -0.34625
 Alpha  occ. eigenvalues --   -0.31886  -0.31610
 Alpha virt. eigenvalues --   -0.02518  -0.01642   0.00310   0.01950   0.02400
 Alpha virt. eigenvalues --    0.03237   0.05419   0.05709   0.06301   0.06935
 Alpha virt. eigenvalues --    0.07448   0.08858   0.09006   0.09878   0.10317
 Alpha virt. eigenvalues --    0.11367   0.12135   0.12564   0.13294   0.14063
 Alpha virt. eigenvalues --    0.14754   0.15152   0.15915   0.18181   0.20879
 Alpha virt. eigenvalues --    0.21443   0.21477   0.22012   0.22941   0.25905
 Alpha virt. eigenvalues --    0.26628   0.29234   0.32664   0.33534   0.34290
 Alpha virt. eigenvalues --    0.35238   0.35739   0.36910   0.37422   0.38238
 Alpha virt. eigenvalues --    0.39644   0.41225   0.41379   0.42200   0.42460
 Alpha virt. eigenvalues --    0.43770   0.44031   0.44379   0.45506   0.45982
 Alpha virt. eigenvalues --    0.46775   0.47670   0.49110   0.51089   0.51906
 Alpha virt. eigenvalues --    0.55317   0.57196   0.58199   0.59044   0.61224
 Alpha virt. eigenvalues --    0.62853   0.63320   0.66888   0.70517   0.72088
 Alpha virt. eigenvalues --    0.74320   0.75872   0.77634   0.78524   0.82580
 Alpha virt. eigenvalues --    0.85279   0.91600   0.93164   0.94997   0.98573
 Alpha virt. eigenvalues --    1.00775   1.02866   1.06732   1.08142   1.10985
 Alpha virt. eigenvalues --    1.13207   1.15005   1.18153   1.19852   1.21819
 Alpha virt. eigenvalues --    1.23512   1.25649   1.28680   1.30081   1.32773
 Alpha virt. eigenvalues --    1.33100   1.36104   1.37515   1.40423   1.42022
 Alpha virt. eigenvalues --    1.44061   1.44389   1.46035   1.47766   1.48656
 Alpha virt. eigenvalues --    1.51802   1.54219   1.56667   1.60263   1.63378
 Alpha virt. eigenvalues --    1.94857   1.99256   2.04620   2.06119   2.07389
 Alpha virt. eigenvalues --    2.10798   2.13913   2.24243   2.28457   2.29703
 Alpha virt. eigenvalues --    2.31482   2.34254   2.37345   2.37764   2.40966
 Alpha virt. eigenvalues --    2.41552   2.43459   2.44964   2.47715   2.51226
 Alpha virt. eigenvalues --    2.53364   2.54451   2.55868   2.61183   2.67763
 Alpha virt. eigenvalues --    2.67990   2.71808   2.74152   2.77877   2.82930
 Alpha virt. eigenvalues --    2.88874   2.91125   3.06457   3.11248   3.21747
 Alpha virt. eigenvalues --    3.25442   3.30029   3.33104   3.36386   3.38398
 Alpha virt. eigenvalues --    3.42046   3.44114   3.44686   3.47934   3.50655
 Alpha virt. eigenvalues --    3.56125   3.57551   3.58632   3.61573   3.64328
 Alpha virt. eigenvalues --    3.65200   3.67003   3.78713   3.91797   3.94471
 Alpha virt. eigenvalues --    3.98052   4.01682   4.05156   4.09970   4.13776
 Alpha virt. eigenvalues --    4.19653   4.24642   4.27869   4.34780   4.64880
 Alpha virt. eigenvalues --    4.82182   5.04520   5.08340   6.32244   6.35211
 Alpha virt. eigenvalues --    6.37359   6.40201   6.50310   6.72664   9.01134
 Alpha virt. eigenvalues --    9.04884   9.10417   9.11552   9.16900   9.32601
 Alpha virt. eigenvalues --    9.34320   9.50448   9.61862   9.71895   9.77113
 Alpha virt. eigenvalues --    9.79356  23.73771  23.84368  23.89749  25.93278
 Alpha virt. eigenvalues --   25.95965  25.99830  26.07816  27.13232  27.29097
 Alpha virt. eigenvalues --   66.81712  66.83458 215.76142 215.79406
          Condensed to atoms (all electrons):
               1          2          3          4          5          6
     1  C    5.965435  -0.186150  -0.269867   0.036812  -0.187691  -0.107860
     2  C   -0.186150   5.100751   0.127241   0.121132   0.281956   0.277982
     3  C   -0.269867   0.127241   5.379986   0.081125   0.020173   0.002455
     4  Cl   0.036812   0.121132   0.081125  16.965326  -0.098534  -0.095417
     5  F   -0.187691   0.281956   0.020173  -0.098534   9.246467  -0.016758
     6  F   -0.107860   0.277982   0.002455  -0.095417  -0.016758   9.194741
     7  Cl   0.025827  -0.036713   0.250915  -0.003363   0.000505  -0.000558
     8  H    0.444889  -0.028343  -0.032252  -0.009661   0.002605   0.003124
     9  H    0.396904  -0.031601  -0.001650   0.008448   0.005641  -0.004486
    10  H   -0.060028   0.011313   0.440273   0.000463   0.000086   0.002412
    11  H   -0.019694  -0.015280   0.411452  -0.001967  -0.000135  -0.002663
               7          8          9         10         11
     1  C    0.025827   0.444889   0.396904  -0.060028  -0.019694
     2  C   -0.036713  -0.028343  -0.031601   0.011313  -0.015280
     3  C    0.250915  -0.032252  -0.001650   0.440273   0.411452
     4  Cl  -0.003363  -0.009661   0.008448   0.000463  -0.001967
     5  F    0.000505   0.002605   0.005641   0.000086  -0.000135
     6  F   -0.000558   0.003124  -0.004486   0.002412  -0.002663
     7  Cl  16.826235  -0.001566  -0.008350  -0.041125  -0.035453
     8  H   -0.001566   0.506577  -0.023036   0.004307  -0.005491
     9  H   -0.008350  -0.023036   0.521607  -0.005395   0.004189
    10  H   -0.041125   0.004307  -0.005395   0.546504  -0.034617
    11  H   -0.035453  -0.005491   0.004189  -0.034617   0.553322
 Mulliken charges:
               1
     1  C   -0.038577
     2  C    0.377712
     3  C   -0.409850
     4  Cl  -0.004363
     5  F   -0.254314
     6  F   -0.252972
     7  Cl   0.023646
     8  H    0.138847
     9  H    0.137729
    10  H    0.135807
    11  H    0.146336
 Sum of Mulliken charges =   0.00000
 Mulliken charges with hydrogens summed into heavy atoms:
               1
     1  C    0.237999
     2  C    0.377712
     3  C   -0.127707
     4  Cl  -0.004363
     5  F   -0.254314
     6  F   -0.252972
     7  Cl   0.023646
 Electronic spatial extent (au):  <R**2>=        1292756.0108
 Charge=              0.0000 electrons
 Dipole moment (field-independent basis, Debye):
    X=              0.0951    Y=              0.1398    Z=             -0.2662  Tot=              0.3154
 Quadrupole moment (field-independent basis, Debye-Ang):
   XX=            -45.3230   YY=            -43.7923   ZZ=            -79.5535
   XY=             11.0768   XZ=             -7.6333   YZ=             -5.2083
 Traceless Quadrupole moment (field-independent basis, Debye-Ang):
   XX=             10.8999   YY=             12.4306   ZZ=            -23.3306
   XY=             11.0768   XZ=             -7.6333   YZ=             -5.2083
 Octapole moment (field-independent basis, Debye-Ang**2):
  XXX=          -7611.9371  YYY=          -5237.0067  ZZZ=          -6867.3186  XYY=          -2052.2643
  XXY=          -1203.1485  XXZ=          -1866.2018  XZZ=          -3752.6303  YZZ=          -2710.3117
  YYZ=          -1767.4839  XYZ=            -36.2053
 Hexadecapole moment (field-independent basis, Debye-Ang**3):
 XXXX=        -795413.6368 YYYY=        -387834.0693 ZZZZ=        -426240.7084 XXXY=        -249647.9906
 XXXZ=        -259021.0332 YYYX=        -258429.3255 YYYZ=        -182006.3601 ZZZX=        -335945.7039
 ZZZY=        -241434.6904 XXYY=        -166030.1814 XXZZ=        -233682.1979 YYZZ=        -148334.8662
 XXYZ=         -53899.7863 YYXZ=         -80622.3497 ZZXY=        -126809.2244
 N-N= 4.545904547106D+02 E-N=-3.844111988280D+03  KE= 1.233758936210D+03
 No NMR shielding tensors so no spin-rotation constants.
 Leave Link  601 at Thu Jun 13 12:23:52 2024, MaxMem=  1073741824 cpu:         6.9
 (Enter /apps/z_install_tree/linux-rocky8-ivybridge/gcc-12.2.0/gaussian-09-D.01-wczn3gur5lpur3omlkzwa2l5ecyxp5ef/g09/l9999.exe)
 1\1\GINC-K024\FOpt\RB3LYP\Gen\C3H4Cl2F2\Z5112331\13-Jun-2024\0\\#p opt
  freq b3lyp/gen nosymm em=gd3 int=ultrafine scf=xqc scfcyc=96\\dichlor
 odifluoropropane\\0,1\C,50.1256067019,35.3609662272,31.9245731733\C,50
 .0514275283,35.6058493009,33.4164421799\C,51.5070997149,35.6237187354,
 31.3485880567\Cl,50.3704637982,37.3273537639,33.8666863292\F,48.825185
 8613,35.279474756,33.8781902675\F,50.9438448836,34.833644878,34.080612
 6778\Cl,51.5175612073,35.240381134,29.5768532103\H,49.3776333224,35.98
 66197266,31.4432194644\H,49.8447472084,34.3180689743,31.7757625822\H,5
 2.2607347686,34.9946975074,31.8105586649\H,51.793695005,36.6652249962,
 31.4455133938\\Version=ES64L-G09RevD.01\HF=-1236.9913373\RMSD=2.461e-0
 9\RMSF=4.710e-05\Dipole=0.0374126,0.0549862,-0.1047407\Quadrupole=8.10
 38457,9.241865,-17.3457107,8.2353083,-5.6751602,-3.872245\PG=C01 [X(C3
 H4Cl2F2)]\\@


 BE NOT THE FIRST BY WHOM THE NEW ARE TRIED,
 NOR YET THE THE LAST TO LAY THE OLD ASIDE.

                          -- ALEXANDER POPE
 Leave Link 9999 at Thu Jun 13 12:23:52 2024, MaxMem=  1073741824 cpu:         1.0
 Job cpu time:       0 days  0 hours 29 minutes 39.4 seconds.
 File lengths (MBytes):  RWF=    132 Int=      0 D2E=      0 Chk=      6 Scr=      2
 Normal termination of Gaussian 09 at Thu Jun 13 12:23:52 2024.
 (Enter /apps/z_install_tree/linux-rocky8-ivybridge/gcc-12.2.0/gaussian-09-D.01-wczn3gur5lpur3omlkzwa2l5ecyxp5ef/g09/l1.exe)
 Link1:  Proceeding to internal job step number  2.
 ------------------------------------------------------------------
 #P Geom=AllCheck Guess=TCheck SCRF=Check GenChk RB3LYP/ChkBas Freq
 ------------------------------------------------------------------
 1/10=4,29=7,30=1,38=1,40=1/1,3;
 2/12=2,15=1,40=1/2;
 3/5=7,6=2,11=2,14=-4,16=1,25=1,30=1,67=1,70=2,71=2,74=-5,75=-5,82=7,116=1,124=31,140=1/1,2,3;
 4/5=101/1;
 5/5=2,7=96,8=3,13=1,98=1/2,8;
 8/6=4,10=90,11=11/1;
 11/6=1,8=1,9=11,15=111,16=1,31=1/1,2,10;
 10/6=1,31=1/2;
 6/7=2,8=2,9=2,10=2,18=1,28=1/1;
 7/8=1,10=1,25=1,30=1/1,2,3,16;
 1/10=4,30=1/3;
 99//99;
 Leave Link    1 at Thu Jun 13 12:23:52 2024, MaxMem=  1073741824 cpu:         0.6
 (Enter /apps/z_install_tree/linux-rocky8-ivybridge/gcc-12.2.0/gaussian-09-D.01-wczn3gur5lpur3omlkzwa2l5ecyxp5ef/g09/l101.exe)
 Structure from the checkpoint file:  "dichlorodifluoropropane.chk"
 -----------------------
 dichlorodifluoropropane
 -----------------------
 Charge =  0 Multiplicity = 1
 Redundant internal coordinates found in file.
 C,0,50.1256067019,35.3609662272,31.9245731733
 C,0,50.0514275283,35.6058493009,33.4164421799
 C,0,51.5070997149,35.6237187354,31.3485880567
 Cl,0,50.3704637982,37.3273537639,33.8666863292
 F,0,48.8251858613,35.279474756,33.8781902675
 F,0,50.9438448836,34.833644878,34.0806126778
 Cl,0,51.5175612073,35.240381134,29.5768532103
 H,0,49.3776333224,35.9866197266,31.4432194644
 H,0,49.8447472084,34.3180689743,31.7757625822
 H,0,52.2607347686,34.9946975074,31.8105586649
 H,0,51.793695005,36.6652249962,31.4455133938
 Recover connectivity data from disk.
 NAtoms=     11 NQM=       11 NQMF=       0 NMMI=      0 NMMIF=      0
                NMic=       0 NMicF=      0.
                    Isotopes and Nuclear Properties:
 (Nuclear quadrupole moments (NQMom) in fm**2, nuclear magnetic moments (NMagM)
  in nuclear magnetons)

  Atom         1           2           3           4           5           6           7           8           9          10
 IAtWgt=          12          12          12          35          19          19          35           1           1           1
 AtmWgt=  12.0000000  12.0000000  12.0000000  34.9688527  18.9984033  18.9984033  34.9688527   1.0078250   1.0078250   1.0078250
 NucSpn=           0           0           0           3           1           1           3           1           1           1
 AtZEff=  -3.6000000  -3.6000000  -3.6000000 -14.2400000  -6.7500000  -6.7500000 -14.2400000  -1.0000000  -1.0000000  -1.0000000
 NQMom=    0.0000000   0.0000000   0.0000000  -8.1650000   0.0000000   0.0000000  -8.1650000   0.0000000   0.0000000   0.0000000
 NMagM=    0.0000000   0.0000000   0.0000000   0.8218740   2.6288670   2.6288670   0.8218740   2.7928460   2.7928460   2.7928460
 AtZNuc=   6.0000000   6.0000000   6.0000000  17.0000000   9.0000000   9.0000000  17.0000000   1.0000000   1.0000000   1.0000000

  Atom        11
 IAtWgt=           1
 AtmWgt=   1.0078250
 NucSpn=           1
 AtZEff=  -1.0000000
 NQMom=    0.0000000
 NMagM=    2.7928460
 AtZNuc=   1.0000000
 Leave Link  101 at Thu Jun 13 12:23:53 2024, MaxMem=  1073741824 cpu:         3.4
 (Enter /apps/z_install_tree/linux-rocky8-ivybridge/gcc-12.2.0/gaussian-09-D.01-wczn3gur5lpur3omlkzwa2l5ecyxp5ef/g09/l103.exe)

 GradGradGradGradGradGradGradGradGradGradGradGradGradGradGradGradGradGrad
 Berny optimization.
 Initialization pass.
                           ----------------------------
                           !    Initial Parameters    !
                           ! (Angstroms and Degrees)  !
 --------------------------                            --------------------------
 ! Name  Definition              Value          Derivative Info.                !
 --------------------------------------------------------------------------------
 ! R1    R(1,2)                  1.5137         calculate D2E/DX2 analytically  !
 ! R2    R(1,3)                  1.5196         calculate D2E/DX2 analytically  !
 ! R3    R(1,8)                  1.0875         calculate D2E/DX2 analytically  !
 ! R4    R(1,9)                  1.0903         calculate D2E/DX2 analytically  !
 ! R5    R(2,4)                  1.8078         calculate D2E/DX2 analytically  !
 ! R6    R(2,5)                  1.3503         calculate D2E/DX2 analytically  !
 ! R7    R(2,6)                  1.3542         calculate D2E/DX2 analytically  !
 ! R8    R(3,7)                  1.8128         calculate D2E/DX2 analytically  !
 ! R9    R(3,10)                 1.0849         calculate D2E/DX2 analytically  !
 ! R10   R(3,11)                 1.0846         calculate D2E/DX2 analytically  !
 ! A1    A(2,1,3)              112.9638         calculate D2E/DX2 analytically  !
 ! A2    A(2,1,8)              108.0278         calculate D2E/DX2 analytically  !
 ! A3    A(2,1,9)              106.0608         calculate D2E/DX2 analytically  !
 ! A4    A(3,1,8)              110.9793         calculate D2E/DX2 analytically  !
 ! A5    A(3,1,9)              110.3558         calculate D2E/DX2 analytically  !
 ! A6    A(8,1,9)              108.224          calculate D2E/DX2 analytically  !
 ! A7    A(1,2,4)              113.0097         calculate D2E/DX2 analytically  !
 ! A8    A(1,2,5)              110.025          calculate D2E/DX2 analytically  !
 ! A9    A(1,2,6)              111.0295         calculate D2E/DX2 analytically  !
 ! A10   A(4,2,5)              107.7738         calculate D2E/DX2 analytically  !
 ! A11   A(4,2,6)              107.732          calculate D2E/DX2 analytically  !
 ! A12   A(5,2,6)              107.0321         calculate D2E/DX2 analytically  !
 ! A13   A(1,3,7)              109.8239         calculate D2E/DX2 analytically  !
 ! A14   A(1,3,10)             111.7066         calculate D2E/DX2 analytically  !
 ! A15   A(1,3,11)             111.8634         calculate D2E/DX2 analytically  !
 ! A16   A(7,3,10)             106.8316         calculate D2E/DX2 analytically  !
 ! A17   A(7,3,11)             106.7917         calculate D2E/DX2 analytically  !
 ! A18   A(10,3,11)            109.5821         calculate D2E/DX2 analytically  !
 ! D1    D(3,1,2,4)             63.1185         calculate D2E/DX2 analytically  !
 ! D2    D(3,1,2,5)           -176.3664         calculate D2E/DX2 analytically  !
 ! D3    D(3,1,2,6)            -58.0643         calculate D2E/DX2 analytically  !
 ! D4    D(8,1,2,4)            -60.0312         calculate D2E/DX2 analytically  !
 ! D5    D(8,1,2,5)             60.4839         calculate D2E/DX2 analytically  !
 ! D6    D(8,1,2,6)            178.786          calculate D2E/DX2 analytically  !
 ! D7    D(9,1,2,4)           -175.8759         calculate D2E/DX2 analytically  !
 ! D8    D(9,1,2,5)            -55.3609         calculate D2E/DX2 analytically  !
 ! D9    D(9,1,2,6)             62.9412         calculate D2E/DX2 analytically  !
 ! D10   D(2,1,3,7)            177.6937         calculate D2E/DX2 analytically  !
 ! D11   D(2,1,3,10)            59.3474         calculate D2E/DX2 analytically  !
 ! D12   D(2,1,3,11)           -63.9117         calculate D2E/DX2 analytically  !
 ! D13   D(8,1,3,7)            -60.809          calculate D2E/DX2 analytically  !
 ! D14   D(8,1,3,10)          -179.1553         calculate D2E/DX2 analytically  !
 ! D15   D(8,1,3,11)            57.5856         calculate D2E/DX2 analytically  !
 ! D16   D(9,1,3,7)             59.1588         calculate D2E/DX2 analytically  !
 ! D17   D(9,1,3,10)           -59.1875         calculate D2E/DX2 analytically  !
 ! D18   D(9,1,3,11)           177.5534         calculate D2E/DX2 analytically  !
 --------------------------------------------------------------------------------
 Trust Radius=3.00D-01 FncErr=1.00D-07 GrdErr=1.00D-07
 Number of steps in this run=      2 maximum allowed number of steps=      2.
 GradGradGradGradGradGradGradGradGradGradGradGradGradGradGradGradGradGrad

 Leave Link  103 at Thu Jun 13 12:23:53 2024, MaxMem=  1073741824 cpu:         0.1
 (Enter /apps/z_install_tree/linux-rocky8-ivybridge/gcc-12.2.0/gaussian-09-D.01-wczn3gur5lpur3omlkzwa2l5ecyxp5ef/g09/l202.exe)
                          Input orientation:                          
 ---------------------------------------------------------------------
 Center     Atomic      Atomic             Coordinates (Angstroms)
 Number     Number       Type             X           Y           Z
 ---------------------------------------------------------------------
      1          6           0       50.125607   35.360966   31.924573
      2          6           0       50.051428   35.605849   33.416442
      3          6           0       51.507100   35.623719   31.348588
      4         17           0       50.370464   37.327354   33.866686
      5          9           0       48.825186   35.279475   33.878190
      6          9           0       50.943845   34.833645   34.080613
      7         17           0       51.517561   35.240381   29.576853
      8          1           0       49.377633   35.986620   31.443219
      9          1           0       49.844747   34.318069   31.775763
     10          1           0       52.260735   34.994698   31.810559
     11          1           0       51.793695   36.665225   31.445513
 ---------------------------------------------------------------------
                    Distance matrix (angstroms):
                    1          2          3          4          5
     1  C    0.000000
     2  C    1.513652   0.000000
     3  C    1.519645   2.528897   0.000000
     4  Cl   2.774606   1.807784   3.245787   0.000000
     5  F    2.348266   1.350333   3.702709   2.565507   0.000000
     6  F    2.365605   1.354190   2.899212   2.567706   2.174501
     7  Cl   2.732008   4.126204   1.812761   4.906522   5.074634
     8  H    1.087478   2.119574   2.162239   2.942188   2.595060
     9  H    1.090257   2.095930   2.156529   3.701910   2.526660
    10  H    2.169314   2.798822   1.084920   3.638966   4.019850
    11  H    2.170969   2.835901   1.084558   2.885495   4.080474
                    6          7          8          9         10
     6  F    0.000000
     7  Cl   4.558337   0.000000
     8  H    3.276921   2.935896   0.000000
     9  H    2.605027   2.912760   1.764325   0.000000
    10  H    2.629312   2.366877   3.071013   2.509190   0.000000
    11  H    3.319741   2.366077   2.509555   3.068648   1.772582
                   11
    11  H    0.000000
 Symmetry turned off by external request.
 Stoichiometry    C3H4Cl2F2
 Framework group  C1[X(C3H4Cl2F2)]
 Deg. of freedom    27
 Full point group                 C1      NOp   1
 Rotational constants (GHZ):      3.1519674      0.8286165      0.7596257
 Leave Link  202 at Thu Jun 13 12:23:53 2024, MaxMem=  1073741824 cpu:         1.3
 (Enter /apps/z_install_tree/linux-rocky8-ivybridge/gcc-12.2.0/gaussian-09-D.01-wczn3gur5lpur3omlkzwa2l5ecyxp5ef/g09/l301.exe)
 Basis read from chk: "dichlorodifluoropropane.chk" (5D, 7F)
 No pseudopotential information found on chk file.
   241 basis functions,   372 primitive gaussians,   255 cartesian basis functions
    37 alpha electrons       37 beta electrons
       nuclear repulsion energy       454.6002954411 Hartrees.
 IExCor=  402 DFT=T Ex+Corr=B3LYP ExCW=0 ScaHFX=  0.200000
 ScaDFX=  0.800000  0.720000  1.000000  0.810000 ScalE2=  1.000000  1.000000
 IRadAn=      5 IRanWt=     -1 IRanGd=            0 ICorTp=0 IEmpDi=131
 NAtoms=   11 NActive=   11 NUniq=   11 SFac= 1.00D+00 NAtFMM=   60 NAOKFM=F Big=F
 Integral buffers will be    131072 words long.
 Raffenetti 2 integral format.
 Two-electron integral symmetry is turned off.
 R6Disp:  Grimme-D3 Dispersion energy=       -0.0098407304 Hartrees.
 Nuclear repulsion after empirical dispersion term =      454.5904547106 Hartrees.
 No density basis found on file 20724.
 Leave Link  301 at Thu Jun 13 12:23:53 2024, MaxMem=  1073741824 cpu:         1.5
 (Enter /apps/z_install_tree/linux-rocky8-ivybridge/gcc-12.2.0/gaussian-09-D.01-wczn3gur5lpur3omlkzwa2l5ecyxp5ef/g09/l302.exe)
 NPDir=0 NMtPBC=     1 NCelOv=     1 NCel=       1 NClECP=     1 NCelD=      1
         NCelK=      1 NCelE2=     1 NClLst=     1 CellRange=     0.0.
 One-electron integrals computed using PRISM.
 NBasis=   241 RedAO= T EigKep=  2.39D-05  NBF=   241
 NBsUse=   241 1.00D-06 EigRej= -1.00D+00 NBFU=   241
 Precomputing XC quadrature grid using
 IXCGrd= 4 IRadAn=           5 IRanWt=          -1 IRanGd=           0 AccXCQ= 0.00D+00.
 Generated NRdTot=       0 NPtTot=           0 NUsed=           0 NTot=          32
 NSgBfM=   255   255   255   255   255 MxSgAt=    11 MxSgA2=    11.
 Leave Link  302 at Thu Jun 13 12:23:54 2024, MaxMem=  1073741824 cpu:         6.3
 (Enter /apps/z_install_tree/linux-rocky8-ivybridge/gcc-12.2.0/gaussian-09-D.01-wczn3gur5lpur3omlkzwa2l5ecyxp5ef/g09/l303.exe)
 DipDrv:  MaxL=1.
 Leave Link  303 at Thu Jun 13 12:23:54 2024, MaxMem=  1073741824 cpu:         1.1
 (Enter /apps/z_install_tree/linux-rocky8-ivybridge/gcc-12.2.0/gaussian-09-D.01-wczn3gur5lpur3omlkzwa2l5ecyxp5ef/g09/l401.exe)
 Initial guess from the checkpoint file:  "dichlorodifluoropropane.chk"
 B after Tr=     0.000000    0.000000    0.000000
         Rot=    1.000000    0.000000    0.000000    0.000000 Ang=   0.00 deg.
 Guess basis will be translated and rotated to current coordinates.
 JPrj=2 DoOrth=T DoCkMO=T.
 Leave Link  401 at Thu Jun 13 12:23:54 2024, MaxMem=  1073741824 cpu:         4.0
 (Enter /apps/z_install_tree/linux-rocky8-ivybridge/gcc-12.2.0/gaussian-09-D.01-wczn3gur5lpur3omlkzwa2l5ecyxp5ef/g09/l502.exe)
 Closed shell SCF:
 Using DIIS extrapolation, IDIIS=  1040.
 Two-electron integral symmetry not used.
 Keep R1 ints in memory in canonical form, NReq=433797970.
 IVT=      212949 IEndB=      212949 NGot=  1073741824 MDV=   648332335
 LenX=   648332335 LenY=   648266869
 Requested convergence on RMS density matrix=1.00D-08 within  96 cycles.
 Requested convergence on MAX density matrix=1.00D-06.
 Requested convergence on             energy=1.00D-06.
 No special actions if energy rises.
 FoFCou: FMM=F IPFlag=           0 FMFlag=           0 FMFlg1=           0
         NFxFlg=           0 DoJE=F BraDBF=F KetDBF=F FulRan=T
         wScrn=  0.000000 ICntrl=     600 IOpCl=  0 I1Cent=           0 NGrid=           0
         NMat0=    1 NMatS0=  29161 NMatT0=    0 NMatD0=    1 NMtDS0=    0 NMtDT0=    0
 Symmetry not used in FoFCou.

 Cycle   1  Pass 1  IDiag  1:
 E= -1236.99133731068    
 DIIS: error= 6.15D-09 at cycle   1 NSaved=   1.
 NSaved= 1 IEnMin= 1 EnMin= -1236.99133731068     IErMin= 1 ErrMin= 6.15D-09
 ErrMax= 6.15D-09  0.00D+00 EMaxC= 1.00D-01 BMatC= 1.99D-14 BMatP= 1.99D-14
 IDIUse=1 WtCom= 1.00D+00 WtEn= 0.00D+00
 Coeff-Com:  0.100D+01
 Coeff:      0.100D+01
 Gap=     0.291 Goal=   None    Shift=    0.000
 RMSDP=2.13D-09 MaxDP=1.08D-07              OVMax= 5.70D-08

 SCF Done:  E(RB3LYP) =  -1236.99133731     A.U. after    1 cycles
            NFock=  1  Conv=0.21D-08     -V/T= 2.0026
 KE= 1.233758934542D+03 PE=-3.844111986612D+03 EE= 9.187712600493D+02
 Leave Link  502 at Thu Jun 13 12:23:57 2024, MaxMem=  1073741824 cpu:        31.5
 (Enter /apps/z_install_tree/linux-rocky8-ivybridge/gcc-12.2.0/gaussian-09-D.01-wczn3gur5lpur3omlkzwa2l5ecyxp5ef/g09/l508.exe)
 QCSCF skips out because SCF is already converged.
 Leave Link  508 at Thu Jun 13 12:23:57 2024, MaxMem=  1073741824 cpu:         0.0
 (Enter /apps/z_install_tree/linux-rocky8-ivybridge/gcc-12.2.0/gaussian-09-D.01-wczn3gur5lpur3omlkzwa2l5ecyxp5ef/g09/l801.exe)
 DoSCS=F DFT=T ScalE2(SS,OS)=  1.000000  1.000000
 Range of M.O.s used for correlation:     1   241
 NBasis=   241 NAE=    37 NBE=    37 NFC=     0 NFV=     0
 NROrb=    241 NOA=    37 NOB=    37 NVA=   204 NVB=   204

 **** Warning!!: The largest alpha MO coefficient is  0.74739290D+02

 Leave Link  801 at Thu Jun 13 12:23:57 2024, MaxMem=  1073741824 cpu:         0.4
 (Enter /apps/z_install_tree/linux-rocky8-ivybridge/gcc-12.2.0/gaussian-09-D.01-wczn3gur5lpur3omlkzwa2l5ecyxp5ef/g09/l1101.exe)
 Using compressed storage, NAtomX=    11.
 Will process     12 centers per pass.
 R6Disp: Adding Grimme-D3 dispersion energy 1st derivatives to the gradient.
 Leave Link 1101 at Thu Jun 13 12:23:57 2024, MaxMem=  1073741824 cpu:         4.7
 (Enter /apps/z_install_tree/linux-rocky8-ivybridge/gcc-12.2.0/gaussian-09-D.01-wczn3gur5lpur3omlkzwa2l5ecyxp5ef/g09/l1102.exe)
 Symmetrizing basis deriv contribution to polar:
 IMax=3 JMax=2 DiffMx= 0.00D+00
 Leave Link 1102 at Thu Jun 13 12:23:58 2024, MaxMem=  1073741824 cpu:         1.7
 (Enter /apps/z_install_tree/linux-rocky8-ivybridge/gcc-12.2.0/gaussian-09-D.01-wczn3gur5lpur3omlkzwa2l5ecyxp5ef/g09/l1110.exe)
 Forming Gx(P) for the SCF density, NAtomX=    11.
 Integral derivatives from FoFJK, PRISM(SPDF).
 Do as many integral derivatives as possible in FoFJK.
 G2DrvN: MDV=    1073741632.
 G2DrvN: will do    12 centers at a time, making    1 passes.
 Calling FoFCou, ICntrl=  3107 FMM=F I1Cent=   0 AccDes= 0.00D+00.
 FoFJK:  IHMeth= 1 ICntrl=    3107 DoSepK=F KAlg= 0 I1Cent=   0 FoldK=F
 IRaf=         0 NMat=   1 IRICut=       1 DoRegI=T DoRafI=F ISym2E= 0.
 FoFCou: FMM=F IPFlag=           0 FMFlag=      100000 FMFlg1=           0
         NFxFlg=           0 DoJE=F BraDBF=F KetDBF=F FulRan=T
         wScrn=  0.000000 ICntrl=    3107 IOpCl=  0 I1Cent=           0 NGrid=           0
         NMat0=    1 NMatS0=      1 NMatT0=    0 NMatD0=    1 NMtDS0=    0 NMtDT0=    0
 Symmetry not used in FoFCou.
 End of G2Drv F.D. properties file   721 does not exist.
 End of G2Drv F.D. properties file   722 does not exist.
 End of G2Drv F.D. properties file   788 does not exist.
 Leave Link 1110 at Thu Jun 13 12:24:14 2024, MaxMem=  1073741824 cpu:       321.8
 (Enter /apps/z_install_tree/linux-rocky8-ivybridge/gcc-12.2.0/gaussian-09-D.01-wczn3gur5lpur3omlkzwa2l5ecyxp5ef/g09/l1002.exe)
 Minotr:  Closed shell wavefunction.
          IDoAtm=11111111111
          Direct CPHF calculation.
          Differentiating once with respect to electric field.
                with respect to dipole field.
          Differentiating once with respect to nuclear coordinates.
          Requested convergence is 1.0D-08 RMS, and 1.0D-07 maximum.
          Secondary convergence is 1.0D-12 RMS, and 1.0D-12 maximum.
          NewPWx=T KeepS1=F KeepF1=F KeepIn=T MapXYZ=F SortEE=F KeepMc=T.
          MDV=    1073741469 using IRadAn=       1.
 Generate precomputed XC quadrature information.
 Keep R1 ints in memory in canonical form, NReq=433590362.
 FoFCou: FMM=F IPFlag=           0 FMFlag=           0 FMFlg1=           0
         NFxFlg=           0 DoJE=F BraDBF=F KetDBF=F FulRan=T
         wScrn=  0.000000 ICntrl=     600 IOpCl=  0 I1Cent=           0 NGrid=           0
         NMat0=    1 NMatS0=  29161 NMatT0=    0 NMatD0=    1 NMtDS0=    0 NMtDT0=    0
 Symmetry not used in FoFCou.
          Solving linear equations simultaneously, MaxMat=       0.
          There are    36 degrees of freedom in the 1st order CPHF.  IDoFFX=6 NUNeed=     3.
     33 vectors produced by pass  0 Test12= 2.10D-14 2.78D-09 XBig12= 4.78D+01 3.05D+00.
 AX will form    33 AO Fock derivatives at one time.
     33 vectors produced by pass  1 Test12= 2.10D-14 2.78D-09 XBig12= 8.42D+00 6.00D-01.
     33 vectors produced by pass  2 Test12= 2.10D-14 2.78D-09 XBig12= 1.63D-01 4.21D-02.
     33 vectors produced by pass  3 Test12= 2.10D-14 2.78D-09 XBig12= 8.44D-04 5.09D-03.
     33 vectors produced by pass  4 Test12= 2.10D-14 2.78D-09 XBig12= 2.47D-06 1.97D-04.
     31 vectors produced by pass  5 Test12= 2.10D-14 2.78D-09 XBig12= 7.35D-09 1.00D-05.
     10 vectors produced by pass  6 Test12= 2.10D-14 2.78D-09 XBig12= 9.91D-12 3.93D-07.
      3 vectors produced by pass  7 Test12= 2.10D-14 2.78D-09 XBig12= 1.26D-14 1.44D-08.
 InvSVY:  IOpt=1 It=  1 EMax= 5.33D-15
 Solved reduced A of dimension   209 with    36 vectors.
 FullF1:  Do perturbations    1 to     3.
 Isotropic polarizability for W=    0.000000       65.58 Bohr**3.
 End of Minotr F.D. properties file   721 does not exist.
 End of Minotr F.D. properties file   722 does not exist.
 End of Minotr F.D. properties file   788 does not exist.
 Leave Link 1002 at Thu Jun 13 12:24:37 2024, MaxMem=  1073741824 cpu:       450.4
 (Enter /apps/z_install_tree/linux-rocky8-ivybridge/gcc-12.2.0/gaussian-09-D.01-wczn3gur5lpur3omlkzwa2l5ecyxp5ef/g09/l601.exe)
 Copying SCF densities to generalized density rwf, IOpCl= 0 IROHF=0.

 **********************************************************************

            Population analysis using the SCF density.

 **********************************************************************

 Alpha  occ. eigenvalues -- -101.57748-101.55710 -24.73068 -24.72997 -10.42248
 Alpha  occ. eigenvalues --  -10.25499 -10.22394  -9.49235  -9.47109  -7.25697
 Alpha  occ. eigenvalues --   -7.24703  -7.24692  -7.23576  -7.22588  -7.22577
 Alpha  occ. eigenvalues --   -1.30755  -1.24508  -0.89739  -0.87360  -0.80267
 Alpha  occ. eigenvalues --   -0.70308  -0.65187  -0.60056  -0.57060  -0.55856
 Alpha  occ. eigenvalues --   -0.50996  -0.47612  -0.46309  -0.45160  -0.43453
 Alpha  occ. eigenvalues --   -0.42956  -0.41384  -0.38655  -0.34816  -0.34625
 Alpha  occ. eigenvalues --   -0.31886  -0.31610
 Alpha virt. eigenvalues --   -0.02518  -0.01642   0.00310   0.01950   0.02400
 Alpha virt. eigenvalues --    0.03237   0.05419   0.05709   0.06301   0.06935
 Alpha virt. eigenvalues --    0.07448   0.08858   0.09006   0.09878   0.10317
 Alpha virt. eigenvalues --    0.11367   0.12135   0.12564   0.13294   0.14063
 Alpha virt. eigenvalues --    0.14754   0.15152   0.15915   0.18181   0.20879
 Alpha virt. eigenvalues --    0.21443   0.21477   0.22012   0.22941   0.25905
 Alpha virt. eigenvalues --    0.26628   0.29234   0.32664   0.33534   0.34290
 Alpha virt. eigenvalues --    0.35238   0.35739   0.36910   0.37422   0.38238
 Alpha virt. eigenvalues --    0.39644   0.41225   0.41379   0.42200   0.42460
 Alpha virt. eigenvalues --    0.43770   0.44031   0.44379   0.45506   0.45982
 Alpha virt. eigenvalues --    0.46775   0.47670   0.49110   0.51089   0.51906
 Alpha virt. eigenvalues --    0.55317   0.57196   0.58199   0.59044   0.61224
 Alpha virt. eigenvalues --    0.62853   0.63320   0.66888   0.70517   0.72088
 Alpha virt. eigenvalues --    0.74320   0.75872   0.77634   0.78524   0.82580
 Alpha virt. eigenvalues --    0.85279   0.91600   0.93164   0.94997   0.98573
 Alpha virt. eigenvalues --    1.00775   1.02866   1.06732   1.08142   1.10985
 Alpha virt. eigenvalues --    1.13207   1.15005   1.18153   1.19852   1.21819
 Alpha virt. eigenvalues --    1.23512   1.25649   1.28680   1.30081   1.32773
 Alpha virt. eigenvalues --    1.33100   1.36104   1.37515   1.40423   1.42022
 Alpha virt. eigenvalues --    1.44061   1.44389   1.46035   1.47766   1.48656
 Alpha virt. eigenvalues --    1.51802   1.54219   1.56667   1.60263   1.63378
 Alpha virt. eigenvalues --    1.94857   1.99256   2.04620   2.06119   2.07389
 Alpha virt. eigenvalues --    2.10798   2.13913   2.24243   2.28457   2.29703
 Alpha virt. eigenvalues --    2.31482   2.34254   2.37345   2.37764   2.40966
 Alpha virt. eigenvalues --    2.41552   2.43459   2.44964   2.47715   2.51226
 Alpha virt. eigenvalues --    2.53364   2.54451   2.55868   2.61183   2.67763
 Alpha virt. eigenvalues --    2.67990   2.71808   2.74152   2.77877   2.82930
 Alpha virt. eigenvalues --    2.88874   2.91125   3.06457   3.11248   3.21747
 Alpha virt. eigenvalues --    3.25442   3.30029   3.33104   3.36386   3.38398
 Alpha virt. eigenvalues --    3.42046   3.44114   3.44686   3.47934   3.50655
 Alpha virt. eigenvalues --    3.56125   3.57551   3.58632   3.61573   3.64328
 Alpha virt. eigenvalues --    3.65200   3.67003   3.78713   3.91797   3.94471
 Alpha virt. eigenvalues --    3.98052   4.01682   4.05156   4.09970   4.13776
 Alpha virt. eigenvalues --    4.19653   4.24642   4.27869   4.34780   4.64880
 Alpha virt. eigenvalues --    4.82182   5.04520   5.08340   6.32244   6.35211
 Alpha virt. eigenvalues --    6.37359   6.40201   6.50310   6.72664   9.01134
 Alpha virt. eigenvalues --    9.04884   9.10417   9.11552   9.16900   9.32601
 Alpha virt. eigenvalues --    9.34320   9.50448   9.61862   9.71895   9.77113
 Alpha virt. eigenvalues --    9.79356  23.73771  23.84367  23.89749  25.93278
 Alpha virt. eigenvalues --   25.95965  25.99830  26.07816  27.13232  27.29097
 Alpha virt. eigenvalues --   66.81712  66.83458 215.76142 215.79406
          Condensed to atoms (all electrons):
               1          2          3          4          5          6
     1  C    5.965435  -0.186150  -0.269867   0.036812  -0.187691  -0.107860
     2  C   -0.186150   5.100751   0.127241   0.121132   0.281956   0.277982
     3  C   -0.269867   0.127241   5.379986   0.081125   0.020173   0.002455
     4  Cl   0.036812   0.121132   0.081125  16.965326  -0.098534  -0.095417
     5  F   -0.187691   0.281956   0.020173  -0.098534   9.246467  -0.016758
     6  F   -0.107860   0.277982   0.002455  -0.095417  -0.016758   9.194741
     7  Cl   0.025827  -0.036713   0.250915  -0.003363   0.000505  -0.000558
     8  H    0.444889  -0.028343  -0.032252  -0.009661   0.002605   0.003124
     9  H    0.396904  -0.031601  -0.001650   0.008448   0.005641  -0.004486
    10  H   -0.060028   0.011313   0.440273   0.000463   0.000086   0.002412
    11  H   -0.019694  -0.015280   0.411452  -0.001967  -0.000135  -0.002663
               7          8          9         10         11
     1  C    0.025827   0.444889   0.396904  -0.060028  -0.019694
     2  C   -0.036713  -0.028343  -0.031601   0.011313  -0.015280
     3  C    0.250915  -0.032252  -0.001650   0.440273   0.411452
     4  Cl  -0.003363  -0.009661   0.008448   0.000463  -0.001967
     5  F    0.000505   0.002605   0.005641   0.000086  -0.000135
     6  F   -0.000558   0.003124  -0.004486   0.002412  -0.002663
     7  Cl  16.826235  -0.001566  -0.008350  -0.041125  -0.035453
     8  H   -0.001566   0.506577  -0.023036   0.004307  -0.005491
     9  H   -0.008350  -0.023036   0.521607  -0.005395   0.004189
    10  H   -0.041125   0.004307  -0.005395   0.546504  -0.034617
    11  H   -0.035453  -0.005491   0.004189  -0.034617   0.553322
 Mulliken charges:
               1
     1  C   -0.038577
     2  C    0.377711
     3  C   -0.409851
     4  Cl  -0.004363
     5  F   -0.254314
     6  F   -0.252972
     7  Cl   0.023646
     8  H    0.138847
     9  H    0.137729
    10  H    0.135807
    11  H    0.146336
 Sum of Mulliken charges =   0.00000
 Mulliken charges with hydrogens summed into heavy atoms:
               1
     1  C    0.237999
     2  C    0.377711
     3  C   -0.127708
     4  Cl  -0.004363
     5  F   -0.254314
     6  F   -0.252972
     7  Cl   0.023646
 APT charges:
               1
     1  C   -0.085758
     2  C    1.473570
     3  C    0.352943
     4  Cl  -0.344725
     5  F   -0.587452
     6  F   -0.557320
     7  Cl  -0.305151
     8  H    0.033948
     9  H    0.015376
    10  H    0.000750
    11  H    0.003820
 Sum of APT charges =   0.00000
 APT charges with hydrogens summed into heavy atoms:
               1
     1  C   -0.036434
     2  C    1.473570
     3  C    0.357513
     4  Cl  -0.344725
     5  F   -0.587452
     6  F   -0.557320
     7  Cl  -0.305151
 Electronic spatial extent (au):  <R**2>=        1292756.0108
 Charge=              0.0000 electrons
 Dipole moment (field-independent basis, Debye):
    X=              0.0951    Y=              0.1398    Z=             -0.2662  Tot=              0.3154
 Quadrupole moment (field-independent basis, Debye-Ang):
   XX=            -45.3230   YY=            -43.7923   ZZ=            -79.5536
   XY=             11.0768   XZ=             -7.6333   YZ=             -5.2083
 Traceless Quadrupole moment (field-independent basis, Debye-Ang):
   XX=             10.9000   YY=             12.4307   ZZ=            -23.3306
   XY=             11.0768   XZ=             -7.6333   YZ=             -5.2083
 Octapole moment (field-independent basis, Debye-Ang**2):
  XXX=          -7611.9378  YYY=          -5237.0054  ZZZ=          -6867.3220  XYY=          -2052.2633
  XXY=          -1203.1482  XXZ=          -1866.2052  XZZ=          -3752.6341  YZZ=          -2710.3139
  YYZ=          -1767.4846  XYZ=            -36.2071
 Hexadecapole moment (field-independent basis, Debye-Ang**3):
 XXXX=        -795413.6848 YYYY=        -387833.9968 ZZZZ=        -426240.8444 XXXY=        -249647.9816
 XXXZ=        -259021.2061 YYYX=        -258429.2614 YYYZ=        -182006.3632 ZZZX=        -335945.8744
 ZZZY=        -241434.7952 XXYY=        -166030.1369 XXZZ=        -233682.3906 YYZZ=        -148334.9275
 XXYZ=         -53899.8772 YYXZ=         -80622.3867 ZZXY=        -126809.3382
 N-N= 4.545904547106D+02 E-N=-3.844111986526D+03  KE= 1.233758934542D+03
  Exact polarizability:  57.479   0.727  63.790  -5.460   7.671  75.474
 Approx polarizability:  84.723   2.330  97.773  -1.225   7.259  99.547
 No NMR shielding tensors so no spin-rotation constants.
 Leave Link  601 at Thu Jun 13 12:24:38 2024, MaxMem=  1073741824 cpu:         5.0
 (Enter /apps/z_install_tree/linux-rocky8-ivybridge/gcc-12.2.0/gaussian-09-D.01-wczn3gur5lpur3omlkzwa2l5ecyxp5ef/g09/l701.exe)
 Compute integral second derivatives.
 ... and contract with generalized density number  0.
 R6Disp: Adding Grimme-D3 dispersion energy 2nd derivatives to the Hessian.
 Leave Link  701 at Thu Jun 13 12:24:38 2024, MaxMem=  1073741824 cpu:         3.4
 (Enter /apps/z_install_tree/linux-rocky8-ivybridge/gcc-12.2.0/gaussian-09-D.01-wczn3gur5lpur3omlkzwa2l5ecyxp5ef/g09/l702.exe)
 L702 exits ... SP integral derivatives will be done elsewhere.
 Leave Link  702 at Thu Jun 13 12:24:38 2024, MaxMem=  1073741824 cpu:         0.2
 (Enter /apps/z_install_tree/linux-rocky8-ivybridge/gcc-12.2.0/gaussian-09-D.01-wczn3gur5lpur3omlkzwa2l5ecyxp5ef/g09/l703.exe)
 Compute integral second derivatives, UseDBF=F ICtDFT=           0.
 Integral derivatives from FoFJK, PRISM(SPDF).
 Calling FoFJK, ICntrl=    100127 FMM=F ISym2X=0 I1Cent= 0 IOpClX= 0 NMat=1 NMatS=1 NMatT=0.
 FoFJK:  IHMeth= 1 ICntrl=  100127 DoSepK=F KAlg= 0 I1Cent=   0 FoldK=F
 IRaf=         0 NMat=   1 IRICut=       1 DoRegI=T DoRafI=F ISym2E= 0.
 FoFCou: FMM=F IPFlag=           0 FMFlag=      100000 FMFlg1=         800
         NFxFlg=           0 DoJE=F BraDBF=F KetDBF=F FulRan=T
         wScrn=  0.000000 ICntrl=  100127 IOpCl=  0 I1Cent=           0 NGrid=           0
         NMat0=    1 NMatS0=      1 NMatT0=    0 NMatD0=    1 NMtDS0=    0 NMtDT0=    0
 Symmetry not used in FoFCou.
 Leave Link  703 at Thu Jun 13 12:25:02 2024, MaxMem=  1073741824 cpu:       469.4
 (Enter /apps/z_install_tree/linux-rocky8-ivybridge/gcc-12.2.0/gaussian-09-D.01-wczn3gur5lpur3omlkzwa2l5ecyxp5ef/g09/l716.exe)
 Dipole        = 3.74125778D-02 5.49862806D-02-1.04741198D-01
 Polarizability= 5.74792868D+01 7.26580985D-01 6.37898412D+01
                -5.45977404D+00 7.67125020D+00 7.54740333D+01
 Full mass-weighted force constant matrix:
 Low frequencies ---   -2.1181   -0.0036   -0.0030   -0.0016    1.4460    4.0714
 Low frequencies ---   73.7943  111.4036  149.2308
 Diagonal vibrational polarizability:
       11.6193095      31.0631865       8.0896575
 Harmonic frequencies (cm**-1), IR intensities (KM/Mole), Raman scattering
 activities (A**4/AMU), depolarization ratios for plane and unpolarized
 incident light, reduced masses (AMU), force constants (mDyne/A),
 and normal coordinates:
                      1                      2                      3
                      A                      A                      A
 Frequencies --     73.7940               111.4035               149.2308
 Red. masses --      4.7633                 2.8793                 9.3229
 Frc consts  --      0.0153                 0.0211                 0.1223
 IR Inten    --      4.2502                 0.0503                 3.6120
  Atom  AN      X      Y      Z        X      Y      Z        X      Y      Z
     1   6    -0.05   0.16  -0.05     0.04  -0.15   0.05    -0.33   0.00  -0.04
     2   6     0.00   0.04  -0.03     0.00  -0.05   0.03    -0.11  -0.04  -0.02
     3   6    -0.09   0.31  -0.09    -0.06   0.21  -0.03    -0.26  -0.01   0.10
     4  17     0.00  -0.01   0.14     0.07  -0.04  -0.09     0.06  -0.02  -0.18
     5   9     0.01  -0.02  -0.02    -0.04   0.05  -0.01     0.03   0.00   0.33
     6   9     0.03  -0.02  -0.14    -0.08  -0.05   0.12     0.06  -0.06  -0.26
     7  17     0.04  -0.18   0.02     0.00   0.03   0.01     0.17   0.07   0.11
     8   1    -0.12   0.12   0.01    -0.15  -0.39   0.02    -0.29   0.08   0.01
     9   1     0.05   0.14  -0.10     0.32  -0.24   0.13    -0.38   0.02  -0.08
    10   1     0.03   0.58   0.10     0.16   0.49   0.01    -0.35  -0.02   0.23
    11   1    -0.31   0.39  -0.35    -0.38   0.30  -0.15    -0.27  -0.02   0.19
                      4                      5                      6
                      A                      A                      A
 Frequencies --    243.2363               324.5197               331.1064
 Red. masses --     11.3983                 4.1071                11.8017
 Frc consts  --      0.3973                 0.2548                 0.7623
 IR Inten    --      1.0552                 1.1823                 1.5359
  Atom  AN      X      Y      Z        X      Y      Z        X      Y      Z
     1   6    -0.13  -0.20   0.02    -0.04   0.26   0.01    -0.23  -0.10  -0.04
     2   6    -0.03   0.03   0.09    -0.01  -0.05   0.09    -0.10   0.05  -0.08
     3   6    -0.19  -0.14  -0.21     0.00   0.07  -0.04    -0.26  -0.09   0.03
     4  17    -0.04   0.02   0.19     0.04   0.00  -0.09     0.22  -0.05   0.07
     5   9    -0.02   0.13   0.20     0.01  -0.18   0.06    -0.10  -0.28  -0.30
     6   9    -0.04   0.08   0.15    -0.09  -0.02   0.21     0.09   0.44   0.09
     7  17     0.22  -0.01  -0.34     0.03  -0.02  -0.07     0.02   0.02   0.07
     8   1    -0.27  -0.35   0.03     0.09   0.60   0.24    -0.29  -0.16  -0.04
     9   1    -0.07  -0.25   0.27    -0.33   0.38  -0.30    -0.22  -0.12   0.10
    10   1    -0.13  -0.08  -0.23    -0.09  -0.03  -0.03    -0.30  -0.08   0.11
    11   1    -0.27  -0.13  -0.18     0.15   0.03  -0.09    -0.28  -0.09   0.12
                      7                      8                      9
                      A                      A                      A
 Frequencies --    416.0936               453.9281               574.8838
 Red. masses --     14.4547                 6.5933                10.4679
 Frc consts  --      1.4745                 0.8004                 2.0383
 IR Inten    --      3.3601                 3.2452                22.9384
  Atom  AN      X      Y      Z        X      Y      Z        X      Y      Z
     1   6    -0.02  -0.17   0.05     0.16  -0.03  -0.06    -0.05  -0.09  -0.40
     2   6    -0.02  -0.05   0.03    -0.24   0.06  -0.04     0.09   0.03  -0.30
     3   6    -0.08  -0.08   0.01     0.28   0.05   0.03    -0.03  -0.04  -0.15
     4  17     0.09   0.47   0.07     0.08  -0.02   0.02    -0.02  -0.03   0.06
     5   9     0.06  -0.35  -0.08    -0.13  -0.16   0.26     0.41   0.01   0.09
     6   9    -0.18  -0.30  -0.11    -0.15   0.18  -0.13    -0.31   0.07   0.15
     7  17     0.01   0.01  -0.01    -0.03  -0.01  -0.05    -0.03   0.02   0.13
     8   1    -0.15  -0.42  -0.05     0.20  -0.25  -0.41    -0.01  -0.05  -0.42
     9   1     0.17  -0.26   0.33     0.41  -0.10  -0.01    -0.06  -0.09  -0.41
    10   1    -0.02  -0.02  -0.01     0.32   0.05  -0.05    -0.09  -0.01  -0.01
    11   1    -0.17  -0.05   0.05     0.27   0.06  -0.05    -0.09  -0.03   0.00
                     10                     11                     12
                      A                      A                      A
 Frequencies --    660.7005               748.9901               798.5167
 Red. masses --      4.1741                 5.7323                 1.2913
 Frc consts  --      1.0736                 1.8946                 0.4851
 IR Inten    --     69.2825                41.2619                 2.9718
  Atom  AN      X      Y      Z        X      Y      Z        X      Y      Z
     1   6     0.01   0.10   0.22    -0.08  -0.07  -0.04    -0.04   0.05  -0.07
     2   6     0.06   0.29   0.05    -0.02  -0.09  -0.08    -0.01  -0.02  -0.01
     3   6    -0.07  -0.01   0.07     0.03   0.11   0.53    -0.01   0.09   0.01
     4  17    -0.01  -0.09  -0.04     0.00   0.01   0.01     0.00   0.01   0.00
     5   9     0.15  -0.06  -0.05     0.11   0.04  -0.04    -0.02   0.01   0.00
     6   9    -0.15   0.01  -0.08    -0.02   0.02   0.01     0.04  -0.03   0.04
     7  17     0.01   0.00  -0.03    -0.02  -0.04  -0.16     0.00  -0.01   0.00
     8   1    -0.20  -0.30   0.04     0.11   0.13  -0.07    -0.33  -0.33  -0.11
     9   1     0.25  -0.03   0.72    -0.12  -0.02  -0.28     0.45  -0.09   0.02
    10   1    -0.14  -0.12   0.03     0.07   0.14   0.50    -0.36  -0.36  -0.02
    11   1     0.11  -0.06   0.03    -0.17   0.17   0.42     0.48  -0.07   0.20
                     13                     14                     15
                      A                      A                      A
 Frequencies --    921.3825              1051.6881              1060.6146
 Red. masses --      3.1776                 2.4035                 2.8914
 Frc consts  --      1.5894                 1.5663                 1.9164
 IR Inten    --    146.4614                82.0944                19.8774
  Atom  AN      X      Y      Z        X      Y      Z        X      Y      Z
     1   6    -0.06   0.04  -0.18     0.15  -0.11  -0.07     0.23   0.16  -0.04
     2   6    -0.03   0.28   0.02     0.14   0.15   0.02     0.04  -0.11  -0.04
     3   6     0.05  -0.08   0.05    -0.15   0.09   0.03    -0.21  -0.14   0.07
     4  17     0.00  -0.01  -0.01     0.00   0.00   0.00     0.00   0.00   0.00
     5   9    -0.06  -0.04   0.01    -0.08  -0.03   0.04    -0.03   0.01   0.03
     6   9     0.11  -0.12   0.10    -0.01  -0.01  -0.01    -0.01   0.02  -0.01
     7  17    -0.01   0.01  -0.01     0.00  -0.02   0.00     0.00   0.01  -0.01
     8   1     0.10  -0.12  -0.64     0.37   0.24   0.02     0.10  -0.10  -0.16
     9   1    -0.05  -0.02   0.21    -0.15   0.02  -0.25     0.55   0.06  -0.02
    10   1     0.19   0.28   0.30    -0.19  -0.25  -0.38    -0.22   0.12   0.43
    11   1    -0.32   0.04  -0.21    -0.04   0.01   0.59    -0.31  -0.09  -0.35
                     16                     17                     18
                      A                      A                      A
 Frequencies --   1102.1373              1186.0054              1214.4546
 Red. masses --      4.2784                 2.8619                 1.6120
 Frc consts  --      3.0620                 2.3718                 1.4008
 IR Inten    --    143.5436               108.9164                77.4241
  Atom  AN      X      Y      Z        X      Y      Z        X      Y      Z
     1   6    -0.13  -0.01  -0.08    -0.02  -0.09  -0.10     0.05  -0.09   0.06
     2   6     0.44  -0.01  -0.02    -0.02   0.04   0.36    -0.07   0.11  -0.13
     3   6     0.13  -0.03   0.03    -0.01  -0.01   0.00    -0.01   0.02  -0.01
     4  17    -0.01   0.00   0.00     0.00  -0.01  -0.01     0.00   0.00   0.00
     5   9    -0.15  -0.04   0.05     0.06   0.01  -0.05    -0.01  -0.01   0.01
     6   9    -0.08   0.05  -0.04    -0.04   0.03  -0.06     0.03  -0.03   0.02
     7  17    -0.01   0.01  -0.01     0.00   0.01   0.00     0.00   0.01   0.00
     8   1    -0.47  -0.08   0.38     0.03   0.02  -0.04    -0.06   0.13   0.51
     9   1    -0.01  -0.07   0.12     0.24  -0.07  -0.70    -0.03  -0.01  -0.32
    10   1     0.01   0.15   0.50    -0.14   0.01   0.27    -0.30  -0.01   0.46
    11   1     0.07   0.01  -0.25     0.19  -0.04  -0.39     0.29  -0.04  -0.42
                     19                     20                     21
                      A                      A                      A
 Frequencies --   1291.5073              1325.6805              1388.9172
 Red. masses --      1.2701                 1.1365                 1.5142
 Frc consts  --      1.2482                 1.1767                 1.7210
 IR Inten    --     17.0098                13.5607                37.8974
  Atom  AN      X      Y      Z        X      Y      Z        X      Y      Z
     1   6    -0.07   0.00   0.05     0.01  -0.04   0.01     0.09  -0.01  -0.16
     2   6     0.05   0.01  -0.05     0.02  -0.06   0.01    -0.05  -0.01   0.05
     3   6    -0.05   0.00   0.09    -0.02   0.07  -0.01    -0.02   0.01   0.08
     4  17     0.00   0.00   0.00     0.00   0.00   0.00     0.00   0.00   0.00
     5   9    -0.01  -0.01   0.01     0.00   0.00   0.00     0.01   0.00   0.00
     6   9     0.00   0.00   0.01    -0.01   0.01   0.00     0.00   0.00   0.00
     7  17     0.01   0.00   0.01     0.00   0.00   0.00     0.00   0.00   0.01
     8   1     0.13   0.01  -0.23     0.38   0.04  -0.44    -0.32   0.01   0.48
     9   1     0.17  -0.02  -0.24    -0.38   0.00   0.41    -0.33   0.01   0.49
    10   1     0.27  -0.08  -0.58    -0.29  -0.06   0.26     0.11  -0.11  -0.33
    11   1     0.24  -0.03  -0.59     0.33  -0.01  -0.27     0.08   0.01  -0.36
                     22                     23                     24
                      A                      A                      A
 Frequencies --   1484.9874              1503.5755              3072.4153
 Red. masses --      1.0840                 1.0965                 1.0619
 Frc consts  --      1.4084                 1.4605                 5.9058
 IR Inten    --      5.8756                 3.5275                 2.3407
  Atom  AN      X      Y      Z        X      Y      Z        X      Y      Z
     1   6    -0.07  -0.03  -0.04     0.00   0.01   0.03     0.05   0.04   0.03
     2   6    -0.01   0.00   0.00     0.01   0.00   0.00     0.00   0.00   0.00
     3   6     0.01   0.00  -0.01     0.08   0.03   0.01    -0.01  -0.01   0.00
     4  17     0.00   0.00   0.00     0.00   0.00   0.00     0.00   0.00   0.00
     5   9     0.00   0.00   0.00     0.00   0.00   0.00     0.00   0.00   0.00
     6   9     0.00   0.00   0.00     0.00   0.00   0.00     0.00   0.00   0.00
     7  17     0.00   0.00   0.00     0.00   0.00   0.00     0.00   0.00   0.00
     8   1     0.32   0.59   0.20    -0.02  -0.10  -0.07    -0.33   0.29  -0.21
     9   1     0.54  -0.23   0.36    -0.06   0.04  -0.09    -0.21  -0.83  -0.12
    10   1    -0.07  -0.09   0.00    -0.38  -0.57  -0.09     0.04  -0.04   0.02
    11   1    -0.11   0.03  -0.03    -0.60   0.22  -0.27     0.02   0.10   0.01
                     25                     26                     27
                      A                      A                      A
 Frequencies --   3106.2728              3126.3492              3167.3008
 Red. masses --      1.0570                 1.1019                 1.1111
 Frc consts  --      6.0093                 6.3454                 6.5672
 IR Inten    --      6.2226                 0.7090                 0.9205
  Atom  AN      X      Y      Z        X      Y      Z        X      Y      Z
     1   6     0.00  -0.01   0.00    -0.04   0.08  -0.03    -0.01   0.02  -0.01
     2   6     0.00   0.00   0.00     0.00   0.00   0.00     0.00   0.00   0.00
     3   6    -0.06  -0.02  -0.03     0.00  -0.03   0.00    -0.02   0.09  -0.02
     4  17     0.00   0.00   0.00     0.00   0.00   0.00     0.00   0.00   0.00
     5   9     0.00   0.00   0.00     0.00   0.00   0.00     0.00   0.00   0.00
     6   9     0.00   0.00   0.00     0.00   0.00   0.00     0.00   0.00   0.00
     7  17     0.00   0.00   0.00     0.00   0.00   0.00     0.00   0.00   0.00
     8   1    -0.01   0.01  -0.01     0.58  -0.49   0.38     0.15  -0.12   0.09
     9   1     0.04   0.13   0.02    -0.12  -0.42  -0.07    -0.04  -0.15  -0.02
    10   1     0.50  -0.44   0.30    -0.07   0.06  -0.05     0.46  -0.38   0.27
    11   1     0.16   0.64   0.04     0.06   0.24   0.02    -0.19  -0.67  -0.05

 -------------------
 - Thermochemistry -
 -------------------
 Temperature   298.150 Kelvin.  Pressure   1.00000 Atm.
 Atom     1 has atomic number  6 and mass  12.00000
 Atom     2 has atomic number  6 and mass  12.00000
 Atom     3 has atomic number  6 and mass  12.00000
 Atom     4 has atomic number 17 and mass  34.96885
 Atom     5 has atomic number  9 and mass  18.99840
 Atom     6 has atomic number  9 and mass  18.99840
 Atom     7 has atomic number 17 and mass  34.96885
 Atom     8 has atomic number  1 and mass   1.00783
 Atom     9 has atomic number  1 and mass   1.00783
 Atom    10 has atomic number  1 and mass   1.00783
 Atom    11 has atomic number  1 and mass   1.00783
 Molecular mass:   147.96581 amu.
 Principal axes and moments of inertia in atomic units:
                           1         2         3
     Eigenvalues --   572.576102178.017442375.82954
           X           -0.33477   0.34784   0.87575
           Y            0.20500   0.93400  -0.29261
           Z            0.91973  -0.08157   0.38398
 This molecule is an asymmetric top.
 Rotational symmetry number  1.
 Warning -- assumption of classical behavior for rotation
           may cause significant error
 Rotational temperatures (Kelvin)      0.15127     0.03977     0.03646
 Rotational constants (GHZ):           3.15197     0.82862     0.75963
 Zero-point vibrational energy     184761.4 (Joules/Mol)
                                   44.15903 (Kcal/Mol)
 Warning -- explicit consideration of   9 degrees of freedom as
           vibrations may cause significant error
 Vibrational temperatures:    106.17   160.28   214.71   349.96   466.91
          (Kelvin)            476.39   598.67   653.10   827.13   950.60
                             1077.63  1148.89  1325.66  1513.14  1525.99
                             1585.73  1706.40  1747.33  1858.19  1907.36
                             1998.34  2136.56  2163.31  4420.51  4469.23
                             4498.11  4557.03
 
 Zero-point correction=                           0.070372 (Hartree/Particle)
 Thermal correction to Energy=                    0.077856
 Thermal correction to Enthalpy=                  0.078800
 Thermal correction to Gibbs Free Energy=         0.036905
 Sum of electronic and zero-point Energies=          -1236.920965
 Sum of electronic and thermal Energies=             -1236.913482
 Sum of electronic and thermal Enthalpies=           -1236.912537
 Sum of electronic and thermal Free Energies=        -1236.954432
 
                     E (Thermal)             CV                S
                      KCal/Mol        Cal/Mol-Kelvin    Cal/Mol-Kelvin
 Total                   48.855             25.307             88.175
 Electronic               0.000              0.000              0.000
 Translational            0.889              2.981             40.886
 Rotational               0.889              2.981             29.473
 Vibrational             47.078             19.345             17.817
 Vibration     1          0.599              1.966              4.050
 Vibration     2          0.607              1.940              3.244
 Vibration     3          0.618              1.904              2.682
 Vibration     4          0.659              1.774              1.779
 Vibration     5          0.709              1.626              1.287
 Vibration     6          0.713              1.613              1.255
 Vibration     7          0.779              1.435              0.905
 Vibration     8          0.812              1.352              0.784
 Vibration     9          0.931              1.086              0.495
                       Q            Log10(Q)             Ln(Q)
 Total Bot       0.105909D-16        -16.975067        -39.086536
 Total V=0       0.247565D+16         15.393689         35.445279
 Vib (Bot)       0.242960D-30        -30.614466        -70.492412
 Vib (Bot)    1  0.279337D+01          0.446129          1.027249
 Vib (Bot)    2  0.183792D+01          0.264326          0.608633
 Vib (Bot)    3  0.135906D+01          0.133239          0.306795
 Vib (Bot)    4  0.804938D+00         -0.094238         -0.216990
 Vib (Bot)    5  0.577691D+00         -0.238304         -0.548716
 Vib (Bot)    6  0.563925D+00         -0.248779         -0.572835
 Vib (Bot)    7  0.423251D+00         -0.373402         -0.859789
 Vib (Bot)    8  0.376578D+00         -0.424145         -0.976629
 Vib (Bot)    9  0.266423D+00         -0.574428         -1.322670
 Vib (V=0)       0.567924D+02          1.754290          4.039403
 Vib (V=0)    1  0.333777D+01          0.523456          1.205302
 Vib (V=0)    2  0.240471D+01          0.381064          0.877431
 Vib (V=0)    3  0.194812D+01          0.289616          0.666865
 Vib (V=0)    4  0.144759D+01          0.160645          0.369899
 Vib (V=0)    5  0.126402D+01          0.101754          0.234297
 Vib (V=0)    6  0.125367D+01          0.098182          0.226071
 Vib (V=0)    7  0.115509D+01          0.062616          0.144178
 Vib (V=0)    8  0.112595D+01          0.051518          0.118626
 Vib (V=0)    9  0.106655D+01          0.027982          0.064431
 Electronic      0.100000D+01          0.000000          0.000000
 Translational   0.707452D+08          7.849697         18.074596
 Rotational      0.616171D+06          5.789701         13.331280
 
                                                       dichlorodifluoropropane
                                                             IR Spectrum
 
     3 333                                                              11   1 1 1  11  111                                          
     1 110                                                              54   3 3 2  21  100     9   7 7   6  5    4 4 33   2   11    
     6 207                                                              08   8 2 9  18  065     2   9 4   6  7    5 1 32   4   41 7  
     7 662                                                              45   9 6 2  46  212     1   9 9   1  5    4 6 15   3   91 4  
 
     X XXX                                                              XX   X X X  XX  XXX     X   X X   X  X    X X XX   X   XX X  
                                                                             X X X  XX  XXX     X     X   X  X                       
                                                                             X      XX  XXX     X     X   X  X                       
                                                                             X      XX  X X     X     X   X                          
                                                                             X      XX  X X     X     X   X                          
                                                                                    XX  X X     X     X   X                          
                                                                                    XX  X X     X         X                          
                                                                                    XX  X X     X         X                          
                                                                                    XX  X X     X         X                          
                                                                                    XX  X X     X                                    
                                                                                    XX  X X     X                                    
                                                                                     X  X       X                                    
                                                                                     X  X       X                                    
                                                                                     X  X       X                                    
                                                                                     X  X       X                                    
                                                                                        X       X                                    
                                                                                        X       X                                    
                                                                                        X       X                                    
                                                                                        X       X                                    
                                                                                        X       X                                    
 
 -------------------------------------------------------------------
 Center     Atomic                   Forces (Hartrees/Bohr)
 Number     Number              X              Y              Z
 -------------------------------------------------------------------
      1        6          -0.000094798   -0.000008173   -0.000096554
      2        6          -0.000065146    0.000039201    0.000174948
      3        6           0.000073989    0.000001986   -0.000007920
      4       17          -0.000018680   -0.000050915   -0.000026524
      5        9           0.000059281    0.000034590   -0.000030745
      6        9           0.000029831   -0.000028732    0.000000491
      7       17          -0.000002827    0.000001278   -0.000001911
      8        1           0.000022005   -0.000000304   -0.000021757
      9        1           0.000016523    0.000008366    0.000014598
     10        1          -0.000002589    0.000004153   -0.000004673
     11        1          -0.000017589   -0.000001450    0.000000047
 -------------------------------------------------------------------
 Cartesian Forces:  Max     0.000174948 RMS     0.000047099
 Force constants in Cartesian coordinates: 
                1             2             3             4             5 
      1  0.537181D+00
      2 -0.214534D-01  0.604301D+00
      3  0.388646D-01 -0.284471D-01  0.480296D+00
      4 -0.721608D-01  0.158551D-02  0.817224D-02  0.434865D+00
      5 -0.660428D-03 -0.724575D-01 -0.151280D-01 -0.122860D-01  0.348145D+00
      6 -0.141268D-02 -0.317661D-01 -0.175402D+00 -0.158463D-01 -0.227927D-01
      7 -0.179420D+00 -0.204503D-01  0.304933D-01  0.441430D-03  0.264130D-02
      8 -0.190806D-01 -0.877812D-01  0.987112D-02  0.559108D-02 -0.192862D-03
      9  0.312422D-01  0.105329D-01 -0.792524D-01  0.294312D-01  0.434678D-02
     10  0.341919D-02 -0.351089D-02 -0.128061D-02 -0.322022D-01 -0.516230D-02
     11 -0.488678D-02 -0.210110D-01 -0.466547D-02 -0.407969D-02 -0.679280D-01
     12 -0.504041D-02 -0.264811D-01 -0.408875D-02 -0.216402D-02 -0.204626D-01
     13 -0.220089D-01 -0.734033D-02  0.143143D-01 -0.198153D+00 -0.326960D-01
     14 -0.111241D-02  0.554600D-02 -0.169645D-02 -0.478866D-01 -0.770762D-01
     15  0.472654D-01  0.118612D-01 -0.191260D-01  0.618893D-01  0.163113D-01
     16 -0.509542D-02  0.112777D-01 -0.124318D-01 -0.123582D+00  0.503345D-01
     17  0.755002D-02 -0.336016D-03  0.494052D-02  0.630212D-01 -0.119878D+00
     18 -0.338492D-01  0.318163D-01 -0.255650D-01 -0.530036D-01  0.479379D-01
     19  0.166123D-02  0.572123D-02  0.252999D-01 -0.406925D-02 -0.108576D-02
     20  0.246585D-03  0.107472D-02  0.375837D-03 -0.292418D-03 -0.330916D-03
     21  0.100218D-02 -0.652944D-02 -0.301976D-01  0.255662D-02  0.163967D-02
     22 -0.170945D+00  0.106614D+00 -0.820527D-01 -0.129293D-02 -0.652583D-03
     23  0.108136D+00 -0.141408D+00  0.718410D-01 -0.407110D-02  0.110337D-02
     24 -0.802631D-01  0.672421D-01 -0.102453D+00 -0.238120D-01  0.213600D-01
     25 -0.630554D-01 -0.605791D-01 -0.933949D-02 -0.905373D-03  0.650162D-04
     26 -0.614673D-01 -0.290099D+00 -0.345705D-01 -0.187136D-02 -0.103995D-01
     27 -0.103208D-01 -0.324489D-01 -0.542050D-01 -0.825454D-02 -0.345241D-01
     28 -0.212463D-01  0.181860D-01 -0.108106D-01 -0.258641D-02  0.187970D-02
     29 -0.590776D-02  0.498415D-02 -0.341931D-02  0.114981D-02  0.216258D-03
     30  0.968166D-02 -0.830104D-02  0.760229D-02  0.731992D-03 -0.795308D-03
     31 -0.833018D-02 -0.300509D-01 -0.122918D-02 -0.353877D-03 -0.237746D-02
     32 -0.136418D-02 -0.281284D-02  0.898447D-03 -0.860551D-03 -0.120182D-02
     33  0.283011D-02  0.125213D-01  0.239136D-02  0.298993D-03  0.210709D-02
                6             7             8             9            10 
      6  0.503152D+00
      7  0.142573D-01  0.496745D+00
      8 -0.111309D-03 -0.198133D-01  0.586937D+00
      9 -0.184720D-01  0.429251D-01 -0.455317D-01  0.339183D+00
     10 -0.404848D-02 -0.894240D-03 -0.198703D-03  0.108264D-02  0.404985D-01
     11 -0.319486D-01 -0.126912D-02 -0.145042D-02 -0.736488D-04  0.241886D-01
     12 -0.521213D-01 -0.236513D-04 -0.144302D-02 -0.134920D-02  0.451460D-02
     13  0.768027D-01  0.422218D-02  0.839747D-03  0.171820D-02 -0.175049D-01
     14  0.257423D-01  0.230627D-03  0.192627D-02 -0.266093D-03 -0.348827D-01
     15 -0.108333D+00 -0.510820D-02 -0.210878D-02 -0.443062D-02 -0.202068D-02
     16 -0.628446D-01 -0.266106D-02  0.790139D-03  0.273369D-03  0.504530D-02
     17  0.657604D-01  0.121683D-02 -0.487268D-03 -0.284015D-03  0.184522D-01
     18 -0.133594D+00 -0.208855D-02  0.628860D-03  0.851291D-03  0.577869D-03
     19 -0.854827D-03 -0.320283D-01 -0.383973D-03 -0.482577D-02  0.302322D-03
     20  0.646446D-03 -0.487927D-03 -0.383779D-01 -0.190599D-01  0.432789D-03
     21  0.378745D-02 -0.555597D-02 -0.192737D-01 -0.115431D+00  0.171390D-03
     22 -0.106669D-02 -0.233971D-01  0.176482D-01 -0.132703D-01  0.332113D-03
     23 -0.335254D-02 -0.507922D-02  0.453288D-02 -0.372909D-02 -0.506931D-03
     24 -0.131874D-01  0.107214D-01 -0.918068D-02  0.619537D-02  0.632460D-03
     25 -0.138177D-02 -0.992043D-02 -0.312456D-01 -0.345198D-02  0.819730D-03
     26 -0.238487D-02 -0.207058D-02 -0.409626D-02 -0.325839D-03 -0.135363D-03
     27 -0.848740D-02  0.427027D-02  0.139900D-01  0.104526D-02 -0.230429D-03
     28 -0.223314D-02 -0.182597D+00  0.111469D+00 -0.790022D-01  0.910938D-04
     29  0.507797D-03  0.112867D+00 -0.150795D+00  0.711601D-01 -0.456661D-04
     30  0.129088D-02 -0.823227D-01  0.721168D-01 -0.878650D-01 -0.121459D-03
     31 -0.137145D-02 -0.704905D-01 -0.656160D-01 -0.612251D-02  0.930481D-04
     32 -0.300886D-03 -0.677851D-01 -0.310215D+00 -0.167695D-01  0.136893D-02
     33  0.136658D-02 -0.756835D-02 -0.189578D-01 -0.404739D-01  0.722702D-03
               11            12            13            14            15 
     11  0.168056D+00
     12  0.350626D-01  0.458147D-01
     13 -0.325493D-01  0.448144D-03  0.308591D+00
     14 -0.284021D-01  0.554450D-02  0.577321D-01  0.839143D-01
     15  0.128987D-02  0.916939D-02 -0.900233D-01 -0.249112D-01  0.103921D+00
     16  0.170074D-01  0.231265D-03 -0.747566D-01  0.253150D-01 -0.155363D-01
     17 -0.506494D-01  0.110327D-01  0.143119D-01  0.121905D-01 -0.349853D-02
     18  0.602383D-02  0.909917D-02 -0.490990D-02 -0.463223D-02  0.177971D-01
     19  0.547579D-03  0.253370D-03 -0.999259D-03 -0.124770D-03  0.179335D-02
     20  0.482745D-03 -0.789310D-04  0.227778D-03  0.158317D-03 -0.138317D-03
     21 -0.607413D-03 -0.653378D-03  0.238329D-02  0.346474D-03 -0.285079D-02
     22 -0.358282D-03  0.211188D-03  0.368841D-03 -0.284514D-03  0.409171D-03
     23 -0.105630D-03 -0.682398D-03 -0.112659D-02 -0.472187D-04  0.415731D-03
     24 -0.499569D-03  0.502568D-03  0.772720D-03 -0.132362D-02  0.198233D-02
     25  0.583864D-03  0.103743D-02 -0.434462D-03  0.582917D-03  0.601544D-03
     26  0.949995D-03 -0.818875D-03  0.586507D-03  0.182139D-02  0.687955D-03
     27 -0.361385D-02 -0.462217D-02 -0.932752D-03  0.159195D-02  0.203338D-02
     28 -0.114591D-03  0.138971D-03  0.514612D-03 -0.263811D-03  0.402733D-03
     29  0.728057D-05 -0.255409D-03  0.254087D-04 -0.102736D-03 -0.174388D-03
     30  0.115536D-03 -0.274111D-04 -0.356427D-03  0.138636D-03 -0.240793D-04
     31  0.930270D-03  0.393123D-03  0.161261D-03  0.694243D-03  0.327028D-03
     32  0.509169D-04 -0.141752D-02 -0.112552D-04  0.715547D-04  0.265274D-03
     33 -0.108332D-02 -0.172361D-02 -0.216905D-03 -0.534242D-03 -0.138450D-03
               16            17            18            19            20 
     16  0.196274D+00
     17 -0.103177D+00  0.154796D+00
     18  0.905069D-01 -0.802036D-01  0.139810D+00
     19  0.998417D-03 -0.382668D-03  0.620396D-03  0.269397D-01
     20 -0.460731D-03  0.380345D-03 -0.258657D-03  0.930426D-03  0.297363D-01
     21  0.207504D-03 -0.144302D-03 -0.495324D-03 -0.283497D-02  0.357484D-01
     22  0.169628D-02 -0.374763D-03  0.164711D-02  0.135508D-02 -0.289028D-03
     23 -0.583958D-03  0.227190D-02 -0.234891D-02  0.155990D-03 -0.195035D-03
     24 -0.177381D-02  0.610859D-03 -0.869102D-02  0.193466D-03 -0.240756D-03
     25 -0.475701D-04  0.348161D-03  0.535337D-04  0.839412D-03  0.561526D-03
     26  0.373018D-03  0.153057D-02  0.595647D-03  0.453570D-03  0.664404D-03
     27  0.134749D-02  0.164045D-02  0.238615D-02  0.670484D-04  0.678923D-03
     28  0.197285D-02 -0.111001D-02  0.294218D-03  0.356760D-02 -0.171746D-02
     29 -0.794475D-03 -0.210311D-04  0.204775D-03 -0.605921D-02  0.529523D-02
     30  0.272111D-04  0.506288D-03 -0.126896D-02 -0.141414D-01  0.849409D-02
     31  0.155771D-03  0.144361D-03  0.151150D-03  0.143306D-02  0.848463D-03
     32 -0.811814D-04  0.201816D-03  0.236156D-03  0.227580D-03  0.111181D-02
     33 -0.722373D-05 -0.360776D-03 -0.329406D-03 -0.557056D-02 -0.261672D-01
               21            22            23            24            25 
     21  0.189764D+00
     22 -0.244704D-03  0.188759D+00
     23 -0.547419D-03 -0.115649D+00  0.148371D+00
     24  0.104400D-02  0.870792D-01 -0.759276D-01  0.112910D+00
     25 -0.703680D-03  0.621130D-02  0.203050D-01  0.427611D-02  0.704612D-01
     26  0.523801D-03 -0.451229D-02 -0.160218D-01 -0.293007D-02  0.694189D-01
     27  0.432170D-03  0.463324D-02  0.142999D-01  0.257030D-02  0.692817D-02
     28  0.251682D-02 -0.397292D-02 -0.164648D-02  0.299530D-02  0.812493D-03
     29 -0.875700D-02 -0.189873D-02  0.791974D-03  0.753816D-03  0.197236D-03
     30 -0.258799D-01  0.285362D-02  0.676207D-03 -0.108855D-02 -0.571375D-03
     31  0.501522D-03  0.884766D-03  0.659426D-04 -0.821834D-03 -0.478099D-02
     32 -0.239916D-02 -0.243535D-03  0.705634D-03  0.135529D-03 -0.237870D-03
     33 -0.195190D-01 -0.199181D-03 -0.644840D-03  0.215044D-03  0.255151D-02
               26            27            28            29            30 
     26  0.313612D+00
     27  0.392179D-01  0.595769D-01
     28 -0.353529D-03 -0.498248D-03  0.195865D+00
     29  0.701971D-03 -0.766155D-03 -0.121187D+00  0.154463D+00
     30  0.147807D-03  0.175228D-03  0.818080D-01 -0.721875D-01  0.103279D+00
     31 -0.421566D-03  0.299058D-02  0.757908D-02  0.216534D-01  0.241083D-02
     32  0.133640D-02 -0.661756D-04 -0.514204D-02 -0.155409D-01 -0.911553D-03
     33 -0.142903D-03 -0.904757D-03  0.438818D-02  0.129333D-01  0.380691D-02
               31            32            33 
     31  0.736485D-01
     32  0.741292D-01  0.326292D+00
     33  0.277074D-02  0.203294D-01  0.553093D-01
 FormGI is forming the generalized inverse of G from B-inverse, IUseBI=4.
 Leave Link  716 at Thu Jun 13 12:25:02 2024, MaxMem=  1073741824 cpu:         7.2
 (Enter /apps/z_install_tree/linux-rocky8-ivybridge/gcc-12.2.0/gaussian-09-D.01-wczn3gur5lpur3omlkzwa2l5ecyxp5ef/g09/l103.exe)

 GradGradGradGradGradGradGradGradGradGradGradGradGradGradGradGradGradGrad
 Berny optimization.
 Red2BG is reusing G-inverse.
 Internal  Forces:  Max     0.000115515 RMS     0.000026609
 Search for a local minimum.
 Step number   1 out of a maximum of    2
 All quantities printed in internal units (Hartrees-Bohrs-Radians)
 Second derivative matrix not updated -- analytic derivatives used.
 ITU=  0
     Eigenvalues ---    0.00242   0.00418   0.03692   0.03810   0.04380
     Eigenvalues ---    0.06070   0.07003   0.08275   0.08784   0.10712
     Eigenvalues ---    0.12593   0.15776   0.18265   0.19214   0.19953
     Eigenvalues ---    0.21724   0.22837   0.23559   0.26968   0.30528
     Eigenvalues ---    0.33267   0.33820   0.34558   0.34702   0.35198
     Eigenvalues ---    0.38092   0.44200
 Angle between quadratic step and forces=  58.50 degrees.
 Linear search not attempted -- first point.
 Iteration  1 RMS(Cart)=  0.00038206 RMS(Int)=  0.00000008
 Iteration  2 RMS(Cart)=  0.00000008 RMS(Int)=  0.00000001
 ITry= 1 IFail=0 DXMaxC= 9.65D-04 DCOld= 1.00D+10 DXMaxT= 3.00D-01 DXLimC= 3.00D+00 Rises=F
 Variable       Old X    -DE/DX   Delta X   Delta X   Delta X     New X
                                 (Linear)    (Quad)   (Total)
    R1        2.86039   0.00012   0.00000   0.00048   0.00048   2.86087
    R2        2.87171   0.00005   0.00000   0.00023   0.00023   2.87194
    R3        2.05504  -0.00001   0.00000  -0.00004  -0.00004   2.05499
    R4        2.06029  -0.00001   0.00000  -0.00005  -0.00005   2.06023
    R5        3.41622  -0.00006   0.00000  -0.00037  -0.00037   3.41585
    R6        2.55176  -0.00007   0.00000  -0.00024  -0.00024   2.55152
    R7        2.55905   0.00004   0.00000   0.00014   0.00014   2.55918
    R8        3.42562   0.00000   0.00000   0.00002   0.00002   3.42564
    R9        2.05020  -0.00001   0.00000  -0.00003  -0.00003   2.05017
   R10        2.04952  -0.00001   0.00000  -0.00002  -0.00002   2.04949
    A1        1.97159  -0.00002   0.00000  -0.00015  -0.00015   1.97144
    A2        1.88544   0.00003   0.00000   0.00031   0.00031   1.88575
    A3        1.85111  -0.00001   0.00000  -0.00015  -0.00015   1.85096
    A4        1.93695  -0.00002   0.00000  -0.00018  -0.00018   1.93677
    A5        1.92607   0.00001   0.00000  -0.00004  -0.00004   1.92603
    A6        1.88887   0.00000   0.00000   0.00024   0.00024   1.88911
    A7        1.97239  -0.00002   0.00000  -0.00005  -0.00005   1.97234
    A8        1.92030   0.00000   0.00000   0.00003   0.00003   1.92033
    A9        1.93783  -0.00002   0.00000  -0.00023  -0.00023   1.93760
   A10        1.88101   0.00000   0.00000   0.00002   0.00002   1.88103
   A11        1.88028   0.00003   0.00000   0.00015   0.00015   1.88043
   A12        1.86806   0.00002   0.00000   0.00010   0.00010   1.86816
   A13        1.91679   0.00000   0.00000  -0.00006  -0.00006   1.91673
   A14        1.94965   0.00001   0.00000   0.00009   0.00009   1.94974
   A15        1.95238  -0.00002   0.00000  -0.00018  -0.00018   1.95220
   A16        1.86456   0.00000   0.00000   0.00004   0.00004   1.86460
   A17        1.86387   0.00001   0.00000  -0.00001  -0.00001   1.86385
   A18        1.91257   0.00001   0.00000   0.00012   0.00012   1.91269
    D1        1.10163   0.00000   0.00000  -0.00036  -0.00036   1.10127
    D2       -3.07818  -0.00001   0.00000  -0.00034  -0.00034  -3.07852
    D3       -1.01341   0.00000   0.00000  -0.00035  -0.00035  -1.01377
    D4       -1.04774   0.00001   0.00000  -0.00025  -0.00025  -1.04799
    D5        1.05564   0.00000   0.00000  -0.00023  -0.00023   1.05541
    D6        3.12040   0.00001   0.00000  -0.00024  -0.00024   3.12016
    D7       -3.06961   0.00000   0.00000  -0.00060  -0.00060  -3.07022
    D8       -0.96623  -0.00002   0.00000  -0.00059  -0.00059  -0.96682
    D9        1.09853   0.00000   0.00000  -0.00060  -0.00060   1.09793
   D10        3.10134  -0.00001   0.00000  -0.00036  -0.00036   3.10098
   D11        1.03581  -0.00001   0.00000  -0.00043  -0.00043   1.03538
   D12       -1.11547  -0.00001   0.00000  -0.00052  -0.00052  -1.11599
   D13       -1.06132   0.00001   0.00000  -0.00020  -0.00020  -1.06151
   D14       -3.12685   0.00000   0.00000  -0.00027  -0.00027  -3.12712
   D15        1.00506   0.00000   0.00000  -0.00036  -0.00036   1.00470
   D16        1.03252   0.00001   0.00000  -0.00004  -0.00004   1.03248
   D17       -1.03302   0.00000   0.00000  -0.00011  -0.00011  -1.03313
   D18        3.09889   0.00000   0.00000  -0.00020  -0.00020   3.09869
         Item               Value     Threshold  Converged?
 Maximum Force            0.000116     0.000450     YES
 RMS     Force            0.000027     0.000300     YES
 Maximum Displacement     0.000965     0.001800     YES
 RMS     Displacement     0.000382     0.001200     YES
 Predicted change in Energy=-8.690612D-08
 Optimization completed.
    -- Stationary point found.
                           ----------------------------
                           !   Optimized Parameters   !
                           ! (Angstroms and Degrees)  !
 --------------------------                            --------------------------
 ! Name  Definition              Value          Derivative Info.                !
 --------------------------------------------------------------------------------
 ! R1    R(1,2)                  1.5137         -DE/DX =    0.0001              !
 ! R2    R(1,3)                  1.5196         -DE/DX =    0.0001              !
 ! R3    R(1,8)                  1.0875         -DE/DX =    0.0                 !
 ! R4    R(1,9)                  1.0903         -DE/DX =    0.0                 !
 ! R5    R(2,4)                  1.8078         -DE/DX =   -0.0001              !
 ! R6    R(2,5)                  1.3503         -DE/DX =   -0.0001              !
 ! R7    R(2,6)                  1.3542         -DE/DX =    0.0                 !
 ! R8    R(3,7)                  1.8128         -DE/DX =    0.0                 !
 ! R9    R(3,10)                 1.0849         -DE/DX =    0.0                 !
 ! R10   R(3,11)                 1.0846         -DE/DX =    0.0                 !
 ! A1    A(2,1,3)              112.9638         -DE/DX =    0.0                 !
 ! A2    A(2,1,8)              108.0278         -DE/DX =    0.0                 !
 ! A3    A(2,1,9)              106.0608         -DE/DX =    0.0                 !
 ! A4    A(3,1,8)              110.9793         -DE/DX =    0.0                 !
 ! A5    A(3,1,9)              110.3558         -DE/DX =    0.0                 !
 ! A6    A(8,1,9)              108.224          -DE/DX =    0.0                 !
 ! A7    A(1,2,4)              113.0097         -DE/DX =    0.0                 !
 ! A8    A(1,2,5)              110.025          -DE/DX =    0.0                 !
 ! A9    A(1,2,6)              111.0295         -DE/DX =    0.0                 !
 ! A10   A(4,2,5)              107.7738         -DE/DX =    0.0                 !
 ! A11   A(4,2,6)              107.732          -DE/DX =    0.0                 !
 ! A12   A(5,2,6)              107.0321         -DE/DX =    0.0                 !
 ! A13   A(1,3,7)              109.8239         -DE/DX =    0.0                 !
 ! A14   A(1,3,10)             111.7066         -DE/DX =    0.0                 !
 ! A15   A(1,3,11)             111.8634         -DE/DX =    0.0                 !
 ! A16   A(7,3,10)             106.8316         -DE/DX =    0.0                 !
 ! A17   A(7,3,11)             106.7917         -DE/DX =    0.0                 !
 ! A18   A(10,3,11)            109.5821         -DE/DX =    0.0                 !
 ! D1    D(3,1,2,4)             63.1185         -DE/DX =    0.0                 !
 ! D2    D(3,1,2,5)           -176.3664         -DE/DX =    0.0                 !
 ! D3    D(3,1,2,6)            -58.0643         -DE/DX =    0.0                 !
 ! D4    D(8,1,2,4)            -60.0312         -DE/DX =    0.0                 !
 ! D5    D(8,1,2,5)             60.4839         -DE/DX =    0.0                 !
 ! D6    D(8,1,2,6)            178.786          -DE/DX =    0.0                 !
 ! D7    D(9,1,2,4)           -175.8759         -DE/DX =    0.0                 !
 ! D8    D(9,1,2,5)            -55.3609         -DE/DX =    0.0                 !
 ! D9    D(9,1,2,6)             62.9412         -DE/DX =    0.0                 !
 ! D10   D(2,1,3,7)            177.6937         -DE/DX =    0.0                 !
 ! D11   D(2,1,3,10)            59.3474         -DE/DX =    0.0                 !
 ! D12   D(2,1,3,11)           -63.9117         -DE/DX =    0.0                 !
 ! D13   D(8,1,3,7)            -60.809          -DE/DX =    0.0                 !
 ! D14   D(8,1,3,10)          -179.1553         -DE/DX =    0.0                 !
 ! D15   D(8,1,3,11)            57.5856         -DE/DX =    0.0                 !
 ! D16   D(9,1,3,7)             59.1588         -DE/DX =    0.0                 !
 ! D17   D(9,1,3,10)           -59.1875         -DE/DX =    0.0                 !
 ! D18   D(9,1,3,11)           177.5534         -DE/DX =    0.0                 !
 --------------------------------------------------------------------------------
 GradGradGradGradGradGradGradGradGradGradGradGradGradGradGradGradGradGrad

 Leave Link  103 at Thu Jun 13 12:25:03 2024, MaxMem=  1073741824 cpu:         1.1
 (Enter /apps/z_install_tree/linux-rocky8-ivybridge/gcc-12.2.0/gaussian-09-D.01-wczn3gur5lpur3omlkzwa2l5ecyxp5ef/g09/l9999.exe)
 1\1\GINC-K024\Freq\RB3LYP\Gen\C3H4Cl2F2\Z5112331\13-Jun-2024\0\\#P Geo
 m=AllCheck Guess=TCheck SCRF=Check GenChk RB3LYP/ChkBas Freq\\dichloro
 difluoropropane\\0,1\C,50.1256067019,35.3609662272,31.9245731733\C,50.
 0514275283,35.6058493009,33.4164421799\C,51.5070997149,35.6237187354,3
 1.3485880567\Cl,50.3704637982,37.3273537639,33.8666863292\F,48.8251858
 613,35.279474756,33.8781902675\F,50.9438448836,34.833644878,34.0806126
 778\Cl,51.5175612073,35.240381134,29.5768532103\H,49.3776333224,35.986
 6197266,31.4432194644\H,49.8447472084,34.3180689743,31.7757625822\H,52
 .2607347686,34.9946975074,31.8105586649\H,51.793695005,36.6652249962,3
 1.4455133938\\Version=ES64L-G09RevD.01\HF=-1236.9913373\RMSD=2.131e-09
 \RMSF=4.710e-05\ZeroPoint=0.0703719\Thermal=0.0778558\Dipole=0.0374126
 ,0.0549863,-0.1047412\DipoleDeriv=0.0191341,-0.0491825,-0.0695978,-0.0
 039383,-0.0745495,-0.1801893,0.0555178,0.0162388,-0.2018585,1.3321851,
 0.1229433,0.0310904,0.066588,1.8566836,0.1645127,-0.0991886,-0.0670937
 ,1.2318418,0.1425726,-0.0388593,-0.1132185,-0.0348438,0.135982,0.11569
 59,-0.1393868,0.1225135,0.7802742,-0.1173733,-0.0955284,-0.0161641,-0.
 0873058,-0.6821547,-0.1882812,-0.0130253,-0.2139023,-0.2346481,-0.8569
 467,-0.2871289,0.2285063,-0.2282937,-0.4348068,0.039083,0.3060033,0.06
 26885,-0.4706022,-0.4883768,0.2993629,-0.1440227,0.2454503,-0.6734573,
 0.1431255,-0.1938042,0.2301999,-0.5101254,-0.1774632,0.0104183,0.04700
 13,0.0216445,-0.1653932,-0.0812806,0.1156044,-0.0789212,-0.572598,0.01
 69615,0.0358378,0.010964,0.0519275,0.0363051,0.0305703,-0.0156241,0.02
 19959,0.0485773,0.0622685,-0.0107654,0.0305689,-0.0415839,-0.0315371,-
 0.0104751,0.0058959,-0.0603023,0.015396,0.0133198,0.0240777,-0.0100651
 ,0.0427129,0.0481561,0.0056078,-0.0250955,0.0078764,-0.0592264,0.05371
 83,-0.0111755,0.0049374,-0.0323576,-0.0152282,-0.038369,0.003103,-0.04
 12935,-0.0270307\Polar=57.4792868,0.726581,63.7898412,-5.459774,7.6712
 502,75.4740333\PG=C01 [X(C3H4Cl2F2)]\NImag=0\\0.53718087,-0.02145339,0
 .60430071,0.03886464,-0.02844713,0.48029564,-0.07216084,0.00158551,0.0
 0817224,0.43486457,-0.00066043,-0.07245750,-0.01512804,-0.01228596,0.3
 4814466,-0.00141268,-0.03176612,-0.17540173,-0.01584632,-0.02279267,0.
 50315215,-0.17941962,-0.02045030,0.03049327,0.00044143,0.00264130,0.01
 425731,0.49674511,-0.01908063,-0.08778119,0.00987112,0.00559108,-0.000
 19286,-0.00011131,-0.01981333,0.58693706,0.03124224,0.01053287,-0.0792
 5241,0.02943125,0.00434678,-0.01847195,0.04292513,-0.04553166,0.339182
 52,0.00341919,-0.00351089,-0.00128061,-0.03220219,-0.00516230,-0.00404
 848,-0.00089424,-0.00019870,0.00108264,0.04049854,-0.00488678,-0.02101
 099,-0.00466547,-0.00407969,-0.06792796,-0.03194860,-0.00126912,-0.001
 45042,-0.00007365,0.02418864,0.16805562,-0.00504041,-0.02648111,-0.004
 08875,-0.00216402,-0.02046257,-0.05212130,-0.00002365,-0.00144302,-0.0
 0134920,0.00451460,0.03506263,0.04581469,-0.02200888,-0.00734033,0.014
 31426,-0.19815336,-0.03269600,0.07680269,0.00422218,0.00083975,0.00171
 820,-0.01750490,-0.03254927,0.00044814,0.30859056,-0.00111241,0.005546
 00,-0.00169645,-0.04788656,-0.07707624,0.02574232,0.00023063,0.0019262
 7,-0.00026609,-0.03488275,-0.02840212,0.00554450,0.05773206,0.08391428
 ,0.04726536,0.01186116,-0.01912604,0.06188930,0.01631128,-0.10833298,-
 0.00510820,-0.00210878,-0.00443062,-0.00202068,0.00128987,0.00916939,-
 0.09002332,-0.02491125,0.10392080,-0.00509542,0.01127774,-0.01243178,-
 0.12358178,0.05033446,-0.06284464,-0.00266106,0.00079014,0.00027337,0.
 00504530,0.01700738,0.00023126,-0.07475660,0.02531496,-0.01553627,0.19
 627381,0.00755002,-0.00033602,0.00494052,0.06302123,-0.11987752,0.0657
 6043,0.00121683,-0.00048727,-0.00028401,0.01845224,-0.05064944,0.01103
 271,0.01431195,0.01219051,-0.00349853,-0.10317735,0.15479612,-0.033849
 17,0.03181631,-0.02556500,-0.05300355,0.04793786,-0.13359427,-0.002088
 55,0.00062886,0.00085129,0.00057787,0.00602383,0.00909917,-0.00490990,
 -0.00463223,0.01779707,0.09050689,-0.08020364,0.13981032,0.00166123,0.
 00572123,0.02529988,-0.00406925,-0.00108576,-0.00085483,-0.03202830,-0
 .00038397,-0.00482577,0.00030232,0.00054758,0.00025337,-0.00099926,-0.
 00012477,0.00179335,0.00099842,-0.00038267,0.00062040,0.02693969,0.000
 24659,0.00107472,0.00037584,-0.00029242,-0.00033092,0.00064645,-0.0004
 8793,-0.03837790,-0.01905991,0.00043279,0.00048274,-0.00007893,0.00022
 778,0.00015832,-0.00013832,-0.00046073,0.00038034,-0.00025866,0.000930
 43,0.02973626,0.00100218,-0.00652944,-0.03019757,0.00255662,0.00163967
 ,0.00378745,-0.00555597,-0.01927366,-0.11543130,0.00017139,-0.00060741
 ,-0.00065338,0.00238329,0.00034647,-0.00285079,0.00020750,-0.00014430,
 -0.00049532,-0.00283497,0.03574845,0.18976364,-0.17094469,0.10661447,-
 0.08205266,-0.00129293,-0.00065258,-0.00106669,-0.02339714,0.01764820,
 -0.01327032,0.00033211,-0.00035828,0.00021119,0.00036884,-0.00028451,0
 .00040917,0.00169628,-0.00037476,0.00164711,0.00135508,-0.00028903,-0.
 00024470,0.18875931,0.10813627,-0.14140758,0.07184099,-0.00407110,0.00
 110337,-0.00335254,-0.00507922,0.00453288,-0.00372909,-0.00050693,-0.0
 0010563,-0.00068240,-0.00112659,-0.00004722,0.00041573,-0.00058396,0.0
 0227190,-0.00234891,0.00015599,-0.00019503,-0.00054742,-0.11564895,0.1
 4837147,-0.08026308,0.06724209,-0.10245274,-0.02381197,0.02136000,-0.0
 1318743,0.01072140,-0.00918068,0.00619537,0.00063246,-0.00049957,0.000
 50257,0.00077272,-0.00132362,0.00198233,-0.00177381,0.00061086,-0.0086
 9102,0.00019347,-0.00024076,0.00104400,0.08707923,-0.07592760,0.112910
 13,-0.06305536,-0.06057914,-0.00933949,-0.00090537,0.00006502,-0.00138
 177,-0.00992043,-0.03124563,-0.00345198,0.00081973,0.00058386,0.001037
 43,-0.00043446,0.00058292,0.00060154,-0.00004757,0.00034816,0.00005353
 ,0.00083941,0.00056153,-0.00070368,0.00621130,0.02030503,0.00427611,0.
 07046125,-0.06146730,-0.29009947,-0.03457052,-0.00187136,-0.01039947,-
 0.00238487,-0.00207058,-0.00409626,-0.00032584,-0.00013536,0.00095000,
 -0.00081887,0.00058651,0.00182139,0.00068796,0.00037302,0.00153057,0.0
 0059565,0.00045357,0.00066440,0.00052380,-0.00451229,-0.01602177,-0.00
 293007,0.06941889,0.31361223,-0.01032084,-0.03244886,-0.05420504,-0.00
 825454,-0.03452408,-0.00848740,0.00427027,0.01399005,0.00104526,-0.000
 23043,-0.00361385,-0.00462217,-0.00093275,0.00159195,0.00203338,0.0013
 4749,0.00164045,0.00238615,0.00006705,0.00067892,0.00043217,0.00463324
 ,0.01429987,0.00257030,0.00692817,0.03921787,0.05957688,-0.02124630,0.
 01818603,-0.01081058,-0.00258641,0.00187970,-0.00223314,-0.18259747,0.
 11146905,-0.07900225,0.00009109,-0.00011459,0.00013897,0.00051461,-0.0
 0026381,0.00040273,0.00197285,-0.00111001,0.00029422,0.00356760,-0.001
 71746,0.00251682,-0.00397292,-0.00164648,0.00299530,0.00081249,-0.0003
 5353,-0.00049825,0.19586537,-0.00590776,0.00498415,-0.00341931,0.00114
 981,0.00021626,0.00050780,0.11286681,-0.15079533,0.07116007,-0.0000456
 7,0.00000728,-0.00025541,0.00002541,-0.00010274,-0.00017439,-0.0007944
 7,-0.00002103,0.00020477,-0.00605921,0.00529523,-0.00875700,-0.0018987
 3,0.00079197,0.00075382,0.00019724,0.00070197,-0.00076616,-0.12118684,
 0.15446316,0.00968166,-0.00830104,0.00760229,0.00073199,-0.00079531,0.
 00129088,-0.08232266,0.07211684,-0.08786502,-0.00012146,0.00011554,-0.
 00002741,-0.00035643,0.00013864,-0.00002408,0.00002721,0.00050629,-0.0
 0126896,-0.01414139,0.00849409,-0.02587987,0.00285362,0.00067621,-0.00
 108855,-0.00057137,0.00014781,0.00017523,0.08180800,-0.07218751,0.1032
 7859,-0.00833018,-0.03005092,-0.00122918,-0.00035388,-0.00237746,-0.00
 137145,-0.07049046,-0.06561595,-0.00612251,0.00009305,0.00093027,0.000
 39312,0.00016126,0.00069424,0.00032703,0.00015577,0.00014436,0.0001511
 5,0.00143306,0.00084846,0.00050152,0.00088477,0.00006594,-0.00082183,-
 0.00478099,-0.00042157,0.00299058,0.00757908,0.02165341,0.00241083,0.0
 7364851,-0.00136418,-0.00281284,0.00089845,-0.00086055,-0.00120182,-0.
 00030089,-0.06778510,-0.31021498,-0.01676947,0.00136893,0.00005092,-0.
 00141752,-0.00001126,0.00007155,0.00026527,-0.00008118,0.00020182,0.00
 023616,0.00022758,0.00111181,-0.00239916,-0.00024354,0.00070563,0.0001
 3553,-0.00023787,0.00133640,-0.00006618,-0.00514204,-0.01554093,-0.000
 91155,0.07412921,0.32629242,0.00283011,0.01252127,0.00239136,0.0002989
 9,0.00210709,0.00136658,-0.00756835,-0.01895776,-0.04047393,0.00072270
 ,-0.00108332,-0.00172361,-0.00021690,-0.00053424,-0.00013845,-0.000007
 22,-0.00036078,-0.00032941,-0.00557056,-0.02616718,-0.01951902,-0.0001
 9918,-0.00064484,0.00021504,0.00255151,-0.00014290,-0.00090476,0.00438
 818,0.01293331,0.00380691,0.00277074,0.02032936,0.05530929\\0.00009480
 ,0.00000817,0.00009655,0.00006515,-0.00003920,-0.00017495,-0.00007399,
 -0.00000199,0.00000792,0.00001868,0.00005091,0.00002652,-0.00005928,-0
 .00003459,0.00003075,-0.00002983,0.00002873,-0.00000049,0.00000283,-0.
 00000128,0.00000191,-0.00002200,0.00000030,0.00002176,-0.00001652,-0.0
 0000837,-0.00001460,0.00000259,-0.00000415,0.00000467,0.00001759,0.000
 00145,-0.00000005\\\@


 OUR LITTLE SYSTEMS HAVE THEIR DAY,    
   THEY HAVE THEIR DAY AND CEASE TO BE.
   THEY ARE BUT BROKEN LIGHTS OF THEE, 
 AND THOU, OH LORD, ART MORE THAN THEY.
          -------------------          
 LET KNOWLEDGE GROW FROM MORE TO MORE, 
   BUT MORE OF REVERENCE IN US DWELL.  
   THAT MIND AND SOUL, ACCORDING WELL, 
 MAY MAKE ONE MUSIC AS BEFORE.....     
          -------------------          
                    LORD TENNYSON      
 Job cpu time:       0 days  0 hours 22 minutes 13.3 seconds.
 File lengths (MBytes):  RWF=    200 Int=      0 D2E=      0 Chk=      6 Scr=      2
 Normal termination of Gaussian 09 at Thu Jun 13 12:25:03 2024.
